
     Program PWSCF v.7.3.1 starts on 18Apr2026 at 23:47:20 

     This program is part of the open-source Quantum ESPRESSO suite
     for quantum simulation of materials; please cite
         "P. Giannozzi et al., J. Phys.:Condens. Matter 21 395502 (2009);
         "P. Giannozzi et al., J. Phys.:Condens. Matter 29 465901 (2017);
         "P. Giannozzi et al., J. Chem. Phys. 152 154105 (2020);
          URL http://www.quantum-espresso.org", 
     in publications or presentations arising from this work. More details at
     http://www.quantum-espresso.org/quote

     Parallel version (MPI & OpenMP), running on       8 processor cores
     Number of MPI processes:                 8
     Threads/MPI process:                     1

     MPI processes distributed on     1 nodes
     22499 MiB available memory on the printing compute node when the environment starts

     Reading input from bands24.0zoom.in

     Current dimensions of program PWSCF are:
     Max number of different atomic species (ntypx) = 10
     Max number of k-points (npk) =  40000
     Max angular momentum in pseudopotentials (lmaxx) =  4

     Atomic positions and unit cell read from directory:
     ./tmp/graphene24.0zoom.save/


     K-points division:     npool     =       8
     Subspace diagonalization in iterative solution of the eigenvalue problem:
     a serial algorithm will be used


     G-vector sticks info
     --------------------
     sticks:   dense  smooth     PW     G-vecs:    dense   smooth      PW
     Sum         277     277     91                21391    21391    3991

     Using Slab Decomposition



     bravais-lattice index     =            0
     lattice parameter (alat)  =       5.7361  a.u.
     unit-cell volume          =     625.6049 (a.u.)^3
     number of atoms/cell      =            2
     number of atomic types    =            1
     number of electrons       =         8.00
     number of Kohn-Sham states=            8
     kinetic-energy cutoff     =      40.0000  Ry
     charge density cutoff     =     160.0000  Ry
     Exchange-correlation= SLA  PW   NOGX NOGC
                           (   1   4   0   0   0   0   0)

     celldm(1)=   5.736145  celldm(2)=   0.000000  celldm(3)=   0.000000
     celldm(4)=   0.000000  celldm(5)=   0.000000  celldm(6)=   0.000000

     crystal axes: (cart. coord. in units of alat)
               a(1) = (   1.000000   0.000000   0.000000 )  
               a(2) = (   0.500000   0.670751   0.000000 )  
               a(3) = (   0.000000   0.000000   4.941726 )  

     reciprocal axes: (cart. coord. in units 2 pi/alat)
               b(1) = (  1.000000 -0.745434  0.000000 )  
               b(2) = (  0.000000  1.490867  0.000000 )  
               b(3) = (  0.000000  0.000000  0.202358 )  


     PseudoPot. # 1 for C  read from file:
     ./C.upf
     MD5 check sum: c9bd9c91d9c48f3c1b9c51e450525728
     Pseudo is Norm-conserving + core correction, Zval =  4.0
     Generated using ONCVPSP code by D. R. Hamann
     Using radial grid of 1234 points,  4 beta functions with: 
                l(1) =   0
                l(2) =   0
                l(3) =   1
                l(4) =   1

     atomic species   valence    mass     pseudopotential
     C                 4.00    12.01100     C ( 1.00)

     No symmetry found


                                    s                        frac. trans.

      isym =  1     identity                                     

 cryst.   s( 1) = (     1          0          0      )
                  (     0          1          0      )
                  (     0          0          1      )

 cart.    s( 1) = (  1.0000000  0.0000000  0.0000000 )
                  (  0.0000000  1.0000000  0.0000000 )
                  (  0.0000000  0.0000000  1.0000000 )


   Cartesian axes

     site n.     atom                  positions (alat units)
         1        C      tau(   1) = (   0.0000000   0.0011832   0.0000000  )
         2        C      tau(   2) = (   0.4999995   0.2224001   0.0000000  )

   Crystallographic axes

     site n.     atom                  positions (cryst. coord.)
         1        C      tau(   1) = ( -0.0008820  0.0017640  0.0000000  )
         2        C      tau(   2) = (  0.3342150  0.3315690  0.0000000  )

     number of k points=  1681
                       cart. coord. in units 2pi/alat
        k(    1) = (  -0.1547540   0.7054340   0.0000000), wk =   0.0011898
        k(    2) = (  -0.1547540   0.7074340   0.0000000), wk =   0.0011898
        k(    3) = (  -0.1547540   0.7094340   0.0000000), wk =   0.0011898
        k(    4) = (  -0.1547540   0.7114340   0.0000000), wk =   0.0011898
        k(    5) = (  -0.1547540   0.7134340   0.0000000), wk =   0.0011898
        k(    6) = (  -0.1547540   0.7154340   0.0000000), wk =   0.0011898
        k(    7) = (  -0.1547540   0.7174340   0.0000000), wk =   0.0011898
        k(    8) = (  -0.1547540   0.7194340   0.0000000), wk =   0.0011898
        k(    9) = (  -0.1547540   0.7214340   0.0000000), wk =   0.0011898
        k(   10) = (  -0.1547540   0.7234340   0.0000000), wk =   0.0011898
        k(   11) = (  -0.1547540   0.7254340   0.0000000), wk =   0.0011898
        k(   12) = (  -0.1547540   0.7274340   0.0000000), wk =   0.0011898
        k(   13) = (  -0.1547540   0.7294340   0.0000000), wk =   0.0011898
        k(   14) = (  -0.1547540   0.7314340   0.0000000), wk =   0.0011898
        k(   15) = (  -0.1547540   0.7334340   0.0000000), wk =   0.0011898
        k(   16) = (  -0.1547540   0.7354340   0.0000000), wk =   0.0011898
        k(   17) = (  -0.1547540   0.7374340   0.0000000), wk =   0.0011898
        k(   18) = (  -0.1547540   0.7394340   0.0000000), wk =   0.0011898
        k(   19) = (  -0.1547540   0.7414340   0.0000000), wk =   0.0011898
        k(   20) = (  -0.1547540   0.7434340   0.0000000), wk =   0.0011898
        k(   21) = (  -0.1547540   0.7454340   0.0000000), wk =   0.0011898
        k(   22) = (  -0.1547540   0.7474340   0.0000000), wk =   0.0011898
        k(   23) = (  -0.1547540   0.7494340   0.0000000), wk =   0.0011898
        k(   24) = (  -0.1547540   0.7514340   0.0000000), wk =   0.0011898
        k(   25) = (  -0.1547540   0.7534340   0.0000000), wk =   0.0011898
        k(   26) = (  -0.1547540   0.7554340   0.0000000), wk =   0.0011898
        k(   27) = (  -0.1547540   0.7574340   0.0000000), wk =   0.0011898
        k(   28) = (  -0.1547540   0.7594340   0.0000000), wk =   0.0011898
        k(   29) = (  -0.1547540   0.7614340   0.0000000), wk =   0.0011898
        k(   30) = (  -0.1547540   0.7634340   0.0000000), wk =   0.0011898
        k(   31) = (  -0.1547540   0.7654340   0.0000000), wk =   0.0011898
        k(   32) = (  -0.1547540   0.7674340   0.0000000), wk =   0.0011898
        k(   33) = (  -0.1547540   0.7694340   0.0000000), wk =   0.0011898
        k(   34) = (  -0.1547540   0.7714340   0.0000000), wk =   0.0011898
        k(   35) = (  -0.1547540   0.7734340   0.0000000), wk =   0.0011898
        k(   36) = (  -0.1547540   0.7754340   0.0000000), wk =   0.0011898
        k(   37) = (  -0.1547540   0.7774340   0.0000000), wk =   0.0011898
        k(   38) = (  -0.1547540   0.7794340   0.0000000), wk =   0.0011898
        k(   39) = (  -0.1547540   0.7814340   0.0000000), wk =   0.0011898
        k(   40) = (  -0.1547540   0.7834340   0.0000000), wk =   0.0011898
        k(   41) = (  -0.1547540   0.7854340   0.0000000), wk =   0.0011898
        k(   42) = (  -0.1527540   0.7054340   0.0000000), wk =   0.0011898
        k(   43) = (  -0.1527540   0.7074340   0.0000000), wk =   0.0011898
        k(   44) = (  -0.1527540   0.7094340   0.0000000), wk =   0.0011898
        k(   45) = (  -0.1527540   0.7114340   0.0000000), wk =   0.0011898
        k(   46) = (  -0.1527540   0.7134340   0.0000000), wk =   0.0011898
        k(   47) = (  -0.1527540   0.7154340   0.0000000), wk =   0.0011898
        k(   48) = (  -0.1527540   0.7174340   0.0000000), wk =   0.0011898
        k(   49) = (  -0.1527540   0.7194340   0.0000000), wk =   0.0011898
        k(   50) = (  -0.1527540   0.7214340   0.0000000), wk =   0.0011898
        k(   51) = (  -0.1527540   0.7234340   0.0000000), wk =   0.0011898
        k(   52) = (  -0.1527540   0.7254340   0.0000000), wk =   0.0011898
        k(   53) = (  -0.1527540   0.7274340   0.0000000), wk =   0.0011898
        k(   54) = (  -0.1527540   0.7294340   0.0000000), wk =   0.0011898
        k(   55) = (  -0.1527540   0.7314340   0.0000000), wk =   0.0011898
        k(   56) = (  -0.1527540   0.7334340   0.0000000), wk =   0.0011898
        k(   57) = (  -0.1527540   0.7354340   0.0000000), wk =   0.0011898
        k(   58) = (  -0.1527540   0.7374340   0.0000000), wk =   0.0011898
        k(   59) = (  -0.1527540   0.7394340   0.0000000), wk =   0.0011898
        k(   60) = (  -0.1527540   0.7414340   0.0000000), wk =   0.0011898
        k(   61) = (  -0.1527540   0.7434340   0.0000000), wk =   0.0011898
        k(   62) = (  -0.1527540   0.7454340   0.0000000), wk =   0.0011898
        k(   63) = (  -0.1527540   0.7474340   0.0000000), wk =   0.0011898
        k(   64) = (  -0.1527540   0.7494340   0.0000000), wk =   0.0011898
        k(   65) = (  -0.1527540   0.7514340   0.0000000), wk =   0.0011898
        k(   66) = (  -0.1527540   0.7534340   0.0000000), wk =   0.0011898
        k(   67) = (  -0.1527540   0.7554340   0.0000000), wk =   0.0011898
        k(   68) = (  -0.1527540   0.7574340   0.0000000), wk =   0.0011898
        k(   69) = (  -0.1527540   0.7594340   0.0000000), wk =   0.0011898
        k(   70) = (  -0.1527540   0.7614340   0.0000000), wk =   0.0011898
        k(   71) = (  -0.1527540   0.7634340   0.0000000), wk =   0.0011898
        k(   72) = (  -0.1527540   0.7654340   0.0000000), wk =   0.0011898
        k(   73) = (  -0.1527540   0.7674340   0.0000000), wk =   0.0011898
        k(   74) = (  -0.1527540   0.7694340   0.0000000), wk =   0.0011898
        k(   75) = (  -0.1527540   0.7714340   0.0000000), wk =   0.0011898
        k(   76) = (  -0.1527540   0.7734340   0.0000000), wk =   0.0011898
        k(   77) = (  -0.1527540   0.7754340   0.0000000), wk =   0.0011898
        k(   78) = (  -0.1527540   0.7774340   0.0000000), wk =   0.0011898
        k(   79) = (  -0.1527540   0.7794340   0.0000000), wk =   0.0011898
        k(   80) = (  -0.1527540   0.7814340   0.0000000), wk =   0.0011898
        k(   81) = (  -0.1527540   0.7834340   0.0000000), wk =   0.0011898
        k(   82) = (  -0.1527540   0.7854340   0.0000000), wk =   0.0011898
        k(   83) = (  -0.1507540   0.7054340   0.0000000), wk =   0.0011898
        k(   84) = (  -0.1507540   0.7074340   0.0000000), wk =   0.0011898
        k(   85) = (  -0.1507540   0.7094340   0.0000000), wk =   0.0011898
        k(   86) = (  -0.1507540   0.7114340   0.0000000), wk =   0.0011898
        k(   87) = (  -0.1507540   0.7134340   0.0000000), wk =   0.0011898
        k(   88) = (  -0.1507540   0.7154340   0.0000000), wk =   0.0011898
        k(   89) = (  -0.1507540   0.7174340   0.0000000), wk =   0.0011898
        k(   90) = (  -0.1507540   0.7194340   0.0000000), wk =   0.0011898
        k(   91) = (  -0.1507540   0.7214340   0.0000000), wk =   0.0011898
        k(   92) = (  -0.1507540   0.7234340   0.0000000), wk =   0.0011898
        k(   93) = (  -0.1507540   0.7254340   0.0000000), wk =   0.0011898
        k(   94) = (  -0.1507540   0.7274340   0.0000000), wk =   0.0011898
        k(   95) = (  -0.1507540   0.7294340   0.0000000), wk =   0.0011898
        k(   96) = (  -0.1507540   0.7314340   0.0000000), wk =   0.0011898
        k(   97) = (  -0.1507540   0.7334340   0.0000000), wk =   0.0011898
        k(   98) = (  -0.1507540   0.7354340   0.0000000), wk =   0.0011898
        k(   99) = (  -0.1507540   0.7374340   0.0000000), wk =   0.0011898
        k(  100) = (  -0.1507540   0.7394340   0.0000000), wk =   0.0011898
        k(  101) = (  -0.1507540   0.7414340   0.0000000), wk =   0.0011898
        k(  102) = (  -0.1507540   0.7434340   0.0000000), wk =   0.0011898
        k(  103) = (  -0.1507540   0.7454340   0.0000000), wk =   0.0011898
        k(  104) = (  -0.1507540   0.7474340   0.0000000), wk =   0.0011898
        k(  105) = (  -0.1507540   0.7494340   0.0000000), wk =   0.0011898
        k(  106) = (  -0.1507540   0.7514340   0.0000000), wk =   0.0011898
        k(  107) = (  -0.1507540   0.7534340   0.0000000), wk =   0.0011898
        k(  108) = (  -0.1507540   0.7554340   0.0000000), wk =   0.0011898
        k(  109) = (  -0.1507540   0.7574340   0.0000000), wk =   0.0011898
        k(  110) = (  -0.1507540   0.7594340   0.0000000), wk =   0.0011898
        k(  111) = (  -0.1507540   0.7614340   0.0000000), wk =   0.0011898
        k(  112) = (  -0.1507540   0.7634340   0.0000000), wk =   0.0011898
        k(  113) = (  -0.1507540   0.7654340   0.0000000), wk =   0.0011898
        k(  114) = (  -0.1507540   0.7674340   0.0000000), wk =   0.0011898
        k(  115) = (  -0.1507540   0.7694340   0.0000000), wk =   0.0011898
        k(  116) = (  -0.1507540   0.7714340   0.0000000), wk =   0.0011898
        k(  117) = (  -0.1507540   0.7734340   0.0000000), wk =   0.0011898
        k(  118) = (  -0.1507540   0.7754340   0.0000000), wk =   0.0011898
        k(  119) = (  -0.1507540   0.7774340   0.0000000), wk =   0.0011898
        k(  120) = (  -0.1507540   0.7794340   0.0000000), wk =   0.0011898
        k(  121) = (  -0.1507540   0.7814340   0.0000000), wk =   0.0011898
        k(  122) = (  -0.1507540   0.7834340   0.0000000), wk =   0.0011898
        k(  123) = (  -0.1507540   0.7854340   0.0000000), wk =   0.0011898
        k(  124) = (  -0.1487540   0.7054340   0.0000000), wk =   0.0011898
        k(  125) = (  -0.1487540   0.7074340   0.0000000), wk =   0.0011898
        k(  126) = (  -0.1487540   0.7094340   0.0000000), wk =   0.0011898
        k(  127) = (  -0.1487540   0.7114340   0.0000000), wk =   0.0011898
        k(  128) = (  -0.1487540   0.7134340   0.0000000), wk =   0.0011898
        k(  129) = (  -0.1487540   0.7154340   0.0000000), wk =   0.0011898
        k(  130) = (  -0.1487540   0.7174340   0.0000000), wk =   0.0011898
        k(  131) = (  -0.1487540   0.7194340   0.0000000), wk =   0.0011898
        k(  132) = (  -0.1487540   0.7214340   0.0000000), wk =   0.0011898
        k(  133) = (  -0.1487540   0.7234340   0.0000000), wk =   0.0011898
        k(  134) = (  -0.1487540   0.7254340   0.0000000), wk =   0.0011898
        k(  135) = (  -0.1487540   0.7274340   0.0000000), wk =   0.0011898
        k(  136) = (  -0.1487540   0.7294340   0.0000000), wk =   0.0011898
        k(  137) = (  -0.1487540   0.7314340   0.0000000), wk =   0.0011898
        k(  138) = (  -0.1487540   0.7334340   0.0000000), wk =   0.0011898
        k(  139) = (  -0.1487540   0.7354340   0.0000000), wk =   0.0011898
        k(  140) = (  -0.1487540   0.7374340   0.0000000), wk =   0.0011898
        k(  141) = (  -0.1487540   0.7394340   0.0000000), wk =   0.0011898
        k(  142) = (  -0.1487540   0.7414340   0.0000000), wk =   0.0011898
        k(  143) = (  -0.1487540   0.7434340   0.0000000), wk =   0.0011898
        k(  144) = (  -0.1487540   0.7454340   0.0000000), wk =   0.0011898
        k(  145) = (  -0.1487540   0.7474340   0.0000000), wk =   0.0011898
        k(  146) = (  -0.1487540   0.7494340   0.0000000), wk =   0.0011898
        k(  147) = (  -0.1487540   0.7514340   0.0000000), wk =   0.0011898
        k(  148) = (  -0.1487540   0.7534340   0.0000000), wk =   0.0011898
        k(  149) = (  -0.1487540   0.7554340   0.0000000), wk =   0.0011898
        k(  150) = (  -0.1487540   0.7574340   0.0000000), wk =   0.0011898
        k(  151) = (  -0.1487540   0.7594340   0.0000000), wk =   0.0011898
        k(  152) = (  -0.1487540   0.7614340   0.0000000), wk =   0.0011898
        k(  153) = (  -0.1487540   0.7634340   0.0000000), wk =   0.0011898
        k(  154) = (  -0.1487540   0.7654340   0.0000000), wk =   0.0011898
        k(  155) = (  -0.1487540   0.7674340   0.0000000), wk =   0.0011898
        k(  156) = (  -0.1487540   0.7694340   0.0000000), wk =   0.0011898
        k(  157) = (  -0.1487540   0.7714340   0.0000000), wk =   0.0011898
        k(  158) = (  -0.1487540   0.7734340   0.0000000), wk =   0.0011898
        k(  159) = (  -0.1487540   0.7754340   0.0000000), wk =   0.0011898
        k(  160) = (  -0.1487540   0.7774340   0.0000000), wk =   0.0011898
        k(  161) = (  -0.1487540   0.7794340   0.0000000), wk =   0.0011898
        k(  162) = (  -0.1487540   0.7814340   0.0000000), wk =   0.0011898
        k(  163) = (  -0.1487540   0.7834340   0.0000000), wk =   0.0011898
        k(  164) = (  -0.1487540   0.7854340   0.0000000), wk =   0.0011898
        k(  165) = (  -0.1467540   0.7054340   0.0000000), wk =   0.0011898
        k(  166) = (  -0.1467540   0.7074340   0.0000000), wk =   0.0011898
        k(  167) = (  -0.1467540   0.7094340   0.0000000), wk =   0.0011898
        k(  168) = (  -0.1467540   0.7114340   0.0000000), wk =   0.0011898
        k(  169) = (  -0.1467540   0.7134340   0.0000000), wk =   0.0011898
        k(  170) = (  -0.1467540   0.7154340   0.0000000), wk =   0.0011898
        k(  171) = (  -0.1467540   0.7174340   0.0000000), wk =   0.0011898
        k(  172) = (  -0.1467540   0.7194340   0.0000000), wk =   0.0011898
        k(  173) = (  -0.1467540   0.7214340   0.0000000), wk =   0.0011898
        k(  174) = (  -0.1467540   0.7234340   0.0000000), wk =   0.0011898
        k(  175) = (  -0.1467540   0.7254340   0.0000000), wk =   0.0011898
        k(  176) = (  -0.1467540   0.7274340   0.0000000), wk =   0.0011898
        k(  177) = (  -0.1467540   0.7294340   0.0000000), wk =   0.0011898
        k(  178) = (  -0.1467540   0.7314340   0.0000000), wk =   0.0011898
        k(  179) = (  -0.1467540   0.7334340   0.0000000), wk =   0.0011898
        k(  180) = (  -0.1467540   0.7354340   0.0000000), wk =   0.0011898
        k(  181) = (  -0.1467540   0.7374340   0.0000000), wk =   0.0011898
        k(  182) = (  -0.1467540   0.7394340   0.0000000), wk =   0.0011898
        k(  183) = (  -0.1467540   0.7414340   0.0000000), wk =   0.0011898
        k(  184) = (  -0.1467540   0.7434340   0.0000000), wk =   0.0011898
        k(  185) = (  -0.1467540   0.7454340   0.0000000), wk =   0.0011898
        k(  186) = (  -0.1467540   0.7474340   0.0000000), wk =   0.0011898
        k(  187) = (  -0.1467540   0.7494340   0.0000000), wk =   0.0011898
        k(  188) = (  -0.1467540   0.7514340   0.0000000), wk =   0.0011898
        k(  189) = (  -0.1467540   0.7534340   0.0000000), wk =   0.0011898
        k(  190) = (  -0.1467540   0.7554340   0.0000000), wk =   0.0011898
        k(  191) = (  -0.1467540   0.7574340   0.0000000), wk =   0.0011898
        k(  192) = (  -0.1467540   0.7594340   0.0000000), wk =   0.0011898
        k(  193) = (  -0.1467540   0.7614340   0.0000000), wk =   0.0011898
        k(  194) = (  -0.1467540   0.7634340   0.0000000), wk =   0.0011898
        k(  195) = (  -0.1467540   0.7654340   0.0000000), wk =   0.0011898
        k(  196) = (  -0.1467540   0.7674340   0.0000000), wk =   0.0011898
        k(  197) = (  -0.1467540   0.7694340   0.0000000), wk =   0.0011898
        k(  198) = (  -0.1467540   0.7714340   0.0000000), wk =   0.0011898
        k(  199) = (  -0.1467540   0.7734340   0.0000000), wk =   0.0011898
        k(  200) = (  -0.1467540   0.7754340   0.0000000), wk =   0.0011898
        k(  201) = (  -0.1467540   0.7774340   0.0000000), wk =   0.0011898
        k(  202) = (  -0.1467540   0.7794340   0.0000000), wk =   0.0011898
        k(  203) = (  -0.1467540   0.7814340   0.0000000), wk =   0.0011898
        k(  204) = (  -0.1467540   0.7834340   0.0000000), wk =   0.0011898
        k(  205) = (  -0.1467540   0.7854340   0.0000000), wk =   0.0011898
        k(  206) = (  -0.1447540   0.7054340   0.0000000), wk =   0.0011898
        k(  207) = (  -0.1447540   0.7074340   0.0000000), wk =   0.0011898
        k(  208) = (  -0.1447540   0.7094340   0.0000000), wk =   0.0011898
        k(  209) = (  -0.1447540   0.7114340   0.0000000), wk =   0.0011898
        k(  210) = (  -0.1447540   0.7134340   0.0000000), wk =   0.0011898
        k(  211) = (  -0.1447540   0.7154340   0.0000000), wk =   0.0011898
        k(  212) = (  -0.1447540   0.7174340   0.0000000), wk =   0.0011898
        k(  213) = (  -0.1447540   0.7194340   0.0000000), wk =   0.0011898
        k(  214) = (  -0.1447540   0.7214340   0.0000000), wk =   0.0011898
        k(  215) = (  -0.1447540   0.7234340   0.0000000), wk =   0.0011898
        k(  216) = (  -0.1447540   0.7254340   0.0000000), wk =   0.0011898
        k(  217) = (  -0.1447540   0.7274340   0.0000000), wk =   0.0011898
        k(  218) = (  -0.1447540   0.7294340   0.0000000), wk =   0.0011898
        k(  219) = (  -0.1447540   0.7314340   0.0000000), wk =   0.0011898
        k(  220) = (  -0.1447540   0.7334340   0.0000000), wk =   0.0011898
        k(  221) = (  -0.1447540   0.7354340   0.0000000), wk =   0.0011898
        k(  222) = (  -0.1447540   0.7374340   0.0000000), wk =   0.0011898
        k(  223) = (  -0.1447540   0.7394340   0.0000000), wk =   0.0011898
        k(  224) = (  -0.1447540   0.7414340   0.0000000), wk =   0.0011898
        k(  225) = (  -0.1447540   0.7434340   0.0000000), wk =   0.0011898
        k(  226) = (  -0.1447540   0.7454340   0.0000000), wk =   0.0011898
        k(  227) = (  -0.1447540   0.7474340   0.0000000), wk =   0.0011898
        k(  228) = (  -0.1447540   0.7494340   0.0000000), wk =   0.0011898
        k(  229) = (  -0.1447540   0.7514340   0.0000000), wk =   0.0011898
        k(  230) = (  -0.1447540   0.7534340   0.0000000), wk =   0.0011898
        k(  231) = (  -0.1447540   0.7554340   0.0000000), wk =   0.0011898
        k(  232) = (  -0.1447540   0.7574340   0.0000000), wk =   0.0011898
        k(  233) = (  -0.1447540   0.7594340   0.0000000), wk =   0.0011898
        k(  234) = (  -0.1447540   0.7614340   0.0000000), wk =   0.0011898
        k(  235) = (  -0.1447540   0.7634340   0.0000000), wk =   0.0011898
        k(  236) = (  -0.1447540   0.7654340   0.0000000), wk =   0.0011898
        k(  237) = (  -0.1447540   0.7674340   0.0000000), wk =   0.0011898
        k(  238) = (  -0.1447540   0.7694340   0.0000000), wk =   0.0011898
        k(  239) = (  -0.1447540   0.7714340   0.0000000), wk =   0.0011898
        k(  240) = (  -0.1447540   0.7734340   0.0000000), wk =   0.0011898
        k(  241) = (  -0.1447540   0.7754340   0.0000000), wk =   0.0011898
        k(  242) = (  -0.1447540   0.7774340   0.0000000), wk =   0.0011898
        k(  243) = (  -0.1447540   0.7794340   0.0000000), wk =   0.0011898
        k(  244) = (  -0.1447540   0.7814340   0.0000000), wk =   0.0011898
        k(  245) = (  -0.1447540   0.7834340   0.0000000), wk =   0.0011898
        k(  246) = (  -0.1447540   0.7854340   0.0000000), wk =   0.0011898
        k(  247) = (  -0.1427540   0.7054340   0.0000000), wk =   0.0011898
        k(  248) = (  -0.1427540   0.7074340   0.0000000), wk =   0.0011898
        k(  249) = (  -0.1427540   0.7094340   0.0000000), wk =   0.0011898
        k(  250) = (  -0.1427540   0.7114340   0.0000000), wk =   0.0011898
        k(  251) = (  -0.1427540   0.7134340   0.0000000), wk =   0.0011898
        k(  252) = (  -0.1427540   0.7154340   0.0000000), wk =   0.0011898
        k(  253) = (  -0.1427540   0.7174340   0.0000000), wk =   0.0011898
        k(  254) = (  -0.1427540   0.7194340   0.0000000), wk =   0.0011898
        k(  255) = (  -0.1427540   0.7214340   0.0000000), wk =   0.0011898
        k(  256) = (  -0.1427540   0.7234340   0.0000000), wk =   0.0011898
        k(  257) = (  -0.1427540   0.7254340   0.0000000), wk =   0.0011898
        k(  258) = (  -0.1427540   0.7274340   0.0000000), wk =   0.0011898
        k(  259) = (  -0.1427540   0.7294340   0.0000000), wk =   0.0011898
        k(  260) = (  -0.1427540   0.7314340   0.0000000), wk =   0.0011898
        k(  261) = (  -0.1427540   0.7334340   0.0000000), wk =   0.0011898
        k(  262) = (  -0.1427540   0.7354340   0.0000000), wk =   0.0011898
        k(  263) = (  -0.1427540   0.7374340   0.0000000), wk =   0.0011898
        k(  264) = (  -0.1427540   0.7394340   0.0000000), wk =   0.0011898
        k(  265) = (  -0.1427540   0.7414340   0.0000000), wk =   0.0011898
        k(  266) = (  -0.1427540   0.7434340   0.0000000), wk =   0.0011898
        k(  267) = (  -0.1427540   0.7454340   0.0000000), wk =   0.0011898
        k(  268) = (  -0.1427540   0.7474340   0.0000000), wk =   0.0011898
        k(  269) = (  -0.1427540   0.7494340   0.0000000), wk =   0.0011898
        k(  270) = (  -0.1427540   0.7514340   0.0000000), wk =   0.0011898
        k(  271) = (  -0.1427540   0.7534340   0.0000000), wk =   0.0011898
        k(  272) = (  -0.1427540   0.7554340   0.0000000), wk =   0.0011898
        k(  273) = (  -0.1427540   0.7574340   0.0000000), wk =   0.0011898
        k(  274) = (  -0.1427540   0.7594340   0.0000000), wk =   0.0011898
        k(  275) = (  -0.1427540   0.7614340   0.0000000), wk =   0.0011898
        k(  276) = (  -0.1427540   0.7634340   0.0000000), wk =   0.0011898
        k(  277) = (  -0.1427540   0.7654340   0.0000000), wk =   0.0011898
        k(  278) = (  -0.1427540   0.7674340   0.0000000), wk =   0.0011898
        k(  279) = (  -0.1427540   0.7694340   0.0000000), wk =   0.0011898
        k(  280) = (  -0.1427540   0.7714340   0.0000000), wk =   0.0011898
        k(  281) = (  -0.1427540   0.7734340   0.0000000), wk =   0.0011898
        k(  282) = (  -0.1427540   0.7754340   0.0000000), wk =   0.0011898
        k(  283) = (  -0.1427540   0.7774340   0.0000000), wk =   0.0011898
        k(  284) = (  -0.1427540   0.7794340   0.0000000), wk =   0.0011898
        k(  285) = (  -0.1427540   0.7814340   0.0000000), wk =   0.0011898
        k(  286) = (  -0.1427540   0.7834340   0.0000000), wk =   0.0011898
        k(  287) = (  -0.1427540   0.7854340   0.0000000), wk =   0.0011898
        k(  288) = (  -0.1407540   0.7054340   0.0000000), wk =   0.0011898
        k(  289) = (  -0.1407540   0.7074340   0.0000000), wk =   0.0011898
        k(  290) = (  -0.1407540   0.7094340   0.0000000), wk =   0.0011898
        k(  291) = (  -0.1407540   0.7114340   0.0000000), wk =   0.0011898
        k(  292) = (  -0.1407540   0.7134340   0.0000000), wk =   0.0011898
        k(  293) = (  -0.1407540   0.7154340   0.0000000), wk =   0.0011898
        k(  294) = (  -0.1407540   0.7174340   0.0000000), wk =   0.0011898
        k(  295) = (  -0.1407540   0.7194340   0.0000000), wk =   0.0011898
        k(  296) = (  -0.1407540   0.7214340   0.0000000), wk =   0.0011898
        k(  297) = (  -0.1407540   0.7234340   0.0000000), wk =   0.0011898
        k(  298) = (  -0.1407540   0.7254340   0.0000000), wk =   0.0011898
        k(  299) = (  -0.1407540   0.7274340   0.0000000), wk =   0.0011898
        k(  300) = (  -0.1407540   0.7294340   0.0000000), wk =   0.0011898
        k(  301) = (  -0.1407540   0.7314340   0.0000000), wk =   0.0011898
        k(  302) = (  -0.1407540   0.7334340   0.0000000), wk =   0.0011898
        k(  303) = (  -0.1407540   0.7354340   0.0000000), wk =   0.0011898
        k(  304) = (  -0.1407540   0.7374340   0.0000000), wk =   0.0011898
        k(  305) = (  -0.1407540   0.7394340   0.0000000), wk =   0.0011898
        k(  306) = (  -0.1407540   0.7414340   0.0000000), wk =   0.0011898
        k(  307) = (  -0.1407540   0.7434340   0.0000000), wk =   0.0011898
        k(  308) = (  -0.1407540   0.7454340   0.0000000), wk =   0.0011898
        k(  309) = (  -0.1407540   0.7474340   0.0000000), wk =   0.0011898
        k(  310) = (  -0.1407540   0.7494340   0.0000000), wk =   0.0011898
        k(  311) = (  -0.1407540   0.7514340   0.0000000), wk =   0.0011898
        k(  312) = (  -0.1407540   0.7534340   0.0000000), wk =   0.0011898
        k(  313) = (  -0.1407540   0.7554340   0.0000000), wk =   0.0011898
        k(  314) = (  -0.1407540   0.7574340   0.0000000), wk =   0.0011898
        k(  315) = (  -0.1407540   0.7594340   0.0000000), wk =   0.0011898
        k(  316) = (  -0.1407540   0.7614340   0.0000000), wk =   0.0011898
        k(  317) = (  -0.1407540   0.7634340   0.0000000), wk =   0.0011898
        k(  318) = (  -0.1407540   0.7654340   0.0000000), wk =   0.0011898
        k(  319) = (  -0.1407540   0.7674340   0.0000000), wk =   0.0011898
        k(  320) = (  -0.1407540   0.7694340   0.0000000), wk =   0.0011898
        k(  321) = (  -0.1407540   0.7714340   0.0000000), wk =   0.0011898
        k(  322) = (  -0.1407540   0.7734340   0.0000000), wk =   0.0011898
        k(  323) = (  -0.1407540   0.7754340   0.0000000), wk =   0.0011898
        k(  324) = (  -0.1407540   0.7774340   0.0000000), wk =   0.0011898
        k(  325) = (  -0.1407540   0.7794340   0.0000000), wk =   0.0011898
        k(  326) = (  -0.1407540   0.7814340   0.0000000), wk =   0.0011898
        k(  327) = (  -0.1407540   0.7834340   0.0000000), wk =   0.0011898
        k(  328) = (  -0.1407540   0.7854340   0.0000000), wk =   0.0011898
        k(  329) = (  -0.1387540   0.7054340   0.0000000), wk =   0.0011898
        k(  330) = (  -0.1387540   0.7074340   0.0000000), wk =   0.0011898
        k(  331) = (  -0.1387540   0.7094340   0.0000000), wk =   0.0011898
        k(  332) = (  -0.1387540   0.7114340   0.0000000), wk =   0.0011898
        k(  333) = (  -0.1387540   0.7134340   0.0000000), wk =   0.0011898
        k(  334) = (  -0.1387540   0.7154340   0.0000000), wk =   0.0011898
        k(  335) = (  -0.1387540   0.7174340   0.0000000), wk =   0.0011898
        k(  336) = (  -0.1387540   0.7194340   0.0000000), wk =   0.0011898
        k(  337) = (  -0.1387540   0.7214340   0.0000000), wk =   0.0011898
        k(  338) = (  -0.1387540   0.7234340   0.0000000), wk =   0.0011898
        k(  339) = (  -0.1387540   0.7254340   0.0000000), wk =   0.0011898
        k(  340) = (  -0.1387540   0.7274340   0.0000000), wk =   0.0011898
        k(  341) = (  -0.1387540   0.7294340   0.0000000), wk =   0.0011898
        k(  342) = (  -0.1387540   0.7314340   0.0000000), wk =   0.0011898
        k(  343) = (  -0.1387540   0.7334340   0.0000000), wk =   0.0011898
        k(  344) = (  -0.1387540   0.7354340   0.0000000), wk =   0.0011898
        k(  345) = (  -0.1387540   0.7374340   0.0000000), wk =   0.0011898
        k(  346) = (  -0.1387540   0.7394340   0.0000000), wk =   0.0011898
        k(  347) = (  -0.1387540   0.7414340   0.0000000), wk =   0.0011898
        k(  348) = (  -0.1387540   0.7434340   0.0000000), wk =   0.0011898
        k(  349) = (  -0.1387540   0.7454340   0.0000000), wk =   0.0011898
        k(  350) = (  -0.1387540   0.7474340   0.0000000), wk =   0.0011898
        k(  351) = (  -0.1387540   0.7494340   0.0000000), wk =   0.0011898
        k(  352) = (  -0.1387540   0.7514340   0.0000000), wk =   0.0011898
        k(  353) = (  -0.1387540   0.7534340   0.0000000), wk =   0.0011898
        k(  354) = (  -0.1387540   0.7554340   0.0000000), wk =   0.0011898
        k(  355) = (  -0.1387540   0.7574340   0.0000000), wk =   0.0011898
        k(  356) = (  -0.1387540   0.7594340   0.0000000), wk =   0.0011898
        k(  357) = (  -0.1387540   0.7614340   0.0000000), wk =   0.0011898
        k(  358) = (  -0.1387540   0.7634340   0.0000000), wk =   0.0011898
        k(  359) = (  -0.1387540   0.7654340   0.0000000), wk =   0.0011898
        k(  360) = (  -0.1387540   0.7674340   0.0000000), wk =   0.0011898
        k(  361) = (  -0.1387540   0.7694340   0.0000000), wk =   0.0011898
        k(  362) = (  -0.1387540   0.7714340   0.0000000), wk =   0.0011898
        k(  363) = (  -0.1387540   0.7734340   0.0000000), wk =   0.0011898
        k(  364) = (  -0.1387540   0.7754340   0.0000000), wk =   0.0011898
        k(  365) = (  -0.1387540   0.7774340   0.0000000), wk =   0.0011898
        k(  366) = (  -0.1387540   0.7794340   0.0000000), wk =   0.0011898
        k(  367) = (  -0.1387540   0.7814340   0.0000000), wk =   0.0011898
        k(  368) = (  -0.1387540   0.7834340   0.0000000), wk =   0.0011898
        k(  369) = (  -0.1387540   0.7854340   0.0000000), wk =   0.0011898
        k(  370) = (  -0.1367540   0.7054340   0.0000000), wk =   0.0011898
        k(  371) = (  -0.1367540   0.7074340   0.0000000), wk =   0.0011898
        k(  372) = (  -0.1367540   0.7094340   0.0000000), wk =   0.0011898
        k(  373) = (  -0.1367540   0.7114340   0.0000000), wk =   0.0011898
        k(  374) = (  -0.1367540   0.7134340   0.0000000), wk =   0.0011898
        k(  375) = (  -0.1367540   0.7154340   0.0000000), wk =   0.0011898
        k(  376) = (  -0.1367540   0.7174340   0.0000000), wk =   0.0011898
        k(  377) = (  -0.1367540   0.7194340   0.0000000), wk =   0.0011898
        k(  378) = (  -0.1367540   0.7214340   0.0000000), wk =   0.0011898
        k(  379) = (  -0.1367540   0.7234340   0.0000000), wk =   0.0011898
        k(  380) = (  -0.1367540   0.7254340   0.0000000), wk =   0.0011898
        k(  381) = (  -0.1367540   0.7274340   0.0000000), wk =   0.0011898
        k(  382) = (  -0.1367540   0.7294340   0.0000000), wk =   0.0011898
        k(  383) = (  -0.1367540   0.7314340   0.0000000), wk =   0.0011898
        k(  384) = (  -0.1367540   0.7334340   0.0000000), wk =   0.0011898
        k(  385) = (  -0.1367540   0.7354340   0.0000000), wk =   0.0011898
        k(  386) = (  -0.1367540   0.7374340   0.0000000), wk =   0.0011898
        k(  387) = (  -0.1367540   0.7394340   0.0000000), wk =   0.0011898
        k(  388) = (  -0.1367540   0.7414340   0.0000000), wk =   0.0011898
        k(  389) = (  -0.1367540   0.7434340   0.0000000), wk =   0.0011898
        k(  390) = (  -0.1367540   0.7454340   0.0000000), wk =   0.0011898
        k(  391) = (  -0.1367540   0.7474340   0.0000000), wk =   0.0011898
        k(  392) = (  -0.1367540   0.7494340   0.0000000), wk =   0.0011898
        k(  393) = (  -0.1367540   0.7514340   0.0000000), wk =   0.0011898
        k(  394) = (  -0.1367540   0.7534340   0.0000000), wk =   0.0011898
        k(  395) = (  -0.1367540   0.7554340   0.0000000), wk =   0.0011898
        k(  396) = (  -0.1367540   0.7574340   0.0000000), wk =   0.0011898
        k(  397) = (  -0.1367540   0.7594340   0.0000000), wk =   0.0011898
        k(  398) = (  -0.1367540   0.7614340   0.0000000), wk =   0.0011898
        k(  399) = (  -0.1367540   0.7634340   0.0000000), wk =   0.0011898
        k(  400) = (  -0.1367540   0.7654340   0.0000000), wk =   0.0011898
        k(  401) = (  -0.1367540   0.7674340   0.0000000), wk =   0.0011898
        k(  402) = (  -0.1367540   0.7694340   0.0000000), wk =   0.0011898
        k(  403) = (  -0.1367540   0.7714340   0.0000000), wk =   0.0011898
        k(  404) = (  -0.1367540   0.7734340   0.0000000), wk =   0.0011898
        k(  405) = (  -0.1367540   0.7754340   0.0000000), wk =   0.0011898
        k(  406) = (  -0.1367540   0.7774340   0.0000000), wk =   0.0011898
        k(  407) = (  -0.1367540   0.7794340   0.0000000), wk =   0.0011898
        k(  408) = (  -0.1367540   0.7814340   0.0000000), wk =   0.0011898
        k(  409) = (  -0.1367540   0.7834340   0.0000000), wk =   0.0011898
        k(  410) = (  -0.1367540   0.7854340   0.0000000), wk =   0.0011898
        k(  411) = (  -0.1347540   0.7054340   0.0000000), wk =   0.0011898
        k(  412) = (  -0.1347540   0.7074340   0.0000000), wk =   0.0011898
        k(  413) = (  -0.1347540   0.7094340   0.0000000), wk =   0.0011898
        k(  414) = (  -0.1347540   0.7114340   0.0000000), wk =   0.0011898
        k(  415) = (  -0.1347540   0.7134340   0.0000000), wk =   0.0011898
        k(  416) = (  -0.1347540   0.7154340   0.0000000), wk =   0.0011898
        k(  417) = (  -0.1347540   0.7174340   0.0000000), wk =   0.0011898
        k(  418) = (  -0.1347540   0.7194340   0.0000000), wk =   0.0011898
        k(  419) = (  -0.1347540   0.7214340   0.0000000), wk =   0.0011898
        k(  420) = (  -0.1347540   0.7234340   0.0000000), wk =   0.0011898
        k(  421) = (  -0.1347540   0.7254340   0.0000000), wk =   0.0011898
        k(  422) = (  -0.1347540   0.7274340   0.0000000), wk =   0.0011898
        k(  423) = (  -0.1347540   0.7294340   0.0000000), wk =   0.0011898
        k(  424) = (  -0.1347540   0.7314340   0.0000000), wk =   0.0011898
        k(  425) = (  -0.1347540   0.7334340   0.0000000), wk =   0.0011898
        k(  426) = (  -0.1347540   0.7354340   0.0000000), wk =   0.0011898
        k(  427) = (  -0.1347540   0.7374340   0.0000000), wk =   0.0011898
        k(  428) = (  -0.1347540   0.7394340   0.0000000), wk =   0.0011898
        k(  429) = (  -0.1347540   0.7414340   0.0000000), wk =   0.0011898
        k(  430) = (  -0.1347540   0.7434340   0.0000000), wk =   0.0011898
        k(  431) = (  -0.1347540   0.7454340   0.0000000), wk =   0.0011898
        k(  432) = (  -0.1347540   0.7474340   0.0000000), wk =   0.0011898
        k(  433) = (  -0.1347540   0.7494340   0.0000000), wk =   0.0011898
        k(  434) = (  -0.1347540   0.7514340   0.0000000), wk =   0.0011898
        k(  435) = (  -0.1347540   0.7534340   0.0000000), wk =   0.0011898
        k(  436) = (  -0.1347540   0.7554340   0.0000000), wk =   0.0011898
        k(  437) = (  -0.1347540   0.7574340   0.0000000), wk =   0.0011898
        k(  438) = (  -0.1347540   0.7594340   0.0000000), wk =   0.0011898
        k(  439) = (  -0.1347540   0.7614340   0.0000000), wk =   0.0011898
        k(  440) = (  -0.1347540   0.7634340   0.0000000), wk =   0.0011898
        k(  441) = (  -0.1347540   0.7654340   0.0000000), wk =   0.0011898
        k(  442) = (  -0.1347540   0.7674340   0.0000000), wk =   0.0011898
        k(  443) = (  -0.1347540   0.7694340   0.0000000), wk =   0.0011898
        k(  444) = (  -0.1347540   0.7714340   0.0000000), wk =   0.0011898
        k(  445) = (  -0.1347540   0.7734340   0.0000000), wk =   0.0011898
        k(  446) = (  -0.1347540   0.7754340   0.0000000), wk =   0.0011898
        k(  447) = (  -0.1347540   0.7774340   0.0000000), wk =   0.0011898
        k(  448) = (  -0.1347540   0.7794340   0.0000000), wk =   0.0011898
        k(  449) = (  -0.1347540   0.7814340   0.0000000), wk =   0.0011898
        k(  450) = (  -0.1347540   0.7834340   0.0000000), wk =   0.0011898
        k(  451) = (  -0.1347540   0.7854340   0.0000000), wk =   0.0011898
        k(  452) = (  -0.1327540   0.7054340   0.0000000), wk =   0.0011898
        k(  453) = (  -0.1327540   0.7074340   0.0000000), wk =   0.0011898
        k(  454) = (  -0.1327540   0.7094340   0.0000000), wk =   0.0011898
        k(  455) = (  -0.1327540   0.7114340   0.0000000), wk =   0.0011898
        k(  456) = (  -0.1327540   0.7134340   0.0000000), wk =   0.0011898
        k(  457) = (  -0.1327540   0.7154340   0.0000000), wk =   0.0011898
        k(  458) = (  -0.1327540   0.7174340   0.0000000), wk =   0.0011898
        k(  459) = (  -0.1327540   0.7194340   0.0000000), wk =   0.0011898
        k(  460) = (  -0.1327540   0.7214340   0.0000000), wk =   0.0011898
        k(  461) = (  -0.1327540   0.7234340   0.0000000), wk =   0.0011898
        k(  462) = (  -0.1327540   0.7254340   0.0000000), wk =   0.0011898
        k(  463) = (  -0.1327540   0.7274340   0.0000000), wk =   0.0011898
        k(  464) = (  -0.1327540   0.7294340   0.0000000), wk =   0.0011898
        k(  465) = (  -0.1327540   0.7314340   0.0000000), wk =   0.0011898
        k(  466) = (  -0.1327540   0.7334340   0.0000000), wk =   0.0011898
        k(  467) = (  -0.1327540   0.7354340   0.0000000), wk =   0.0011898
        k(  468) = (  -0.1327540   0.7374340   0.0000000), wk =   0.0011898
        k(  469) = (  -0.1327540   0.7394340   0.0000000), wk =   0.0011898
        k(  470) = (  -0.1327540   0.7414340   0.0000000), wk =   0.0011898
        k(  471) = (  -0.1327540   0.7434340   0.0000000), wk =   0.0011898
        k(  472) = (  -0.1327540   0.7454340   0.0000000), wk =   0.0011898
        k(  473) = (  -0.1327540   0.7474340   0.0000000), wk =   0.0011898
        k(  474) = (  -0.1327540   0.7494340   0.0000000), wk =   0.0011898
        k(  475) = (  -0.1327540   0.7514340   0.0000000), wk =   0.0011898
        k(  476) = (  -0.1327540   0.7534340   0.0000000), wk =   0.0011898
        k(  477) = (  -0.1327540   0.7554340   0.0000000), wk =   0.0011898
        k(  478) = (  -0.1327540   0.7574340   0.0000000), wk =   0.0011898
        k(  479) = (  -0.1327540   0.7594340   0.0000000), wk =   0.0011898
        k(  480) = (  -0.1327540   0.7614340   0.0000000), wk =   0.0011898
        k(  481) = (  -0.1327540   0.7634340   0.0000000), wk =   0.0011898
        k(  482) = (  -0.1327540   0.7654340   0.0000000), wk =   0.0011898
        k(  483) = (  -0.1327540   0.7674340   0.0000000), wk =   0.0011898
        k(  484) = (  -0.1327540   0.7694340   0.0000000), wk =   0.0011898
        k(  485) = (  -0.1327540   0.7714340   0.0000000), wk =   0.0011898
        k(  486) = (  -0.1327540   0.7734340   0.0000000), wk =   0.0011898
        k(  487) = (  -0.1327540   0.7754340   0.0000000), wk =   0.0011898
        k(  488) = (  -0.1327540   0.7774340   0.0000000), wk =   0.0011898
        k(  489) = (  -0.1327540   0.7794340   0.0000000), wk =   0.0011898
        k(  490) = (  -0.1327540   0.7814340   0.0000000), wk =   0.0011898
        k(  491) = (  -0.1327540   0.7834340   0.0000000), wk =   0.0011898
        k(  492) = (  -0.1327540   0.7854340   0.0000000), wk =   0.0011898
        k(  493) = (  -0.1307540   0.7054340   0.0000000), wk =   0.0011898
        k(  494) = (  -0.1307540   0.7074340   0.0000000), wk =   0.0011898
        k(  495) = (  -0.1307540   0.7094340   0.0000000), wk =   0.0011898
        k(  496) = (  -0.1307540   0.7114340   0.0000000), wk =   0.0011898
        k(  497) = (  -0.1307540   0.7134340   0.0000000), wk =   0.0011898
        k(  498) = (  -0.1307540   0.7154340   0.0000000), wk =   0.0011898
        k(  499) = (  -0.1307540   0.7174340   0.0000000), wk =   0.0011898
        k(  500) = (  -0.1307540   0.7194340   0.0000000), wk =   0.0011898
        k(  501) = (  -0.1307540   0.7214340   0.0000000), wk =   0.0011898
        k(  502) = (  -0.1307540   0.7234340   0.0000000), wk =   0.0011898
        k(  503) = (  -0.1307540   0.7254340   0.0000000), wk =   0.0011898
        k(  504) = (  -0.1307540   0.7274340   0.0000000), wk =   0.0011898
        k(  505) = (  -0.1307540   0.7294340   0.0000000), wk =   0.0011898
        k(  506) = (  -0.1307540   0.7314340   0.0000000), wk =   0.0011898
        k(  507) = (  -0.1307540   0.7334340   0.0000000), wk =   0.0011898
        k(  508) = (  -0.1307540   0.7354340   0.0000000), wk =   0.0011898
        k(  509) = (  -0.1307540   0.7374340   0.0000000), wk =   0.0011898
        k(  510) = (  -0.1307540   0.7394340   0.0000000), wk =   0.0011898
        k(  511) = (  -0.1307540   0.7414340   0.0000000), wk =   0.0011898
        k(  512) = (  -0.1307540   0.7434340   0.0000000), wk =   0.0011898
        k(  513) = (  -0.1307540   0.7454340   0.0000000), wk =   0.0011898
        k(  514) = (  -0.1307540   0.7474340   0.0000000), wk =   0.0011898
        k(  515) = (  -0.1307540   0.7494340   0.0000000), wk =   0.0011898
        k(  516) = (  -0.1307540   0.7514340   0.0000000), wk =   0.0011898
        k(  517) = (  -0.1307540   0.7534340   0.0000000), wk =   0.0011898
        k(  518) = (  -0.1307540   0.7554340   0.0000000), wk =   0.0011898
        k(  519) = (  -0.1307540   0.7574340   0.0000000), wk =   0.0011898
        k(  520) = (  -0.1307540   0.7594340   0.0000000), wk =   0.0011898
        k(  521) = (  -0.1307540   0.7614340   0.0000000), wk =   0.0011898
        k(  522) = (  -0.1307540   0.7634340   0.0000000), wk =   0.0011898
        k(  523) = (  -0.1307540   0.7654340   0.0000000), wk =   0.0011898
        k(  524) = (  -0.1307540   0.7674340   0.0000000), wk =   0.0011898
        k(  525) = (  -0.1307540   0.7694340   0.0000000), wk =   0.0011898
        k(  526) = (  -0.1307540   0.7714340   0.0000000), wk =   0.0011898
        k(  527) = (  -0.1307540   0.7734340   0.0000000), wk =   0.0011898
        k(  528) = (  -0.1307540   0.7754340   0.0000000), wk =   0.0011898
        k(  529) = (  -0.1307540   0.7774340   0.0000000), wk =   0.0011898
        k(  530) = (  -0.1307540   0.7794340   0.0000000), wk =   0.0011898
        k(  531) = (  -0.1307540   0.7814340   0.0000000), wk =   0.0011898
        k(  532) = (  -0.1307540   0.7834340   0.0000000), wk =   0.0011898
        k(  533) = (  -0.1307540   0.7854340   0.0000000), wk =   0.0011898
        k(  534) = (  -0.1287540   0.7054340   0.0000000), wk =   0.0011898
        k(  535) = (  -0.1287540   0.7074340   0.0000000), wk =   0.0011898
        k(  536) = (  -0.1287540   0.7094340   0.0000000), wk =   0.0011898
        k(  537) = (  -0.1287540   0.7114340   0.0000000), wk =   0.0011898
        k(  538) = (  -0.1287540   0.7134340   0.0000000), wk =   0.0011898
        k(  539) = (  -0.1287540   0.7154340   0.0000000), wk =   0.0011898
        k(  540) = (  -0.1287540   0.7174340   0.0000000), wk =   0.0011898
        k(  541) = (  -0.1287540   0.7194340   0.0000000), wk =   0.0011898
        k(  542) = (  -0.1287540   0.7214340   0.0000000), wk =   0.0011898
        k(  543) = (  -0.1287540   0.7234340   0.0000000), wk =   0.0011898
        k(  544) = (  -0.1287540   0.7254340   0.0000000), wk =   0.0011898
        k(  545) = (  -0.1287540   0.7274340   0.0000000), wk =   0.0011898
        k(  546) = (  -0.1287540   0.7294340   0.0000000), wk =   0.0011898
        k(  547) = (  -0.1287540   0.7314340   0.0000000), wk =   0.0011898
        k(  548) = (  -0.1287540   0.7334340   0.0000000), wk =   0.0011898
        k(  549) = (  -0.1287540   0.7354340   0.0000000), wk =   0.0011898
        k(  550) = (  -0.1287540   0.7374340   0.0000000), wk =   0.0011898
        k(  551) = (  -0.1287540   0.7394340   0.0000000), wk =   0.0011898
        k(  552) = (  -0.1287540   0.7414340   0.0000000), wk =   0.0011898
        k(  553) = (  -0.1287540   0.7434340   0.0000000), wk =   0.0011898
        k(  554) = (  -0.1287540   0.7454340   0.0000000), wk =   0.0011898
        k(  555) = (  -0.1287540   0.7474340   0.0000000), wk =   0.0011898
        k(  556) = (  -0.1287540   0.7494340   0.0000000), wk =   0.0011898
        k(  557) = (  -0.1287540   0.7514340   0.0000000), wk =   0.0011898
        k(  558) = (  -0.1287540   0.7534340   0.0000000), wk =   0.0011898
        k(  559) = (  -0.1287540   0.7554340   0.0000000), wk =   0.0011898
        k(  560) = (  -0.1287540   0.7574340   0.0000000), wk =   0.0011898
        k(  561) = (  -0.1287540   0.7594340   0.0000000), wk =   0.0011898
        k(  562) = (  -0.1287540   0.7614340   0.0000000), wk =   0.0011898
        k(  563) = (  -0.1287540   0.7634340   0.0000000), wk =   0.0011898
        k(  564) = (  -0.1287540   0.7654340   0.0000000), wk =   0.0011898
        k(  565) = (  -0.1287540   0.7674340   0.0000000), wk =   0.0011898
        k(  566) = (  -0.1287540   0.7694340   0.0000000), wk =   0.0011898
        k(  567) = (  -0.1287540   0.7714340   0.0000000), wk =   0.0011898
        k(  568) = (  -0.1287540   0.7734340   0.0000000), wk =   0.0011898
        k(  569) = (  -0.1287540   0.7754340   0.0000000), wk =   0.0011898
        k(  570) = (  -0.1287540   0.7774340   0.0000000), wk =   0.0011898
        k(  571) = (  -0.1287540   0.7794340   0.0000000), wk =   0.0011898
        k(  572) = (  -0.1287540   0.7814340   0.0000000), wk =   0.0011898
        k(  573) = (  -0.1287540   0.7834340   0.0000000), wk =   0.0011898
        k(  574) = (  -0.1287540   0.7854340   0.0000000), wk =   0.0011898
        k(  575) = (  -0.1267540   0.7054340   0.0000000), wk =   0.0011898
        k(  576) = (  -0.1267540   0.7074340   0.0000000), wk =   0.0011898
        k(  577) = (  -0.1267540   0.7094340   0.0000000), wk =   0.0011898
        k(  578) = (  -0.1267540   0.7114340   0.0000000), wk =   0.0011898
        k(  579) = (  -0.1267540   0.7134340   0.0000000), wk =   0.0011898
        k(  580) = (  -0.1267540   0.7154340   0.0000000), wk =   0.0011898
        k(  581) = (  -0.1267540   0.7174340   0.0000000), wk =   0.0011898
        k(  582) = (  -0.1267540   0.7194340   0.0000000), wk =   0.0011898
        k(  583) = (  -0.1267540   0.7214340   0.0000000), wk =   0.0011898
        k(  584) = (  -0.1267540   0.7234340   0.0000000), wk =   0.0011898
        k(  585) = (  -0.1267540   0.7254340   0.0000000), wk =   0.0011898
        k(  586) = (  -0.1267540   0.7274340   0.0000000), wk =   0.0011898
        k(  587) = (  -0.1267540   0.7294340   0.0000000), wk =   0.0011898
        k(  588) = (  -0.1267540   0.7314340   0.0000000), wk =   0.0011898
        k(  589) = (  -0.1267540   0.7334340   0.0000000), wk =   0.0011898
        k(  590) = (  -0.1267540   0.7354340   0.0000000), wk =   0.0011898
        k(  591) = (  -0.1267540   0.7374340   0.0000000), wk =   0.0011898
        k(  592) = (  -0.1267540   0.7394340   0.0000000), wk =   0.0011898
        k(  593) = (  -0.1267540   0.7414340   0.0000000), wk =   0.0011898
        k(  594) = (  -0.1267540   0.7434340   0.0000000), wk =   0.0011898
        k(  595) = (  -0.1267540   0.7454340   0.0000000), wk =   0.0011898
        k(  596) = (  -0.1267540   0.7474340   0.0000000), wk =   0.0011898
        k(  597) = (  -0.1267540   0.7494340   0.0000000), wk =   0.0011898
        k(  598) = (  -0.1267540   0.7514340   0.0000000), wk =   0.0011898
        k(  599) = (  -0.1267540   0.7534340   0.0000000), wk =   0.0011898
        k(  600) = (  -0.1267540   0.7554340   0.0000000), wk =   0.0011898
        k(  601) = (  -0.1267540   0.7574340   0.0000000), wk =   0.0011898
        k(  602) = (  -0.1267540   0.7594340   0.0000000), wk =   0.0011898
        k(  603) = (  -0.1267540   0.7614340   0.0000000), wk =   0.0011898
        k(  604) = (  -0.1267540   0.7634340   0.0000000), wk =   0.0011898
        k(  605) = (  -0.1267540   0.7654340   0.0000000), wk =   0.0011898
        k(  606) = (  -0.1267540   0.7674340   0.0000000), wk =   0.0011898
        k(  607) = (  -0.1267540   0.7694340   0.0000000), wk =   0.0011898
        k(  608) = (  -0.1267540   0.7714340   0.0000000), wk =   0.0011898
        k(  609) = (  -0.1267540   0.7734340   0.0000000), wk =   0.0011898
        k(  610) = (  -0.1267540   0.7754340   0.0000000), wk =   0.0011898
        k(  611) = (  -0.1267540   0.7774340   0.0000000), wk =   0.0011898
        k(  612) = (  -0.1267540   0.7794340   0.0000000), wk =   0.0011898
        k(  613) = (  -0.1267540   0.7814340   0.0000000), wk =   0.0011898
        k(  614) = (  -0.1267540   0.7834340   0.0000000), wk =   0.0011898
        k(  615) = (  -0.1267540   0.7854340   0.0000000), wk =   0.0011898
        k(  616) = (  -0.1247540   0.7054340   0.0000000), wk =   0.0011898
        k(  617) = (  -0.1247540   0.7074340   0.0000000), wk =   0.0011898
        k(  618) = (  -0.1247540   0.7094340   0.0000000), wk =   0.0011898
        k(  619) = (  -0.1247540   0.7114340   0.0000000), wk =   0.0011898
        k(  620) = (  -0.1247540   0.7134340   0.0000000), wk =   0.0011898
        k(  621) = (  -0.1247540   0.7154340   0.0000000), wk =   0.0011898
        k(  622) = (  -0.1247540   0.7174340   0.0000000), wk =   0.0011898
        k(  623) = (  -0.1247540   0.7194340   0.0000000), wk =   0.0011898
        k(  624) = (  -0.1247540   0.7214340   0.0000000), wk =   0.0011898
        k(  625) = (  -0.1247540   0.7234340   0.0000000), wk =   0.0011898
        k(  626) = (  -0.1247540   0.7254340   0.0000000), wk =   0.0011898
        k(  627) = (  -0.1247540   0.7274340   0.0000000), wk =   0.0011898
        k(  628) = (  -0.1247540   0.7294340   0.0000000), wk =   0.0011898
        k(  629) = (  -0.1247540   0.7314340   0.0000000), wk =   0.0011898
        k(  630) = (  -0.1247540   0.7334340   0.0000000), wk =   0.0011898
        k(  631) = (  -0.1247540   0.7354340   0.0000000), wk =   0.0011898
        k(  632) = (  -0.1247540   0.7374340   0.0000000), wk =   0.0011898
        k(  633) = (  -0.1247540   0.7394340   0.0000000), wk =   0.0011898
        k(  634) = (  -0.1247540   0.7414340   0.0000000), wk =   0.0011898
        k(  635) = (  -0.1247540   0.7434340   0.0000000), wk =   0.0011898
        k(  636) = (  -0.1247540   0.7454340   0.0000000), wk =   0.0011898
        k(  637) = (  -0.1247540   0.7474340   0.0000000), wk =   0.0011898
        k(  638) = (  -0.1247540   0.7494340   0.0000000), wk =   0.0011898
        k(  639) = (  -0.1247540   0.7514340   0.0000000), wk =   0.0011898
        k(  640) = (  -0.1247540   0.7534340   0.0000000), wk =   0.0011898
        k(  641) = (  -0.1247540   0.7554340   0.0000000), wk =   0.0011898
        k(  642) = (  -0.1247540   0.7574340   0.0000000), wk =   0.0011898
        k(  643) = (  -0.1247540   0.7594340   0.0000000), wk =   0.0011898
        k(  644) = (  -0.1247540   0.7614340   0.0000000), wk =   0.0011898
        k(  645) = (  -0.1247540   0.7634340   0.0000000), wk =   0.0011898
        k(  646) = (  -0.1247540   0.7654340   0.0000000), wk =   0.0011898
        k(  647) = (  -0.1247540   0.7674340   0.0000000), wk =   0.0011898
        k(  648) = (  -0.1247540   0.7694340   0.0000000), wk =   0.0011898
        k(  649) = (  -0.1247540   0.7714340   0.0000000), wk =   0.0011898
        k(  650) = (  -0.1247540   0.7734340   0.0000000), wk =   0.0011898
        k(  651) = (  -0.1247540   0.7754340   0.0000000), wk =   0.0011898
        k(  652) = (  -0.1247540   0.7774340   0.0000000), wk =   0.0011898
        k(  653) = (  -0.1247540   0.7794340   0.0000000), wk =   0.0011898
        k(  654) = (  -0.1247540   0.7814340   0.0000000), wk =   0.0011898
        k(  655) = (  -0.1247540   0.7834340   0.0000000), wk =   0.0011898
        k(  656) = (  -0.1247540   0.7854340   0.0000000), wk =   0.0011898
        k(  657) = (  -0.1227540   0.7054340   0.0000000), wk =   0.0011898
        k(  658) = (  -0.1227540   0.7074340   0.0000000), wk =   0.0011898
        k(  659) = (  -0.1227540   0.7094340   0.0000000), wk =   0.0011898
        k(  660) = (  -0.1227540   0.7114340   0.0000000), wk =   0.0011898
        k(  661) = (  -0.1227540   0.7134340   0.0000000), wk =   0.0011898
        k(  662) = (  -0.1227540   0.7154340   0.0000000), wk =   0.0011898
        k(  663) = (  -0.1227540   0.7174340   0.0000000), wk =   0.0011898
        k(  664) = (  -0.1227540   0.7194340   0.0000000), wk =   0.0011898
        k(  665) = (  -0.1227540   0.7214340   0.0000000), wk =   0.0011898
        k(  666) = (  -0.1227540   0.7234340   0.0000000), wk =   0.0011898
        k(  667) = (  -0.1227540   0.7254340   0.0000000), wk =   0.0011898
        k(  668) = (  -0.1227540   0.7274340   0.0000000), wk =   0.0011898
        k(  669) = (  -0.1227540   0.7294340   0.0000000), wk =   0.0011898
        k(  670) = (  -0.1227540   0.7314340   0.0000000), wk =   0.0011898
        k(  671) = (  -0.1227540   0.7334340   0.0000000), wk =   0.0011898
        k(  672) = (  -0.1227540   0.7354340   0.0000000), wk =   0.0011898
        k(  673) = (  -0.1227540   0.7374340   0.0000000), wk =   0.0011898
        k(  674) = (  -0.1227540   0.7394340   0.0000000), wk =   0.0011898
        k(  675) = (  -0.1227540   0.7414340   0.0000000), wk =   0.0011898
        k(  676) = (  -0.1227540   0.7434340   0.0000000), wk =   0.0011898
        k(  677) = (  -0.1227540   0.7454340   0.0000000), wk =   0.0011898
        k(  678) = (  -0.1227540   0.7474340   0.0000000), wk =   0.0011898
        k(  679) = (  -0.1227540   0.7494340   0.0000000), wk =   0.0011898
        k(  680) = (  -0.1227540   0.7514340   0.0000000), wk =   0.0011898
        k(  681) = (  -0.1227540   0.7534340   0.0000000), wk =   0.0011898
        k(  682) = (  -0.1227540   0.7554340   0.0000000), wk =   0.0011898
        k(  683) = (  -0.1227540   0.7574340   0.0000000), wk =   0.0011898
        k(  684) = (  -0.1227540   0.7594340   0.0000000), wk =   0.0011898
        k(  685) = (  -0.1227540   0.7614340   0.0000000), wk =   0.0011898
        k(  686) = (  -0.1227540   0.7634340   0.0000000), wk =   0.0011898
        k(  687) = (  -0.1227540   0.7654340   0.0000000), wk =   0.0011898
        k(  688) = (  -0.1227540   0.7674340   0.0000000), wk =   0.0011898
        k(  689) = (  -0.1227540   0.7694340   0.0000000), wk =   0.0011898
        k(  690) = (  -0.1227540   0.7714340   0.0000000), wk =   0.0011898
        k(  691) = (  -0.1227540   0.7734340   0.0000000), wk =   0.0011898
        k(  692) = (  -0.1227540   0.7754340   0.0000000), wk =   0.0011898
        k(  693) = (  -0.1227540   0.7774340   0.0000000), wk =   0.0011898
        k(  694) = (  -0.1227540   0.7794340   0.0000000), wk =   0.0011898
        k(  695) = (  -0.1227540   0.7814340   0.0000000), wk =   0.0011898
        k(  696) = (  -0.1227540   0.7834340   0.0000000), wk =   0.0011898
        k(  697) = (  -0.1227540   0.7854340   0.0000000), wk =   0.0011898
        k(  698) = (  -0.1207540   0.7054340   0.0000000), wk =   0.0011898
        k(  699) = (  -0.1207540   0.7074340   0.0000000), wk =   0.0011898
        k(  700) = (  -0.1207540   0.7094340   0.0000000), wk =   0.0011898
        k(  701) = (  -0.1207540   0.7114340   0.0000000), wk =   0.0011898
        k(  702) = (  -0.1207540   0.7134340   0.0000000), wk =   0.0011898
        k(  703) = (  -0.1207540   0.7154340   0.0000000), wk =   0.0011898
        k(  704) = (  -0.1207540   0.7174340   0.0000000), wk =   0.0011898
        k(  705) = (  -0.1207540   0.7194340   0.0000000), wk =   0.0011898
        k(  706) = (  -0.1207540   0.7214340   0.0000000), wk =   0.0011898
        k(  707) = (  -0.1207540   0.7234340   0.0000000), wk =   0.0011898
        k(  708) = (  -0.1207540   0.7254340   0.0000000), wk =   0.0011898
        k(  709) = (  -0.1207540   0.7274340   0.0000000), wk =   0.0011898
        k(  710) = (  -0.1207540   0.7294340   0.0000000), wk =   0.0011898
        k(  711) = (  -0.1207540   0.7314340   0.0000000), wk =   0.0011898
        k(  712) = (  -0.1207540   0.7334340   0.0000000), wk =   0.0011898
        k(  713) = (  -0.1207540   0.7354340   0.0000000), wk =   0.0011898
        k(  714) = (  -0.1207540   0.7374340   0.0000000), wk =   0.0011898
        k(  715) = (  -0.1207540   0.7394340   0.0000000), wk =   0.0011898
        k(  716) = (  -0.1207540   0.7414340   0.0000000), wk =   0.0011898
        k(  717) = (  -0.1207540   0.7434340   0.0000000), wk =   0.0011898
        k(  718) = (  -0.1207540   0.7454340   0.0000000), wk =   0.0011898
        k(  719) = (  -0.1207540   0.7474340   0.0000000), wk =   0.0011898
        k(  720) = (  -0.1207540   0.7494340   0.0000000), wk =   0.0011898
        k(  721) = (  -0.1207540   0.7514340   0.0000000), wk =   0.0011898
        k(  722) = (  -0.1207540   0.7534340   0.0000000), wk =   0.0011898
        k(  723) = (  -0.1207540   0.7554340   0.0000000), wk =   0.0011898
        k(  724) = (  -0.1207540   0.7574340   0.0000000), wk =   0.0011898
        k(  725) = (  -0.1207540   0.7594340   0.0000000), wk =   0.0011898
        k(  726) = (  -0.1207540   0.7614340   0.0000000), wk =   0.0011898
        k(  727) = (  -0.1207540   0.7634340   0.0000000), wk =   0.0011898
        k(  728) = (  -0.1207540   0.7654340   0.0000000), wk =   0.0011898
        k(  729) = (  -0.1207540   0.7674340   0.0000000), wk =   0.0011898
        k(  730) = (  -0.1207540   0.7694340   0.0000000), wk =   0.0011898
        k(  731) = (  -0.1207540   0.7714340   0.0000000), wk =   0.0011898
        k(  732) = (  -0.1207540   0.7734340   0.0000000), wk =   0.0011898
        k(  733) = (  -0.1207540   0.7754340   0.0000000), wk =   0.0011898
        k(  734) = (  -0.1207540   0.7774340   0.0000000), wk =   0.0011898
        k(  735) = (  -0.1207540   0.7794340   0.0000000), wk =   0.0011898
        k(  736) = (  -0.1207540   0.7814340   0.0000000), wk =   0.0011898
        k(  737) = (  -0.1207540   0.7834340   0.0000000), wk =   0.0011898
        k(  738) = (  -0.1207540   0.7854340   0.0000000), wk =   0.0011898
        k(  739) = (  -0.1187540   0.7054340   0.0000000), wk =   0.0011898
        k(  740) = (  -0.1187540   0.7074340   0.0000000), wk =   0.0011898
        k(  741) = (  -0.1187540   0.7094340   0.0000000), wk =   0.0011898
        k(  742) = (  -0.1187540   0.7114340   0.0000000), wk =   0.0011898
        k(  743) = (  -0.1187540   0.7134340   0.0000000), wk =   0.0011898
        k(  744) = (  -0.1187540   0.7154340   0.0000000), wk =   0.0011898
        k(  745) = (  -0.1187540   0.7174340   0.0000000), wk =   0.0011898
        k(  746) = (  -0.1187540   0.7194340   0.0000000), wk =   0.0011898
        k(  747) = (  -0.1187540   0.7214340   0.0000000), wk =   0.0011898
        k(  748) = (  -0.1187540   0.7234340   0.0000000), wk =   0.0011898
        k(  749) = (  -0.1187540   0.7254340   0.0000000), wk =   0.0011898
        k(  750) = (  -0.1187540   0.7274340   0.0000000), wk =   0.0011898
        k(  751) = (  -0.1187540   0.7294340   0.0000000), wk =   0.0011898
        k(  752) = (  -0.1187540   0.7314340   0.0000000), wk =   0.0011898
        k(  753) = (  -0.1187540   0.7334340   0.0000000), wk =   0.0011898
        k(  754) = (  -0.1187540   0.7354340   0.0000000), wk =   0.0011898
        k(  755) = (  -0.1187540   0.7374340   0.0000000), wk =   0.0011898
        k(  756) = (  -0.1187540   0.7394340   0.0000000), wk =   0.0011898
        k(  757) = (  -0.1187540   0.7414340   0.0000000), wk =   0.0011898
        k(  758) = (  -0.1187540   0.7434340   0.0000000), wk =   0.0011898
        k(  759) = (  -0.1187540   0.7454340   0.0000000), wk =   0.0011898
        k(  760) = (  -0.1187540   0.7474340   0.0000000), wk =   0.0011898
        k(  761) = (  -0.1187540   0.7494340   0.0000000), wk =   0.0011898
        k(  762) = (  -0.1187540   0.7514340   0.0000000), wk =   0.0011898
        k(  763) = (  -0.1187540   0.7534340   0.0000000), wk =   0.0011898
        k(  764) = (  -0.1187540   0.7554340   0.0000000), wk =   0.0011898
        k(  765) = (  -0.1187540   0.7574340   0.0000000), wk =   0.0011898
        k(  766) = (  -0.1187540   0.7594340   0.0000000), wk =   0.0011898
        k(  767) = (  -0.1187540   0.7614340   0.0000000), wk =   0.0011898
        k(  768) = (  -0.1187540   0.7634340   0.0000000), wk =   0.0011898
        k(  769) = (  -0.1187540   0.7654340   0.0000000), wk =   0.0011898
        k(  770) = (  -0.1187540   0.7674340   0.0000000), wk =   0.0011898
        k(  771) = (  -0.1187540   0.7694340   0.0000000), wk =   0.0011898
        k(  772) = (  -0.1187540   0.7714340   0.0000000), wk =   0.0011898
        k(  773) = (  -0.1187540   0.7734340   0.0000000), wk =   0.0011898
        k(  774) = (  -0.1187540   0.7754340   0.0000000), wk =   0.0011898
        k(  775) = (  -0.1187540   0.7774340   0.0000000), wk =   0.0011898
        k(  776) = (  -0.1187540   0.7794340   0.0000000), wk =   0.0011898
        k(  777) = (  -0.1187540   0.7814340   0.0000000), wk =   0.0011898
        k(  778) = (  -0.1187540   0.7834340   0.0000000), wk =   0.0011898
        k(  779) = (  -0.1187540   0.7854340   0.0000000), wk =   0.0011898
        k(  780) = (  -0.1167540   0.7054340   0.0000000), wk =   0.0011898
        k(  781) = (  -0.1167540   0.7074340   0.0000000), wk =   0.0011898
        k(  782) = (  -0.1167540   0.7094340   0.0000000), wk =   0.0011898
        k(  783) = (  -0.1167540   0.7114340   0.0000000), wk =   0.0011898
        k(  784) = (  -0.1167540   0.7134340   0.0000000), wk =   0.0011898
        k(  785) = (  -0.1167540   0.7154340   0.0000000), wk =   0.0011898
        k(  786) = (  -0.1167540   0.7174340   0.0000000), wk =   0.0011898
        k(  787) = (  -0.1167540   0.7194340   0.0000000), wk =   0.0011898
        k(  788) = (  -0.1167540   0.7214340   0.0000000), wk =   0.0011898
        k(  789) = (  -0.1167540   0.7234340   0.0000000), wk =   0.0011898
        k(  790) = (  -0.1167540   0.7254340   0.0000000), wk =   0.0011898
        k(  791) = (  -0.1167540   0.7274340   0.0000000), wk =   0.0011898
        k(  792) = (  -0.1167540   0.7294340   0.0000000), wk =   0.0011898
        k(  793) = (  -0.1167540   0.7314340   0.0000000), wk =   0.0011898
        k(  794) = (  -0.1167540   0.7334340   0.0000000), wk =   0.0011898
        k(  795) = (  -0.1167540   0.7354340   0.0000000), wk =   0.0011898
        k(  796) = (  -0.1167540   0.7374340   0.0000000), wk =   0.0011898
        k(  797) = (  -0.1167540   0.7394340   0.0000000), wk =   0.0011898
        k(  798) = (  -0.1167540   0.7414340   0.0000000), wk =   0.0011898
        k(  799) = (  -0.1167540   0.7434340   0.0000000), wk =   0.0011898
        k(  800) = (  -0.1167540   0.7454340   0.0000000), wk =   0.0011898
        k(  801) = (  -0.1167540   0.7474340   0.0000000), wk =   0.0011898
        k(  802) = (  -0.1167540   0.7494340   0.0000000), wk =   0.0011898
        k(  803) = (  -0.1167540   0.7514340   0.0000000), wk =   0.0011898
        k(  804) = (  -0.1167540   0.7534340   0.0000000), wk =   0.0011898
        k(  805) = (  -0.1167540   0.7554340   0.0000000), wk =   0.0011898
        k(  806) = (  -0.1167540   0.7574340   0.0000000), wk =   0.0011898
        k(  807) = (  -0.1167540   0.7594340   0.0000000), wk =   0.0011898
        k(  808) = (  -0.1167540   0.7614340   0.0000000), wk =   0.0011898
        k(  809) = (  -0.1167540   0.7634340   0.0000000), wk =   0.0011898
        k(  810) = (  -0.1167540   0.7654340   0.0000000), wk =   0.0011898
        k(  811) = (  -0.1167540   0.7674340   0.0000000), wk =   0.0011898
        k(  812) = (  -0.1167540   0.7694340   0.0000000), wk =   0.0011898
        k(  813) = (  -0.1167540   0.7714340   0.0000000), wk =   0.0011898
        k(  814) = (  -0.1167540   0.7734340   0.0000000), wk =   0.0011898
        k(  815) = (  -0.1167540   0.7754340   0.0000000), wk =   0.0011898
        k(  816) = (  -0.1167540   0.7774340   0.0000000), wk =   0.0011898
        k(  817) = (  -0.1167540   0.7794340   0.0000000), wk =   0.0011898
        k(  818) = (  -0.1167540   0.7814340   0.0000000), wk =   0.0011898
        k(  819) = (  -0.1167540   0.7834340   0.0000000), wk =   0.0011898
        k(  820) = (  -0.1167540   0.7854340   0.0000000), wk =   0.0011898
        k(  821) = (  -0.1147540   0.7054340   0.0000000), wk =   0.0011898
        k(  822) = (  -0.1147540   0.7074340   0.0000000), wk =   0.0011898
        k(  823) = (  -0.1147540   0.7094340   0.0000000), wk =   0.0011898
        k(  824) = (  -0.1147540   0.7114340   0.0000000), wk =   0.0011898
        k(  825) = (  -0.1147540   0.7134340   0.0000000), wk =   0.0011898
        k(  826) = (  -0.1147540   0.7154340   0.0000000), wk =   0.0011898
        k(  827) = (  -0.1147540   0.7174340   0.0000000), wk =   0.0011898
        k(  828) = (  -0.1147540   0.7194340   0.0000000), wk =   0.0011898
        k(  829) = (  -0.1147540   0.7214340   0.0000000), wk =   0.0011898
        k(  830) = (  -0.1147540   0.7234340   0.0000000), wk =   0.0011898
        k(  831) = (  -0.1147540   0.7254340   0.0000000), wk =   0.0011898
        k(  832) = (  -0.1147540   0.7274340   0.0000000), wk =   0.0011898
        k(  833) = (  -0.1147540   0.7294340   0.0000000), wk =   0.0011898
        k(  834) = (  -0.1147540   0.7314340   0.0000000), wk =   0.0011898
        k(  835) = (  -0.1147540   0.7334340   0.0000000), wk =   0.0011898
        k(  836) = (  -0.1147540   0.7354340   0.0000000), wk =   0.0011898
        k(  837) = (  -0.1147540   0.7374340   0.0000000), wk =   0.0011898
        k(  838) = (  -0.1147540   0.7394340   0.0000000), wk =   0.0011898
        k(  839) = (  -0.1147540   0.7414340   0.0000000), wk =   0.0011898
        k(  840) = (  -0.1147540   0.7434340   0.0000000), wk =   0.0011898
        k(  841) = (  -0.1147540   0.7454340   0.0000000), wk =   0.0011898
        k(  842) = (  -0.1147540   0.7474340   0.0000000), wk =   0.0011898
        k(  843) = (  -0.1147540   0.7494340   0.0000000), wk =   0.0011898
        k(  844) = (  -0.1147540   0.7514340   0.0000000), wk =   0.0011898
        k(  845) = (  -0.1147540   0.7534340   0.0000000), wk =   0.0011898
        k(  846) = (  -0.1147540   0.7554340   0.0000000), wk =   0.0011898
        k(  847) = (  -0.1147540   0.7574340   0.0000000), wk =   0.0011898
        k(  848) = (  -0.1147540   0.7594340   0.0000000), wk =   0.0011898
        k(  849) = (  -0.1147540   0.7614340   0.0000000), wk =   0.0011898
        k(  850) = (  -0.1147540   0.7634340   0.0000000), wk =   0.0011898
        k(  851) = (  -0.1147540   0.7654340   0.0000000), wk =   0.0011898
        k(  852) = (  -0.1147540   0.7674340   0.0000000), wk =   0.0011898
        k(  853) = (  -0.1147540   0.7694340   0.0000000), wk =   0.0011898
        k(  854) = (  -0.1147540   0.7714340   0.0000000), wk =   0.0011898
        k(  855) = (  -0.1147540   0.7734340   0.0000000), wk =   0.0011898
        k(  856) = (  -0.1147540   0.7754340   0.0000000), wk =   0.0011898
        k(  857) = (  -0.1147540   0.7774340   0.0000000), wk =   0.0011898
        k(  858) = (  -0.1147540   0.7794340   0.0000000), wk =   0.0011898
        k(  859) = (  -0.1147540   0.7814340   0.0000000), wk =   0.0011898
        k(  860) = (  -0.1147540   0.7834340   0.0000000), wk =   0.0011898
        k(  861) = (  -0.1147540   0.7854340   0.0000000), wk =   0.0011898
        k(  862) = (  -0.1127540   0.7054340   0.0000000), wk =   0.0011898
        k(  863) = (  -0.1127540   0.7074340   0.0000000), wk =   0.0011898
        k(  864) = (  -0.1127540   0.7094340   0.0000000), wk =   0.0011898
        k(  865) = (  -0.1127540   0.7114340   0.0000000), wk =   0.0011898
        k(  866) = (  -0.1127540   0.7134340   0.0000000), wk =   0.0011898
        k(  867) = (  -0.1127540   0.7154340   0.0000000), wk =   0.0011898
        k(  868) = (  -0.1127540   0.7174340   0.0000000), wk =   0.0011898
        k(  869) = (  -0.1127540   0.7194340   0.0000000), wk =   0.0011898
        k(  870) = (  -0.1127540   0.7214340   0.0000000), wk =   0.0011898
        k(  871) = (  -0.1127540   0.7234340   0.0000000), wk =   0.0011898
        k(  872) = (  -0.1127540   0.7254340   0.0000000), wk =   0.0011898
        k(  873) = (  -0.1127540   0.7274340   0.0000000), wk =   0.0011898
        k(  874) = (  -0.1127540   0.7294340   0.0000000), wk =   0.0011898
        k(  875) = (  -0.1127540   0.7314340   0.0000000), wk =   0.0011898
        k(  876) = (  -0.1127540   0.7334340   0.0000000), wk =   0.0011898
        k(  877) = (  -0.1127540   0.7354340   0.0000000), wk =   0.0011898
        k(  878) = (  -0.1127540   0.7374340   0.0000000), wk =   0.0011898
        k(  879) = (  -0.1127540   0.7394340   0.0000000), wk =   0.0011898
        k(  880) = (  -0.1127540   0.7414340   0.0000000), wk =   0.0011898
        k(  881) = (  -0.1127540   0.7434340   0.0000000), wk =   0.0011898
        k(  882) = (  -0.1127540   0.7454340   0.0000000), wk =   0.0011898
        k(  883) = (  -0.1127540   0.7474340   0.0000000), wk =   0.0011898
        k(  884) = (  -0.1127540   0.7494340   0.0000000), wk =   0.0011898
        k(  885) = (  -0.1127540   0.7514340   0.0000000), wk =   0.0011898
        k(  886) = (  -0.1127540   0.7534340   0.0000000), wk =   0.0011898
        k(  887) = (  -0.1127540   0.7554340   0.0000000), wk =   0.0011898
        k(  888) = (  -0.1127540   0.7574340   0.0000000), wk =   0.0011898
        k(  889) = (  -0.1127540   0.7594340   0.0000000), wk =   0.0011898
        k(  890) = (  -0.1127540   0.7614340   0.0000000), wk =   0.0011898
        k(  891) = (  -0.1127540   0.7634340   0.0000000), wk =   0.0011898
        k(  892) = (  -0.1127540   0.7654340   0.0000000), wk =   0.0011898
        k(  893) = (  -0.1127540   0.7674340   0.0000000), wk =   0.0011898
        k(  894) = (  -0.1127540   0.7694340   0.0000000), wk =   0.0011898
        k(  895) = (  -0.1127540   0.7714340   0.0000000), wk =   0.0011898
        k(  896) = (  -0.1127540   0.7734340   0.0000000), wk =   0.0011898
        k(  897) = (  -0.1127540   0.7754340   0.0000000), wk =   0.0011898
        k(  898) = (  -0.1127540   0.7774340   0.0000000), wk =   0.0011898
        k(  899) = (  -0.1127540   0.7794340   0.0000000), wk =   0.0011898
        k(  900) = (  -0.1127540   0.7814340   0.0000000), wk =   0.0011898
        k(  901) = (  -0.1127540   0.7834340   0.0000000), wk =   0.0011898
        k(  902) = (  -0.1127540   0.7854340   0.0000000), wk =   0.0011898
        k(  903) = (  -0.1107540   0.7054340   0.0000000), wk =   0.0011898
        k(  904) = (  -0.1107540   0.7074340   0.0000000), wk =   0.0011898
        k(  905) = (  -0.1107540   0.7094340   0.0000000), wk =   0.0011898
        k(  906) = (  -0.1107540   0.7114340   0.0000000), wk =   0.0011898
        k(  907) = (  -0.1107540   0.7134340   0.0000000), wk =   0.0011898
        k(  908) = (  -0.1107540   0.7154340   0.0000000), wk =   0.0011898
        k(  909) = (  -0.1107540   0.7174340   0.0000000), wk =   0.0011898
        k(  910) = (  -0.1107540   0.7194340   0.0000000), wk =   0.0011898
        k(  911) = (  -0.1107540   0.7214340   0.0000000), wk =   0.0011898
        k(  912) = (  -0.1107540   0.7234340   0.0000000), wk =   0.0011898
        k(  913) = (  -0.1107540   0.7254340   0.0000000), wk =   0.0011898
        k(  914) = (  -0.1107540   0.7274340   0.0000000), wk =   0.0011898
        k(  915) = (  -0.1107540   0.7294340   0.0000000), wk =   0.0011898
        k(  916) = (  -0.1107540   0.7314340   0.0000000), wk =   0.0011898
        k(  917) = (  -0.1107540   0.7334340   0.0000000), wk =   0.0011898
        k(  918) = (  -0.1107540   0.7354340   0.0000000), wk =   0.0011898
        k(  919) = (  -0.1107540   0.7374340   0.0000000), wk =   0.0011898
        k(  920) = (  -0.1107540   0.7394340   0.0000000), wk =   0.0011898
        k(  921) = (  -0.1107540   0.7414340   0.0000000), wk =   0.0011898
        k(  922) = (  -0.1107540   0.7434340   0.0000000), wk =   0.0011898
        k(  923) = (  -0.1107540   0.7454340   0.0000000), wk =   0.0011898
        k(  924) = (  -0.1107540   0.7474340   0.0000000), wk =   0.0011898
        k(  925) = (  -0.1107540   0.7494340   0.0000000), wk =   0.0011898
        k(  926) = (  -0.1107540   0.7514340   0.0000000), wk =   0.0011898
        k(  927) = (  -0.1107540   0.7534340   0.0000000), wk =   0.0011898
        k(  928) = (  -0.1107540   0.7554340   0.0000000), wk =   0.0011898
        k(  929) = (  -0.1107540   0.7574340   0.0000000), wk =   0.0011898
        k(  930) = (  -0.1107540   0.7594340   0.0000000), wk =   0.0011898
        k(  931) = (  -0.1107540   0.7614340   0.0000000), wk =   0.0011898
        k(  932) = (  -0.1107540   0.7634340   0.0000000), wk =   0.0011898
        k(  933) = (  -0.1107540   0.7654340   0.0000000), wk =   0.0011898
        k(  934) = (  -0.1107540   0.7674340   0.0000000), wk =   0.0011898
        k(  935) = (  -0.1107540   0.7694340   0.0000000), wk =   0.0011898
        k(  936) = (  -0.1107540   0.7714340   0.0000000), wk =   0.0011898
        k(  937) = (  -0.1107540   0.7734340   0.0000000), wk =   0.0011898
        k(  938) = (  -0.1107540   0.7754340   0.0000000), wk =   0.0011898
        k(  939) = (  -0.1107540   0.7774340   0.0000000), wk =   0.0011898
        k(  940) = (  -0.1107540   0.7794340   0.0000000), wk =   0.0011898
        k(  941) = (  -0.1107540   0.7814340   0.0000000), wk =   0.0011898
        k(  942) = (  -0.1107540   0.7834340   0.0000000), wk =   0.0011898
        k(  943) = (  -0.1107540   0.7854340   0.0000000), wk =   0.0011898
        k(  944) = (  -0.1087540   0.7054340   0.0000000), wk =   0.0011898
        k(  945) = (  -0.1087540   0.7074340   0.0000000), wk =   0.0011898
        k(  946) = (  -0.1087540   0.7094340   0.0000000), wk =   0.0011898
        k(  947) = (  -0.1087540   0.7114340   0.0000000), wk =   0.0011898
        k(  948) = (  -0.1087540   0.7134340   0.0000000), wk =   0.0011898
        k(  949) = (  -0.1087540   0.7154340   0.0000000), wk =   0.0011898
        k(  950) = (  -0.1087540   0.7174340   0.0000000), wk =   0.0011898
        k(  951) = (  -0.1087540   0.7194340   0.0000000), wk =   0.0011898
        k(  952) = (  -0.1087540   0.7214340   0.0000000), wk =   0.0011898
        k(  953) = (  -0.1087540   0.7234340   0.0000000), wk =   0.0011898
        k(  954) = (  -0.1087540   0.7254340   0.0000000), wk =   0.0011898
        k(  955) = (  -0.1087540   0.7274340   0.0000000), wk =   0.0011898
        k(  956) = (  -0.1087540   0.7294340   0.0000000), wk =   0.0011898
        k(  957) = (  -0.1087540   0.7314340   0.0000000), wk =   0.0011898
        k(  958) = (  -0.1087540   0.7334340   0.0000000), wk =   0.0011898
        k(  959) = (  -0.1087540   0.7354340   0.0000000), wk =   0.0011898
        k(  960) = (  -0.1087540   0.7374340   0.0000000), wk =   0.0011898
        k(  961) = (  -0.1087540   0.7394340   0.0000000), wk =   0.0011898
        k(  962) = (  -0.1087540   0.7414340   0.0000000), wk =   0.0011898
        k(  963) = (  -0.1087540   0.7434340   0.0000000), wk =   0.0011898
        k(  964) = (  -0.1087540   0.7454340   0.0000000), wk =   0.0011898
        k(  965) = (  -0.1087540   0.7474340   0.0000000), wk =   0.0011898
        k(  966) = (  -0.1087540   0.7494340   0.0000000), wk =   0.0011898
        k(  967) = (  -0.1087540   0.7514340   0.0000000), wk =   0.0011898
        k(  968) = (  -0.1087540   0.7534340   0.0000000), wk =   0.0011898
        k(  969) = (  -0.1087540   0.7554340   0.0000000), wk =   0.0011898
        k(  970) = (  -0.1087540   0.7574340   0.0000000), wk =   0.0011898
        k(  971) = (  -0.1087540   0.7594340   0.0000000), wk =   0.0011898
        k(  972) = (  -0.1087540   0.7614340   0.0000000), wk =   0.0011898
        k(  973) = (  -0.1087540   0.7634340   0.0000000), wk =   0.0011898
        k(  974) = (  -0.1087540   0.7654340   0.0000000), wk =   0.0011898
        k(  975) = (  -0.1087540   0.7674340   0.0000000), wk =   0.0011898
        k(  976) = (  -0.1087540   0.7694340   0.0000000), wk =   0.0011898
        k(  977) = (  -0.1087540   0.7714340   0.0000000), wk =   0.0011898
        k(  978) = (  -0.1087540   0.7734340   0.0000000), wk =   0.0011898
        k(  979) = (  -0.1087540   0.7754340   0.0000000), wk =   0.0011898
        k(  980) = (  -0.1087540   0.7774340   0.0000000), wk =   0.0011898
        k(  981) = (  -0.1087540   0.7794340   0.0000000), wk =   0.0011898
        k(  982) = (  -0.1087540   0.7814340   0.0000000), wk =   0.0011898
        k(  983) = (  -0.1087540   0.7834340   0.0000000), wk =   0.0011898
        k(  984) = (  -0.1087540   0.7854340   0.0000000), wk =   0.0011898
        k(  985) = (  -0.1067540   0.7054340   0.0000000), wk =   0.0011898
        k(  986) = (  -0.1067540   0.7074340   0.0000000), wk =   0.0011898
        k(  987) = (  -0.1067540   0.7094340   0.0000000), wk =   0.0011898
        k(  988) = (  -0.1067540   0.7114340   0.0000000), wk =   0.0011898
        k(  989) = (  -0.1067540   0.7134340   0.0000000), wk =   0.0011898
        k(  990) = (  -0.1067540   0.7154340   0.0000000), wk =   0.0011898
        k(  991) = (  -0.1067540   0.7174340   0.0000000), wk =   0.0011898
        k(  992) = (  -0.1067540   0.7194340   0.0000000), wk =   0.0011898
        k(  993) = (  -0.1067540   0.7214340   0.0000000), wk =   0.0011898
        k(  994) = (  -0.1067540   0.7234340   0.0000000), wk =   0.0011898
        k(  995) = (  -0.1067540   0.7254340   0.0000000), wk =   0.0011898
        k(  996) = (  -0.1067540   0.7274340   0.0000000), wk =   0.0011898
        k(  997) = (  -0.1067540   0.7294340   0.0000000), wk =   0.0011898
        k(  998) = (  -0.1067540   0.7314340   0.0000000), wk =   0.0011898
        k(  999) = (  -0.1067540   0.7334340   0.0000000), wk =   0.0011898
        k( 1000) = (  -0.1067540   0.7354340   0.0000000), wk =   0.0011898
        k( 1001) = (  -0.1067540   0.7374340   0.0000000), wk =   0.0011898
        k( 1002) = (  -0.1067540   0.7394340   0.0000000), wk =   0.0011898
        k( 1003) = (  -0.1067540   0.7414340   0.0000000), wk =   0.0011898
        k( 1004) = (  -0.1067540   0.7434340   0.0000000), wk =   0.0011898
        k( 1005) = (  -0.1067540   0.7454340   0.0000000), wk =   0.0011898
        k( 1006) = (  -0.1067540   0.7474340   0.0000000), wk =   0.0011898
        k( 1007) = (  -0.1067540   0.7494340   0.0000000), wk =   0.0011898
        k( 1008) = (  -0.1067540   0.7514340   0.0000000), wk =   0.0011898
        k( 1009) = (  -0.1067540   0.7534340   0.0000000), wk =   0.0011898
        k( 1010) = (  -0.1067540   0.7554340   0.0000000), wk =   0.0011898
        k( 1011) = (  -0.1067540   0.7574340   0.0000000), wk =   0.0011898
        k( 1012) = (  -0.1067540   0.7594340   0.0000000), wk =   0.0011898
        k( 1013) = (  -0.1067540   0.7614340   0.0000000), wk =   0.0011898
        k( 1014) = (  -0.1067540   0.7634340   0.0000000), wk =   0.0011898
        k( 1015) = (  -0.1067540   0.7654340   0.0000000), wk =   0.0011898
        k( 1016) = (  -0.1067540   0.7674340   0.0000000), wk =   0.0011898
        k( 1017) = (  -0.1067540   0.7694340   0.0000000), wk =   0.0011898
        k( 1018) = (  -0.1067540   0.7714340   0.0000000), wk =   0.0011898
        k( 1019) = (  -0.1067540   0.7734340   0.0000000), wk =   0.0011898
        k( 1020) = (  -0.1067540   0.7754340   0.0000000), wk =   0.0011898
        k( 1021) = (  -0.1067540   0.7774340   0.0000000), wk =   0.0011898
        k( 1022) = (  -0.1067540   0.7794340   0.0000000), wk =   0.0011898
        k( 1023) = (  -0.1067540   0.7814340   0.0000000), wk =   0.0011898
        k( 1024) = (  -0.1067540   0.7834340   0.0000000), wk =   0.0011898
        k( 1025) = (  -0.1067540   0.7854340   0.0000000), wk =   0.0011898
        k( 1026) = (  -0.1047540   0.7054340   0.0000000), wk =   0.0011898
        k( 1027) = (  -0.1047540   0.7074340   0.0000000), wk =   0.0011898
        k( 1028) = (  -0.1047540   0.7094340   0.0000000), wk =   0.0011898
        k( 1029) = (  -0.1047540   0.7114340   0.0000000), wk =   0.0011898
        k( 1030) = (  -0.1047540   0.7134340   0.0000000), wk =   0.0011898
        k( 1031) = (  -0.1047540   0.7154340   0.0000000), wk =   0.0011898
        k( 1032) = (  -0.1047540   0.7174340   0.0000000), wk =   0.0011898
        k( 1033) = (  -0.1047540   0.7194340   0.0000000), wk =   0.0011898
        k( 1034) = (  -0.1047540   0.7214340   0.0000000), wk =   0.0011898
        k( 1035) = (  -0.1047540   0.7234340   0.0000000), wk =   0.0011898
        k( 1036) = (  -0.1047540   0.7254340   0.0000000), wk =   0.0011898
        k( 1037) = (  -0.1047540   0.7274340   0.0000000), wk =   0.0011898
        k( 1038) = (  -0.1047540   0.7294340   0.0000000), wk =   0.0011898
        k( 1039) = (  -0.1047540   0.7314340   0.0000000), wk =   0.0011898
        k( 1040) = (  -0.1047540   0.7334340   0.0000000), wk =   0.0011898
        k( 1041) = (  -0.1047540   0.7354340   0.0000000), wk =   0.0011898
        k( 1042) = (  -0.1047540   0.7374340   0.0000000), wk =   0.0011898
        k( 1043) = (  -0.1047540   0.7394340   0.0000000), wk =   0.0011898
        k( 1044) = (  -0.1047540   0.7414340   0.0000000), wk =   0.0011898
        k( 1045) = (  -0.1047540   0.7434340   0.0000000), wk =   0.0011898
        k( 1046) = (  -0.1047540   0.7454340   0.0000000), wk =   0.0011898
        k( 1047) = (  -0.1047540   0.7474340   0.0000000), wk =   0.0011898
        k( 1048) = (  -0.1047540   0.7494340   0.0000000), wk =   0.0011898
        k( 1049) = (  -0.1047540   0.7514340   0.0000000), wk =   0.0011898
        k( 1050) = (  -0.1047540   0.7534340   0.0000000), wk =   0.0011898
        k( 1051) = (  -0.1047540   0.7554340   0.0000000), wk =   0.0011898
        k( 1052) = (  -0.1047540   0.7574340   0.0000000), wk =   0.0011898
        k( 1053) = (  -0.1047540   0.7594340   0.0000000), wk =   0.0011898
        k( 1054) = (  -0.1047540   0.7614340   0.0000000), wk =   0.0011898
        k( 1055) = (  -0.1047540   0.7634340   0.0000000), wk =   0.0011898
        k( 1056) = (  -0.1047540   0.7654340   0.0000000), wk =   0.0011898
        k( 1057) = (  -0.1047540   0.7674340   0.0000000), wk =   0.0011898
        k( 1058) = (  -0.1047540   0.7694340   0.0000000), wk =   0.0011898
        k( 1059) = (  -0.1047540   0.7714340   0.0000000), wk =   0.0011898
        k( 1060) = (  -0.1047540   0.7734340   0.0000000), wk =   0.0011898
        k( 1061) = (  -0.1047540   0.7754340   0.0000000), wk =   0.0011898
        k( 1062) = (  -0.1047540   0.7774340   0.0000000), wk =   0.0011898
        k( 1063) = (  -0.1047540   0.7794340   0.0000000), wk =   0.0011898
        k( 1064) = (  -0.1047540   0.7814340   0.0000000), wk =   0.0011898
        k( 1065) = (  -0.1047540   0.7834340   0.0000000), wk =   0.0011898
        k( 1066) = (  -0.1047540   0.7854340   0.0000000), wk =   0.0011898
        k( 1067) = (  -0.1027540   0.7054340   0.0000000), wk =   0.0011898
        k( 1068) = (  -0.1027540   0.7074340   0.0000000), wk =   0.0011898
        k( 1069) = (  -0.1027540   0.7094340   0.0000000), wk =   0.0011898
        k( 1070) = (  -0.1027540   0.7114340   0.0000000), wk =   0.0011898
        k( 1071) = (  -0.1027540   0.7134340   0.0000000), wk =   0.0011898
        k( 1072) = (  -0.1027540   0.7154340   0.0000000), wk =   0.0011898
        k( 1073) = (  -0.1027540   0.7174340   0.0000000), wk =   0.0011898
        k( 1074) = (  -0.1027540   0.7194340   0.0000000), wk =   0.0011898
        k( 1075) = (  -0.1027540   0.7214340   0.0000000), wk =   0.0011898
        k( 1076) = (  -0.1027540   0.7234340   0.0000000), wk =   0.0011898
        k( 1077) = (  -0.1027540   0.7254340   0.0000000), wk =   0.0011898
        k( 1078) = (  -0.1027540   0.7274340   0.0000000), wk =   0.0011898
        k( 1079) = (  -0.1027540   0.7294340   0.0000000), wk =   0.0011898
        k( 1080) = (  -0.1027540   0.7314340   0.0000000), wk =   0.0011898
        k( 1081) = (  -0.1027540   0.7334340   0.0000000), wk =   0.0011898
        k( 1082) = (  -0.1027540   0.7354340   0.0000000), wk =   0.0011898
        k( 1083) = (  -0.1027540   0.7374340   0.0000000), wk =   0.0011898
        k( 1084) = (  -0.1027540   0.7394340   0.0000000), wk =   0.0011898
        k( 1085) = (  -0.1027540   0.7414340   0.0000000), wk =   0.0011898
        k( 1086) = (  -0.1027540   0.7434340   0.0000000), wk =   0.0011898
        k( 1087) = (  -0.1027540   0.7454340   0.0000000), wk =   0.0011898
        k( 1088) = (  -0.1027540   0.7474340   0.0000000), wk =   0.0011898
        k( 1089) = (  -0.1027540   0.7494340   0.0000000), wk =   0.0011898
        k( 1090) = (  -0.1027540   0.7514340   0.0000000), wk =   0.0011898
        k( 1091) = (  -0.1027540   0.7534340   0.0000000), wk =   0.0011898
        k( 1092) = (  -0.1027540   0.7554340   0.0000000), wk =   0.0011898
        k( 1093) = (  -0.1027540   0.7574340   0.0000000), wk =   0.0011898
        k( 1094) = (  -0.1027540   0.7594340   0.0000000), wk =   0.0011898
        k( 1095) = (  -0.1027540   0.7614340   0.0000000), wk =   0.0011898
        k( 1096) = (  -0.1027540   0.7634340   0.0000000), wk =   0.0011898
        k( 1097) = (  -0.1027540   0.7654340   0.0000000), wk =   0.0011898
        k( 1098) = (  -0.1027540   0.7674340   0.0000000), wk =   0.0011898
        k( 1099) = (  -0.1027540   0.7694340   0.0000000), wk =   0.0011898
        k( 1100) = (  -0.1027540   0.7714340   0.0000000), wk =   0.0011898
        k( 1101) = (  -0.1027540   0.7734340   0.0000000), wk =   0.0011898
        k( 1102) = (  -0.1027540   0.7754340   0.0000000), wk =   0.0011898
        k( 1103) = (  -0.1027540   0.7774340   0.0000000), wk =   0.0011898
        k( 1104) = (  -0.1027540   0.7794340   0.0000000), wk =   0.0011898
        k( 1105) = (  -0.1027540   0.7814340   0.0000000), wk =   0.0011898
        k( 1106) = (  -0.1027540   0.7834340   0.0000000), wk =   0.0011898
        k( 1107) = (  -0.1027540   0.7854340   0.0000000), wk =   0.0011898
        k( 1108) = (  -0.1007540   0.7054340   0.0000000), wk =   0.0011898
        k( 1109) = (  -0.1007540   0.7074340   0.0000000), wk =   0.0011898
        k( 1110) = (  -0.1007540   0.7094340   0.0000000), wk =   0.0011898
        k( 1111) = (  -0.1007540   0.7114340   0.0000000), wk =   0.0011898
        k( 1112) = (  -0.1007540   0.7134340   0.0000000), wk =   0.0011898
        k( 1113) = (  -0.1007540   0.7154340   0.0000000), wk =   0.0011898
        k( 1114) = (  -0.1007540   0.7174340   0.0000000), wk =   0.0011898
        k( 1115) = (  -0.1007540   0.7194340   0.0000000), wk =   0.0011898
        k( 1116) = (  -0.1007540   0.7214340   0.0000000), wk =   0.0011898
        k( 1117) = (  -0.1007540   0.7234340   0.0000000), wk =   0.0011898
        k( 1118) = (  -0.1007540   0.7254340   0.0000000), wk =   0.0011898
        k( 1119) = (  -0.1007540   0.7274340   0.0000000), wk =   0.0011898
        k( 1120) = (  -0.1007540   0.7294340   0.0000000), wk =   0.0011898
        k( 1121) = (  -0.1007540   0.7314340   0.0000000), wk =   0.0011898
        k( 1122) = (  -0.1007540   0.7334340   0.0000000), wk =   0.0011898
        k( 1123) = (  -0.1007540   0.7354340   0.0000000), wk =   0.0011898
        k( 1124) = (  -0.1007540   0.7374340   0.0000000), wk =   0.0011898
        k( 1125) = (  -0.1007540   0.7394340   0.0000000), wk =   0.0011898
        k( 1126) = (  -0.1007540   0.7414340   0.0000000), wk =   0.0011898
        k( 1127) = (  -0.1007540   0.7434340   0.0000000), wk =   0.0011898
        k( 1128) = (  -0.1007540   0.7454340   0.0000000), wk =   0.0011898
        k( 1129) = (  -0.1007540   0.7474340   0.0000000), wk =   0.0011898
        k( 1130) = (  -0.1007540   0.7494340   0.0000000), wk =   0.0011898
        k( 1131) = (  -0.1007540   0.7514340   0.0000000), wk =   0.0011898
        k( 1132) = (  -0.1007540   0.7534340   0.0000000), wk =   0.0011898
        k( 1133) = (  -0.1007540   0.7554340   0.0000000), wk =   0.0011898
        k( 1134) = (  -0.1007540   0.7574340   0.0000000), wk =   0.0011898
        k( 1135) = (  -0.1007540   0.7594340   0.0000000), wk =   0.0011898
        k( 1136) = (  -0.1007540   0.7614340   0.0000000), wk =   0.0011898
        k( 1137) = (  -0.1007540   0.7634340   0.0000000), wk =   0.0011898
        k( 1138) = (  -0.1007540   0.7654340   0.0000000), wk =   0.0011898
        k( 1139) = (  -0.1007540   0.7674340   0.0000000), wk =   0.0011898
        k( 1140) = (  -0.1007540   0.7694340   0.0000000), wk =   0.0011898
        k( 1141) = (  -0.1007540   0.7714340   0.0000000), wk =   0.0011898
        k( 1142) = (  -0.1007540   0.7734340   0.0000000), wk =   0.0011898
        k( 1143) = (  -0.1007540   0.7754340   0.0000000), wk =   0.0011898
        k( 1144) = (  -0.1007540   0.7774340   0.0000000), wk =   0.0011898
        k( 1145) = (  -0.1007540   0.7794340   0.0000000), wk =   0.0011898
        k( 1146) = (  -0.1007540   0.7814340   0.0000000), wk =   0.0011898
        k( 1147) = (  -0.1007540   0.7834340   0.0000000), wk =   0.0011898
        k( 1148) = (  -0.1007540   0.7854340   0.0000000), wk =   0.0011898
        k( 1149) = (  -0.0987540   0.7054340   0.0000000), wk =   0.0011898
        k( 1150) = (  -0.0987540   0.7074340   0.0000000), wk =   0.0011898
        k( 1151) = (  -0.0987540   0.7094340   0.0000000), wk =   0.0011898
        k( 1152) = (  -0.0987540   0.7114340   0.0000000), wk =   0.0011898
        k( 1153) = (  -0.0987540   0.7134340   0.0000000), wk =   0.0011898
        k( 1154) = (  -0.0987540   0.7154340   0.0000000), wk =   0.0011898
        k( 1155) = (  -0.0987540   0.7174340   0.0000000), wk =   0.0011898
        k( 1156) = (  -0.0987540   0.7194340   0.0000000), wk =   0.0011898
        k( 1157) = (  -0.0987540   0.7214340   0.0000000), wk =   0.0011898
        k( 1158) = (  -0.0987540   0.7234340   0.0000000), wk =   0.0011898
        k( 1159) = (  -0.0987540   0.7254340   0.0000000), wk =   0.0011898
        k( 1160) = (  -0.0987540   0.7274340   0.0000000), wk =   0.0011898
        k( 1161) = (  -0.0987540   0.7294340   0.0000000), wk =   0.0011898
        k( 1162) = (  -0.0987540   0.7314340   0.0000000), wk =   0.0011898
        k( 1163) = (  -0.0987540   0.7334340   0.0000000), wk =   0.0011898
        k( 1164) = (  -0.0987540   0.7354340   0.0000000), wk =   0.0011898
        k( 1165) = (  -0.0987540   0.7374340   0.0000000), wk =   0.0011898
        k( 1166) = (  -0.0987540   0.7394340   0.0000000), wk =   0.0011898
        k( 1167) = (  -0.0987540   0.7414340   0.0000000), wk =   0.0011898
        k( 1168) = (  -0.0987540   0.7434340   0.0000000), wk =   0.0011898
        k( 1169) = (  -0.0987540   0.7454340   0.0000000), wk =   0.0011898
        k( 1170) = (  -0.0987540   0.7474340   0.0000000), wk =   0.0011898
        k( 1171) = (  -0.0987540   0.7494340   0.0000000), wk =   0.0011898
        k( 1172) = (  -0.0987540   0.7514340   0.0000000), wk =   0.0011898
        k( 1173) = (  -0.0987540   0.7534340   0.0000000), wk =   0.0011898
        k( 1174) = (  -0.0987540   0.7554340   0.0000000), wk =   0.0011898
        k( 1175) = (  -0.0987540   0.7574340   0.0000000), wk =   0.0011898
        k( 1176) = (  -0.0987540   0.7594340   0.0000000), wk =   0.0011898
        k( 1177) = (  -0.0987540   0.7614340   0.0000000), wk =   0.0011898
        k( 1178) = (  -0.0987540   0.7634340   0.0000000), wk =   0.0011898
        k( 1179) = (  -0.0987540   0.7654340   0.0000000), wk =   0.0011898
        k( 1180) = (  -0.0987540   0.7674340   0.0000000), wk =   0.0011898
        k( 1181) = (  -0.0987540   0.7694340   0.0000000), wk =   0.0011898
        k( 1182) = (  -0.0987540   0.7714340   0.0000000), wk =   0.0011898
        k( 1183) = (  -0.0987540   0.7734340   0.0000000), wk =   0.0011898
        k( 1184) = (  -0.0987540   0.7754340   0.0000000), wk =   0.0011898
        k( 1185) = (  -0.0987540   0.7774340   0.0000000), wk =   0.0011898
        k( 1186) = (  -0.0987540   0.7794340   0.0000000), wk =   0.0011898
        k( 1187) = (  -0.0987540   0.7814340   0.0000000), wk =   0.0011898
        k( 1188) = (  -0.0987540   0.7834340   0.0000000), wk =   0.0011898
        k( 1189) = (  -0.0987540   0.7854340   0.0000000), wk =   0.0011898
        k( 1190) = (  -0.0967540   0.7054340   0.0000000), wk =   0.0011898
        k( 1191) = (  -0.0967540   0.7074340   0.0000000), wk =   0.0011898
        k( 1192) = (  -0.0967540   0.7094340   0.0000000), wk =   0.0011898
        k( 1193) = (  -0.0967540   0.7114340   0.0000000), wk =   0.0011898
        k( 1194) = (  -0.0967540   0.7134340   0.0000000), wk =   0.0011898
        k( 1195) = (  -0.0967540   0.7154340   0.0000000), wk =   0.0011898
        k( 1196) = (  -0.0967540   0.7174340   0.0000000), wk =   0.0011898
        k( 1197) = (  -0.0967540   0.7194340   0.0000000), wk =   0.0011898
        k( 1198) = (  -0.0967540   0.7214340   0.0000000), wk =   0.0011898
        k( 1199) = (  -0.0967540   0.7234340   0.0000000), wk =   0.0011898
        k( 1200) = (  -0.0967540   0.7254340   0.0000000), wk =   0.0011898
        k( 1201) = (  -0.0967540   0.7274340   0.0000000), wk =   0.0011898
        k( 1202) = (  -0.0967540   0.7294340   0.0000000), wk =   0.0011898
        k( 1203) = (  -0.0967540   0.7314340   0.0000000), wk =   0.0011898
        k( 1204) = (  -0.0967540   0.7334340   0.0000000), wk =   0.0011898
        k( 1205) = (  -0.0967540   0.7354340   0.0000000), wk =   0.0011898
        k( 1206) = (  -0.0967540   0.7374340   0.0000000), wk =   0.0011898
        k( 1207) = (  -0.0967540   0.7394340   0.0000000), wk =   0.0011898
        k( 1208) = (  -0.0967540   0.7414340   0.0000000), wk =   0.0011898
        k( 1209) = (  -0.0967540   0.7434340   0.0000000), wk =   0.0011898
        k( 1210) = (  -0.0967540   0.7454340   0.0000000), wk =   0.0011898
        k( 1211) = (  -0.0967540   0.7474340   0.0000000), wk =   0.0011898
        k( 1212) = (  -0.0967540   0.7494340   0.0000000), wk =   0.0011898
        k( 1213) = (  -0.0967540   0.7514340   0.0000000), wk =   0.0011898
        k( 1214) = (  -0.0967540   0.7534340   0.0000000), wk =   0.0011898
        k( 1215) = (  -0.0967540   0.7554340   0.0000000), wk =   0.0011898
        k( 1216) = (  -0.0967540   0.7574340   0.0000000), wk =   0.0011898
        k( 1217) = (  -0.0967540   0.7594340   0.0000000), wk =   0.0011898
        k( 1218) = (  -0.0967540   0.7614340   0.0000000), wk =   0.0011898
        k( 1219) = (  -0.0967540   0.7634340   0.0000000), wk =   0.0011898
        k( 1220) = (  -0.0967540   0.7654340   0.0000000), wk =   0.0011898
        k( 1221) = (  -0.0967540   0.7674340   0.0000000), wk =   0.0011898
        k( 1222) = (  -0.0967540   0.7694340   0.0000000), wk =   0.0011898
        k( 1223) = (  -0.0967540   0.7714340   0.0000000), wk =   0.0011898
        k( 1224) = (  -0.0967540   0.7734340   0.0000000), wk =   0.0011898
        k( 1225) = (  -0.0967540   0.7754340   0.0000000), wk =   0.0011898
        k( 1226) = (  -0.0967540   0.7774340   0.0000000), wk =   0.0011898
        k( 1227) = (  -0.0967540   0.7794340   0.0000000), wk =   0.0011898
        k( 1228) = (  -0.0967540   0.7814340   0.0000000), wk =   0.0011898
        k( 1229) = (  -0.0967540   0.7834340   0.0000000), wk =   0.0011898
        k( 1230) = (  -0.0967540   0.7854340   0.0000000), wk =   0.0011898
        k( 1231) = (  -0.0947540   0.7054340   0.0000000), wk =   0.0011898
        k( 1232) = (  -0.0947540   0.7074340   0.0000000), wk =   0.0011898
        k( 1233) = (  -0.0947540   0.7094340   0.0000000), wk =   0.0011898
        k( 1234) = (  -0.0947540   0.7114340   0.0000000), wk =   0.0011898
        k( 1235) = (  -0.0947540   0.7134340   0.0000000), wk =   0.0011898
        k( 1236) = (  -0.0947540   0.7154340   0.0000000), wk =   0.0011898
        k( 1237) = (  -0.0947540   0.7174340   0.0000000), wk =   0.0011898
        k( 1238) = (  -0.0947540   0.7194340   0.0000000), wk =   0.0011898
        k( 1239) = (  -0.0947540   0.7214340   0.0000000), wk =   0.0011898
        k( 1240) = (  -0.0947540   0.7234340   0.0000000), wk =   0.0011898
        k( 1241) = (  -0.0947540   0.7254340   0.0000000), wk =   0.0011898
        k( 1242) = (  -0.0947540   0.7274340   0.0000000), wk =   0.0011898
        k( 1243) = (  -0.0947540   0.7294340   0.0000000), wk =   0.0011898
        k( 1244) = (  -0.0947540   0.7314340   0.0000000), wk =   0.0011898
        k( 1245) = (  -0.0947540   0.7334340   0.0000000), wk =   0.0011898
        k( 1246) = (  -0.0947540   0.7354340   0.0000000), wk =   0.0011898
        k( 1247) = (  -0.0947540   0.7374340   0.0000000), wk =   0.0011898
        k( 1248) = (  -0.0947540   0.7394340   0.0000000), wk =   0.0011898
        k( 1249) = (  -0.0947540   0.7414340   0.0000000), wk =   0.0011898
        k( 1250) = (  -0.0947540   0.7434340   0.0000000), wk =   0.0011898
        k( 1251) = (  -0.0947540   0.7454340   0.0000000), wk =   0.0011898
        k( 1252) = (  -0.0947540   0.7474340   0.0000000), wk =   0.0011898
        k( 1253) = (  -0.0947540   0.7494340   0.0000000), wk =   0.0011898
        k( 1254) = (  -0.0947540   0.7514340   0.0000000), wk =   0.0011898
        k( 1255) = (  -0.0947540   0.7534340   0.0000000), wk =   0.0011898
        k( 1256) = (  -0.0947540   0.7554340   0.0000000), wk =   0.0011898
        k( 1257) = (  -0.0947540   0.7574340   0.0000000), wk =   0.0011898
        k( 1258) = (  -0.0947540   0.7594340   0.0000000), wk =   0.0011898
        k( 1259) = (  -0.0947540   0.7614340   0.0000000), wk =   0.0011898
        k( 1260) = (  -0.0947540   0.7634340   0.0000000), wk =   0.0011898
        k( 1261) = (  -0.0947540   0.7654340   0.0000000), wk =   0.0011898
        k( 1262) = (  -0.0947540   0.7674340   0.0000000), wk =   0.0011898
        k( 1263) = (  -0.0947540   0.7694340   0.0000000), wk =   0.0011898
        k( 1264) = (  -0.0947540   0.7714340   0.0000000), wk =   0.0011898
        k( 1265) = (  -0.0947540   0.7734340   0.0000000), wk =   0.0011898
        k( 1266) = (  -0.0947540   0.7754340   0.0000000), wk =   0.0011898
        k( 1267) = (  -0.0947540   0.7774340   0.0000000), wk =   0.0011898
        k( 1268) = (  -0.0947540   0.7794340   0.0000000), wk =   0.0011898
        k( 1269) = (  -0.0947540   0.7814340   0.0000000), wk =   0.0011898
        k( 1270) = (  -0.0947540   0.7834340   0.0000000), wk =   0.0011898
        k( 1271) = (  -0.0947540   0.7854340   0.0000000), wk =   0.0011898
        k( 1272) = (  -0.0927540   0.7054340   0.0000000), wk =   0.0011898
        k( 1273) = (  -0.0927540   0.7074340   0.0000000), wk =   0.0011898
        k( 1274) = (  -0.0927540   0.7094340   0.0000000), wk =   0.0011898
        k( 1275) = (  -0.0927540   0.7114340   0.0000000), wk =   0.0011898
        k( 1276) = (  -0.0927540   0.7134340   0.0000000), wk =   0.0011898
        k( 1277) = (  -0.0927540   0.7154340   0.0000000), wk =   0.0011898
        k( 1278) = (  -0.0927540   0.7174340   0.0000000), wk =   0.0011898
        k( 1279) = (  -0.0927540   0.7194340   0.0000000), wk =   0.0011898
        k( 1280) = (  -0.0927540   0.7214340   0.0000000), wk =   0.0011898
        k( 1281) = (  -0.0927540   0.7234340   0.0000000), wk =   0.0011898
        k( 1282) = (  -0.0927540   0.7254340   0.0000000), wk =   0.0011898
        k( 1283) = (  -0.0927540   0.7274340   0.0000000), wk =   0.0011898
        k( 1284) = (  -0.0927540   0.7294340   0.0000000), wk =   0.0011898
        k( 1285) = (  -0.0927540   0.7314340   0.0000000), wk =   0.0011898
        k( 1286) = (  -0.0927540   0.7334340   0.0000000), wk =   0.0011898
        k( 1287) = (  -0.0927540   0.7354340   0.0000000), wk =   0.0011898
        k( 1288) = (  -0.0927540   0.7374340   0.0000000), wk =   0.0011898
        k( 1289) = (  -0.0927540   0.7394340   0.0000000), wk =   0.0011898
        k( 1290) = (  -0.0927540   0.7414340   0.0000000), wk =   0.0011898
        k( 1291) = (  -0.0927540   0.7434340   0.0000000), wk =   0.0011898
        k( 1292) = (  -0.0927540   0.7454340   0.0000000), wk =   0.0011898
        k( 1293) = (  -0.0927540   0.7474340   0.0000000), wk =   0.0011898
        k( 1294) = (  -0.0927540   0.7494340   0.0000000), wk =   0.0011898
        k( 1295) = (  -0.0927540   0.7514340   0.0000000), wk =   0.0011898
        k( 1296) = (  -0.0927540   0.7534340   0.0000000), wk =   0.0011898
        k( 1297) = (  -0.0927540   0.7554340   0.0000000), wk =   0.0011898
        k( 1298) = (  -0.0927540   0.7574340   0.0000000), wk =   0.0011898
        k( 1299) = (  -0.0927540   0.7594340   0.0000000), wk =   0.0011898
        k( 1300) = (  -0.0927540   0.7614340   0.0000000), wk =   0.0011898
        k( 1301) = (  -0.0927540   0.7634340   0.0000000), wk =   0.0011898
        k( 1302) = (  -0.0927540   0.7654340   0.0000000), wk =   0.0011898
        k( 1303) = (  -0.0927540   0.7674340   0.0000000), wk =   0.0011898
        k( 1304) = (  -0.0927540   0.7694340   0.0000000), wk =   0.0011898
        k( 1305) = (  -0.0927540   0.7714340   0.0000000), wk =   0.0011898
        k( 1306) = (  -0.0927540   0.7734340   0.0000000), wk =   0.0011898
        k( 1307) = (  -0.0927540   0.7754340   0.0000000), wk =   0.0011898
        k( 1308) = (  -0.0927540   0.7774340   0.0000000), wk =   0.0011898
        k( 1309) = (  -0.0927540   0.7794340   0.0000000), wk =   0.0011898
        k( 1310) = (  -0.0927540   0.7814340   0.0000000), wk =   0.0011898
        k( 1311) = (  -0.0927540   0.7834340   0.0000000), wk =   0.0011898
        k( 1312) = (  -0.0927540   0.7854340   0.0000000), wk =   0.0011898
        k( 1313) = (  -0.0907540   0.7054340   0.0000000), wk =   0.0011898
        k( 1314) = (  -0.0907540   0.7074340   0.0000000), wk =   0.0011898
        k( 1315) = (  -0.0907540   0.7094340   0.0000000), wk =   0.0011898
        k( 1316) = (  -0.0907540   0.7114340   0.0000000), wk =   0.0011898
        k( 1317) = (  -0.0907540   0.7134340   0.0000000), wk =   0.0011898
        k( 1318) = (  -0.0907540   0.7154340   0.0000000), wk =   0.0011898
        k( 1319) = (  -0.0907540   0.7174340   0.0000000), wk =   0.0011898
        k( 1320) = (  -0.0907540   0.7194340   0.0000000), wk =   0.0011898
        k( 1321) = (  -0.0907540   0.7214340   0.0000000), wk =   0.0011898
        k( 1322) = (  -0.0907540   0.7234340   0.0000000), wk =   0.0011898
        k( 1323) = (  -0.0907540   0.7254340   0.0000000), wk =   0.0011898
        k( 1324) = (  -0.0907540   0.7274340   0.0000000), wk =   0.0011898
        k( 1325) = (  -0.0907540   0.7294340   0.0000000), wk =   0.0011898
        k( 1326) = (  -0.0907540   0.7314340   0.0000000), wk =   0.0011898
        k( 1327) = (  -0.0907540   0.7334340   0.0000000), wk =   0.0011898
        k( 1328) = (  -0.0907540   0.7354340   0.0000000), wk =   0.0011898
        k( 1329) = (  -0.0907540   0.7374340   0.0000000), wk =   0.0011898
        k( 1330) = (  -0.0907540   0.7394340   0.0000000), wk =   0.0011898
        k( 1331) = (  -0.0907540   0.7414340   0.0000000), wk =   0.0011898
        k( 1332) = (  -0.0907540   0.7434340   0.0000000), wk =   0.0011898
        k( 1333) = (  -0.0907540   0.7454340   0.0000000), wk =   0.0011898
        k( 1334) = (  -0.0907540   0.7474340   0.0000000), wk =   0.0011898
        k( 1335) = (  -0.0907540   0.7494340   0.0000000), wk =   0.0011898
        k( 1336) = (  -0.0907540   0.7514340   0.0000000), wk =   0.0011898
        k( 1337) = (  -0.0907540   0.7534340   0.0000000), wk =   0.0011898
        k( 1338) = (  -0.0907540   0.7554340   0.0000000), wk =   0.0011898
        k( 1339) = (  -0.0907540   0.7574340   0.0000000), wk =   0.0011898
        k( 1340) = (  -0.0907540   0.7594340   0.0000000), wk =   0.0011898
        k( 1341) = (  -0.0907540   0.7614340   0.0000000), wk =   0.0011898
        k( 1342) = (  -0.0907540   0.7634340   0.0000000), wk =   0.0011898
        k( 1343) = (  -0.0907540   0.7654340   0.0000000), wk =   0.0011898
        k( 1344) = (  -0.0907540   0.7674340   0.0000000), wk =   0.0011898
        k( 1345) = (  -0.0907540   0.7694340   0.0000000), wk =   0.0011898
        k( 1346) = (  -0.0907540   0.7714340   0.0000000), wk =   0.0011898
        k( 1347) = (  -0.0907540   0.7734340   0.0000000), wk =   0.0011898
        k( 1348) = (  -0.0907540   0.7754340   0.0000000), wk =   0.0011898
        k( 1349) = (  -0.0907540   0.7774340   0.0000000), wk =   0.0011898
        k( 1350) = (  -0.0907540   0.7794340   0.0000000), wk =   0.0011898
        k( 1351) = (  -0.0907540   0.7814340   0.0000000), wk =   0.0011898
        k( 1352) = (  -0.0907540   0.7834340   0.0000000), wk =   0.0011898
        k( 1353) = (  -0.0907540   0.7854340   0.0000000), wk =   0.0011898
        k( 1354) = (  -0.0887540   0.7054340   0.0000000), wk =   0.0011898
        k( 1355) = (  -0.0887540   0.7074340   0.0000000), wk =   0.0011898
        k( 1356) = (  -0.0887540   0.7094340   0.0000000), wk =   0.0011898
        k( 1357) = (  -0.0887540   0.7114340   0.0000000), wk =   0.0011898
        k( 1358) = (  -0.0887540   0.7134340   0.0000000), wk =   0.0011898
        k( 1359) = (  -0.0887540   0.7154340   0.0000000), wk =   0.0011898
        k( 1360) = (  -0.0887540   0.7174340   0.0000000), wk =   0.0011898
        k( 1361) = (  -0.0887540   0.7194340   0.0000000), wk =   0.0011898
        k( 1362) = (  -0.0887540   0.7214340   0.0000000), wk =   0.0011898
        k( 1363) = (  -0.0887540   0.7234340   0.0000000), wk =   0.0011898
        k( 1364) = (  -0.0887540   0.7254340   0.0000000), wk =   0.0011898
        k( 1365) = (  -0.0887540   0.7274340   0.0000000), wk =   0.0011898
        k( 1366) = (  -0.0887540   0.7294340   0.0000000), wk =   0.0011898
        k( 1367) = (  -0.0887540   0.7314340   0.0000000), wk =   0.0011898
        k( 1368) = (  -0.0887540   0.7334340   0.0000000), wk =   0.0011898
        k( 1369) = (  -0.0887540   0.7354340   0.0000000), wk =   0.0011898
        k( 1370) = (  -0.0887540   0.7374340   0.0000000), wk =   0.0011898
        k( 1371) = (  -0.0887540   0.7394340   0.0000000), wk =   0.0011898
        k( 1372) = (  -0.0887540   0.7414340   0.0000000), wk =   0.0011898
        k( 1373) = (  -0.0887540   0.7434340   0.0000000), wk =   0.0011898
        k( 1374) = (  -0.0887540   0.7454340   0.0000000), wk =   0.0011898
        k( 1375) = (  -0.0887540   0.7474340   0.0000000), wk =   0.0011898
        k( 1376) = (  -0.0887540   0.7494340   0.0000000), wk =   0.0011898
        k( 1377) = (  -0.0887540   0.7514340   0.0000000), wk =   0.0011898
        k( 1378) = (  -0.0887540   0.7534340   0.0000000), wk =   0.0011898
        k( 1379) = (  -0.0887540   0.7554340   0.0000000), wk =   0.0011898
        k( 1380) = (  -0.0887540   0.7574340   0.0000000), wk =   0.0011898
        k( 1381) = (  -0.0887540   0.7594340   0.0000000), wk =   0.0011898
        k( 1382) = (  -0.0887540   0.7614340   0.0000000), wk =   0.0011898
        k( 1383) = (  -0.0887540   0.7634340   0.0000000), wk =   0.0011898
        k( 1384) = (  -0.0887540   0.7654340   0.0000000), wk =   0.0011898
        k( 1385) = (  -0.0887540   0.7674340   0.0000000), wk =   0.0011898
        k( 1386) = (  -0.0887540   0.7694340   0.0000000), wk =   0.0011898
        k( 1387) = (  -0.0887540   0.7714340   0.0000000), wk =   0.0011898
        k( 1388) = (  -0.0887540   0.7734340   0.0000000), wk =   0.0011898
        k( 1389) = (  -0.0887540   0.7754340   0.0000000), wk =   0.0011898
        k( 1390) = (  -0.0887540   0.7774340   0.0000000), wk =   0.0011898
        k( 1391) = (  -0.0887540   0.7794340   0.0000000), wk =   0.0011898
        k( 1392) = (  -0.0887540   0.7814340   0.0000000), wk =   0.0011898
        k( 1393) = (  -0.0887540   0.7834340   0.0000000), wk =   0.0011898
        k( 1394) = (  -0.0887540   0.7854340   0.0000000), wk =   0.0011898
        k( 1395) = (  -0.0867540   0.7054340   0.0000000), wk =   0.0011898
        k( 1396) = (  -0.0867540   0.7074340   0.0000000), wk =   0.0011898
        k( 1397) = (  -0.0867540   0.7094340   0.0000000), wk =   0.0011898
        k( 1398) = (  -0.0867540   0.7114340   0.0000000), wk =   0.0011898
        k( 1399) = (  -0.0867540   0.7134340   0.0000000), wk =   0.0011898
        k( 1400) = (  -0.0867540   0.7154340   0.0000000), wk =   0.0011898
        k( 1401) = (  -0.0867540   0.7174340   0.0000000), wk =   0.0011898
        k( 1402) = (  -0.0867540   0.7194340   0.0000000), wk =   0.0011898
        k( 1403) = (  -0.0867540   0.7214340   0.0000000), wk =   0.0011898
        k( 1404) = (  -0.0867540   0.7234340   0.0000000), wk =   0.0011898
        k( 1405) = (  -0.0867540   0.7254340   0.0000000), wk =   0.0011898
        k( 1406) = (  -0.0867540   0.7274340   0.0000000), wk =   0.0011898
        k( 1407) = (  -0.0867540   0.7294340   0.0000000), wk =   0.0011898
        k( 1408) = (  -0.0867540   0.7314340   0.0000000), wk =   0.0011898
        k( 1409) = (  -0.0867540   0.7334340   0.0000000), wk =   0.0011898
        k( 1410) = (  -0.0867540   0.7354340   0.0000000), wk =   0.0011898
        k( 1411) = (  -0.0867540   0.7374340   0.0000000), wk =   0.0011898
        k( 1412) = (  -0.0867540   0.7394340   0.0000000), wk =   0.0011898
        k( 1413) = (  -0.0867540   0.7414340   0.0000000), wk =   0.0011898
        k( 1414) = (  -0.0867540   0.7434340   0.0000000), wk =   0.0011898
        k( 1415) = (  -0.0867540   0.7454340   0.0000000), wk =   0.0011898
        k( 1416) = (  -0.0867540   0.7474340   0.0000000), wk =   0.0011898
        k( 1417) = (  -0.0867540   0.7494340   0.0000000), wk =   0.0011898
        k( 1418) = (  -0.0867540   0.7514340   0.0000000), wk =   0.0011898
        k( 1419) = (  -0.0867540   0.7534340   0.0000000), wk =   0.0011898
        k( 1420) = (  -0.0867540   0.7554340   0.0000000), wk =   0.0011898
        k( 1421) = (  -0.0867540   0.7574340   0.0000000), wk =   0.0011898
        k( 1422) = (  -0.0867540   0.7594340   0.0000000), wk =   0.0011898
        k( 1423) = (  -0.0867540   0.7614340   0.0000000), wk =   0.0011898
        k( 1424) = (  -0.0867540   0.7634340   0.0000000), wk =   0.0011898
        k( 1425) = (  -0.0867540   0.7654340   0.0000000), wk =   0.0011898
        k( 1426) = (  -0.0867540   0.7674340   0.0000000), wk =   0.0011898
        k( 1427) = (  -0.0867540   0.7694340   0.0000000), wk =   0.0011898
        k( 1428) = (  -0.0867540   0.7714340   0.0000000), wk =   0.0011898
        k( 1429) = (  -0.0867540   0.7734340   0.0000000), wk =   0.0011898
        k( 1430) = (  -0.0867540   0.7754340   0.0000000), wk =   0.0011898
        k( 1431) = (  -0.0867540   0.7774340   0.0000000), wk =   0.0011898
        k( 1432) = (  -0.0867540   0.7794340   0.0000000), wk =   0.0011898
        k( 1433) = (  -0.0867540   0.7814340   0.0000000), wk =   0.0011898
        k( 1434) = (  -0.0867540   0.7834340   0.0000000), wk =   0.0011898
        k( 1435) = (  -0.0867540   0.7854340   0.0000000), wk =   0.0011898
        k( 1436) = (  -0.0847540   0.7054340   0.0000000), wk =   0.0011898
        k( 1437) = (  -0.0847540   0.7074340   0.0000000), wk =   0.0011898
        k( 1438) = (  -0.0847540   0.7094340   0.0000000), wk =   0.0011898
        k( 1439) = (  -0.0847540   0.7114340   0.0000000), wk =   0.0011898
        k( 1440) = (  -0.0847540   0.7134340   0.0000000), wk =   0.0011898
        k( 1441) = (  -0.0847540   0.7154340   0.0000000), wk =   0.0011898
        k( 1442) = (  -0.0847540   0.7174340   0.0000000), wk =   0.0011898
        k( 1443) = (  -0.0847540   0.7194340   0.0000000), wk =   0.0011898
        k( 1444) = (  -0.0847540   0.7214340   0.0000000), wk =   0.0011898
        k( 1445) = (  -0.0847540   0.7234340   0.0000000), wk =   0.0011898
        k( 1446) = (  -0.0847540   0.7254340   0.0000000), wk =   0.0011898
        k( 1447) = (  -0.0847540   0.7274340   0.0000000), wk =   0.0011898
        k( 1448) = (  -0.0847540   0.7294340   0.0000000), wk =   0.0011898
        k( 1449) = (  -0.0847540   0.7314340   0.0000000), wk =   0.0011898
        k( 1450) = (  -0.0847540   0.7334340   0.0000000), wk =   0.0011898
        k( 1451) = (  -0.0847540   0.7354340   0.0000000), wk =   0.0011898
        k( 1452) = (  -0.0847540   0.7374340   0.0000000), wk =   0.0011898
        k( 1453) = (  -0.0847540   0.7394340   0.0000000), wk =   0.0011898
        k( 1454) = (  -0.0847540   0.7414340   0.0000000), wk =   0.0011898
        k( 1455) = (  -0.0847540   0.7434340   0.0000000), wk =   0.0011898
        k( 1456) = (  -0.0847540   0.7454340   0.0000000), wk =   0.0011898
        k( 1457) = (  -0.0847540   0.7474340   0.0000000), wk =   0.0011898
        k( 1458) = (  -0.0847540   0.7494340   0.0000000), wk =   0.0011898
        k( 1459) = (  -0.0847540   0.7514340   0.0000000), wk =   0.0011898
        k( 1460) = (  -0.0847540   0.7534340   0.0000000), wk =   0.0011898
        k( 1461) = (  -0.0847540   0.7554340   0.0000000), wk =   0.0011898
        k( 1462) = (  -0.0847540   0.7574340   0.0000000), wk =   0.0011898
        k( 1463) = (  -0.0847540   0.7594340   0.0000000), wk =   0.0011898
        k( 1464) = (  -0.0847540   0.7614340   0.0000000), wk =   0.0011898
        k( 1465) = (  -0.0847540   0.7634340   0.0000000), wk =   0.0011898
        k( 1466) = (  -0.0847540   0.7654340   0.0000000), wk =   0.0011898
        k( 1467) = (  -0.0847540   0.7674340   0.0000000), wk =   0.0011898
        k( 1468) = (  -0.0847540   0.7694340   0.0000000), wk =   0.0011898
        k( 1469) = (  -0.0847540   0.7714340   0.0000000), wk =   0.0011898
        k( 1470) = (  -0.0847540   0.7734340   0.0000000), wk =   0.0011898
        k( 1471) = (  -0.0847540   0.7754340   0.0000000), wk =   0.0011898
        k( 1472) = (  -0.0847540   0.7774340   0.0000000), wk =   0.0011898
        k( 1473) = (  -0.0847540   0.7794340   0.0000000), wk =   0.0011898
        k( 1474) = (  -0.0847540   0.7814340   0.0000000), wk =   0.0011898
        k( 1475) = (  -0.0847540   0.7834340   0.0000000), wk =   0.0011898
        k( 1476) = (  -0.0847540   0.7854340   0.0000000), wk =   0.0011898
        k( 1477) = (  -0.0827540   0.7054340   0.0000000), wk =   0.0011898
        k( 1478) = (  -0.0827540   0.7074340   0.0000000), wk =   0.0011898
        k( 1479) = (  -0.0827540   0.7094340   0.0000000), wk =   0.0011898
        k( 1480) = (  -0.0827540   0.7114340   0.0000000), wk =   0.0011898
        k( 1481) = (  -0.0827540   0.7134340   0.0000000), wk =   0.0011898
        k( 1482) = (  -0.0827540   0.7154340   0.0000000), wk =   0.0011898
        k( 1483) = (  -0.0827540   0.7174340   0.0000000), wk =   0.0011898
        k( 1484) = (  -0.0827540   0.7194340   0.0000000), wk =   0.0011898
        k( 1485) = (  -0.0827540   0.7214340   0.0000000), wk =   0.0011898
        k( 1486) = (  -0.0827540   0.7234340   0.0000000), wk =   0.0011898
        k( 1487) = (  -0.0827540   0.7254340   0.0000000), wk =   0.0011898
        k( 1488) = (  -0.0827540   0.7274340   0.0000000), wk =   0.0011898
        k( 1489) = (  -0.0827540   0.7294340   0.0000000), wk =   0.0011898
        k( 1490) = (  -0.0827540   0.7314340   0.0000000), wk =   0.0011898
        k( 1491) = (  -0.0827540   0.7334340   0.0000000), wk =   0.0011898
        k( 1492) = (  -0.0827540   0.7354340   0.0000000), wk =   0.0011898
        k( 1493) = (  -0.0827540   0.7374340   0.0000000), wk =   0.0011898
        k( 1494) = (  -0.0827540   0.7394340   0.0000000), wk =   0.0011898
        k( 1495) = (  -0.0827540   0.7414340   0.0000000), wk =   0.0011898
        k( 1496) = (  -0.0827540   0.7434340   0.0000000), wk =   0.0011898
        k( 1497) = (  -0.0827540   0.7454340   0.0000000), wk =   0.0011898
        k( 1498) = (  -0.0827540   0.7474340   0.0000000), wk =   0.0011898
        k( 1499) = (  -0.0827540   0.7494340   0.0000000), wk =   0.0011898
        k( 1500) = (  -0.0827540   0.7514340   0.0000000), wk =   0.0011898
        k( 1501) = (  -0.0827540   0.7534340   0.0000000), wk =   0.0011898
        k( 1502) = (  -0.0827540   0.7554340   0.0000000), wk =   0.0011898
        k( 1503) = (  -0.0827540   0.7574340   0.0000000), wk =   0.0011898
        k( 1504) = (  -0.0827540   0.7594340   0.0000000), wk =   0.0011898
        k( 1505) = (  -0.0827540   0.7614340   0.0000000), wk =   0.0011898
        k( 1506) = (  -0.0827540   0.7634340   0.0000000), wk =   0.0011898
        k( 1507) = (  -0.0827540   0.7654340   0.0000000), wk =   0.0011898
        k( 1508) = (  -0.0827540   0.7674340   0.0000000), wk =   0.0011898
        k( 1509) = (  -0.0827540   0.7694340   0.0000000), wk =   0.0011898
        k( 1510) = (  -0.0827540   0.7714340   0.0000000), wk =   0.0011898
        k( 1511) = (  -0.0827540   0.7734340   0.0000000), wk =   0.0011898
        k( 1512) = (  -0.0827540   0.7754340   0.0000000), wk =   0.0011898
        k( 1513) = (  -0.0827540   0.7774340   0.0000000), wk =   0.0011898
        k( 1514) = (  -0.0827540   0.7794340   0.0000000), wk =   0.0011898
        k( 1515) = (  -0.0827540   0.7814340   0.0000000), wk =   0.0011898
        k( 1516) = (  -0.0827540   0.7834340   0.0000000), wk =   0.0011898
        k( 1517) = (  -0.0827540   0.7854340   0.0000000), wk =   0.0011898
        k( 1518) = (  -0.0807540   0.7054340   0.0000000), wk =   0.0011898
        k( 1519) = (  -0.0807540   0.7074340   0.0000000), wk =   0.0011898
        k( 1520) = (  -0.0807540   0.7094340   0.0000000), wk =   0.0011898
        k( 1521) = (  -0.0807540   0.7114340   0.0000000), wk =   0.0011898
        k( 1522) = (  -0.0807540   0.7134340   0.0000000), wk =   0.0011898
        k( 1523) = (  -0.0807540   0.7154340   0.0000000), wk =   0.0011898
        k( 1524) = (  -0.0807540   0.7174340   0.0000000), wk =   0.0011898
        k( 1525) = (  -0.0807540   0.7194340   0.0000000), wk =   0.0011898
        k( 1526) = (  -0.0807540   0.7214340   0.0000000), wk =   0.0011898
        k( 1527) = (  -0.0807540   0.7234340   0.0000000), wk =   0.0011898
        k( 1528) = (  -0.0807540   0.7254340   0.0000000), wk =   0.0011898
        k( 1529) = (  -0.0807540   0.7274340   0.0000000), wk =   0.0011898
        k( 1530) = (  -0.0807540   0.7294340   0.0000000), wk =   0.0011898
        k( 1531) = (  -0.0807540   0.7314340   0.0000000), wk =   0.0011898
        k( 1532) = (  -0.0807540   0.7334340   0.0000000), wk =   0.0011898
        k( 1533) = (  -0.0807540   0.7354340   0.0000000), wk =   0.0011898
        k( 1534) = (  -0.0807540   0.7374340   0.0000000), wk =   0.0011898
        k( 1535) = (  -0.0807540   0.7394340   0.0000000), wk =   0.0011898
        k( 1536) = (  -0.0807540   0.7414340   0.0000000), wk =   0.0011898
        k( 1537) = (  -0.0807540   0.7434340   0.0000000), wk =   0.0011898
        k( 1538) = (  -0.0807540   0.7454340   0.0000000), wk =   0.0011898
        k( 1539) = (  -0.0807540   0.7474340   0.0000000), wk =   0.0011898
        k( 1540) = (  -0.0807540   0.7494340   0.0000000), wk =   0.0011898
        k( 1541) = (  -0.0807540   0.7514340   0.0000000), wk =   0.0011898
        k( 1542) = (  -0.0807540   0.7534340   0.0000000), wk =   0.0011898
        k( 1543) = (  -0.0807540   0.7554340   0.0000000), wk =   0.0011898
        k( 1544) = (  -0.0807540   0.7574340   0.0000000), wk =   0.0011898
        k( 1545) = (  -0.0807540   0.7594340   0.0000000), wk =   0.0011898
        k( 1546) = (  -0.0807540   0.7614340   0.0000000), wk =   0.0011898
        k( 1547) = (  -0.0807540   0.7634340   0.0000000), wk =   0.0011898
        k( 1548) = (  -0.0807540   0.7654340   0.0000000), wk =   0.0011898
        k( 1549) = (  -0.0807540   0.7674340   0.0000000), wk =   0.0011898
        k( 1550) = (  -0.0807540   0.7694340   0.0000000), wk =   0.0011898
        k( 1551) = (  -0.0807540   0.7714340   0.0000000), wk =   0.0011898
        k( 1552) = (  -0.0807540   0.7734340   0.0000000), wk =   0.0011898
        k( 1553) = (  -0.0807540   0.7754340   0.0000000), wk =   0.0011898
        k( 1554) = (  -0.0807540   0.7774340   0.0000000), wk =   0.0011898
        k( 1555) = (  -0.0807540   0.7794340   0.0000000), wk =   0.0011898
        k( 1556) = (  -0.0807540   0.7814340   0.0000000), wk =   0.0011898
        k( 1557) = (  -0.0807540   0.7834340   0.0000000), wk =   0.0011898
        k( 1558) = (  -0.0807540   0.7854340   0.0000000), wk =   0.0011898
        k( 1559) = (  -0.0787540   0.7054340   0.0000000), wk =   0.0011898
        k( 1560) = (  -0.0787540   0.7074340   0.0000000), wk =   0.0011898
        k( 1561) = (  -0.0787540   0.7094340   0.0000000), wk =   0.0011898
        k( 1562) = (  -0.0787540   0.7114340   0.0000000), wk =   0.0011898
        k( 1563) = (  -0.0787540   0.7134340   0.0000000), wk =   0.0011898
        k( 1564) = (  -0.0787540   0.7154340   0.0000000), wk =   0.0011898
        k( 1565) = (  -0.0787540   0.7174340   0.0000000), wk =   0.0011898
        k( 1566) = (  -0.0787540   0.7194340   0.0000000), wk =   0.0011898
        k( 1567) = (  -0.0787540   0.7214340   0.0000000), wk =   0.0011898
        k( 1568) = (  -0.0787540   0.7234340   0.0000000), wk =   0.0011898
        k( 1569) = (  -0.0787540   0.7254340   0.0000000), wk =   0.0011898
        k( 1570) = (  -0.0787540   0.7274340   0.0000000), wk =   0.0011898
        k( 1571) = (  -0.0787540   0.7294340   0.0000000), wk =   0.0011898
        k( 1572) = (  -0.0787540   0.7314340   0.0000000), wk =   0.0011898
        k( 1573) = (  -0.0787540   0.7334340   0.0000000), wk =   0.0011898
        k( 1574) = (  -0.0787540   0.7354340   0.0000000), wk =   0.0011898
        k( 1575) = (  -0.0787540   0.7374340   0.0000000), wk =   0.0011898
        k( 1576) = (  -0.0787540   0.7394340   0.0000000), wk =   0.0011898
        k( 1577) = (  -0.0787540   0.7414340   0.0000000), wk =   0.0011898
        k( 1578) = (  -0.0787540   0.7434340   0.0000000), wk =   0.0011898
        k( 1579) = (  -0.0787540   0.7454340   0.0000000), wk =   0.0011898
        k( 1580) = (  -0.0787540   0.7474340   0.0000000), wk =   0.0011898
        k( 1581) = (  -0.0787540   0.7494340   0.0000000), wk =   0.0011898
        k( 1582) = (  -0.0787540   0.7514340   0.0000000), wk =   0.0011898
        k( 1583) = (  -0.0787540   0.7534340   0.0000000), wk =   0.0011898
        k( 1584) = (  -0.0787540   0.7554340   0.0000000), wk =   0.0011898
        k( 1585) = (  -0.0787540   0.7574340   0.0000000), wk =   0.0011898
        k( 1586) = (  -0.0787540   0.7594340   0.0000000), wk =   0.0011898
        k( 1587) = (  -0.0787540   0.7614340   0.0000000), wk =   0.0011898
        k( 1588) = (  -0.0787540   0.7634340   0.0000000), wk =   0.0011898
        k( 1589) = (  -0.0787540   0.7654340   0.0000000), wk =   0.0011898
        k( 1590) = (  -0.0787540   0.7674340   0.0000000), wk =   0.0011898
        k( 1591) = (  -0.0787540   0.7694340   0.0000000), wk =   0.0011898
        k( 1592) = (  -0.0787540   0.7714340   0.0000000), wk =   0.0011898
        k( 1593) = (  -0.0787540   0.7734340   0.0000000), wk =   0.0011898
        k( 1594) = (  -0.0787540   0.7754340   0.0000000), wk =   0.0011898
        k( 1595) = (  -0.0787540   0.7774340   0.0000000), wk =   0.0011898
        k( 1596) = (  -0.0787540   0.7794340   0.0000000), wk =   0.0011898
        k( 1597) = (  -0.0787540   0.7814340   0.0000000), wk =   0.0011898
        k( 1598) = (  -0.0787540   0.7834340   0.0000000), wk =   0.0011898
        k( 1599) = (  -0.0787540   0.7854340   0.0000000), wk =   0.0011898
        k( 1600) = (  -0.0767540   0.7054340   0.0000000), wk =   0.0011898
        k( 1601) = (  -0.0767540   0.7074340   0.0000000), wk =   0.0011898
        k( 1602) = (  -0.0767540   0.7094340   0.0000000), wk =   0.0011898
        k( 1603) = (  -0.0767540   0.7114340   0.0000000), wk =   0.0011898
        k( 1604) = (  -0.0767540   0.7134340   0.0000000), wk =   0.0011898
        k( 1605) = (  -0.0767540   0.7154340   0.0000000), wk =   0.0011898
        k( 1606) = (  -0.0767540   0.7174340   0.0000000), wk =   0.0011898
        k( 1607) = (  -0.0767540   0.7194340   0.0000000), wk =   0.0011898
        k( 1608) = (  -0.0767540   0.7214340   0.0000000), wk =   0.0011898
        k( 1609) = (  -0.0767540   0.7234340   0.0000000), wk =   0.0011898
        k( 1610) = (  -0.0767540   0.7254340   0.0000000), wk =   0.0011898
        k( 1611) = (  -0.0767540   0.7274340   0.0000000), wk =   0.0011898
        k( 1612) = (  -0.0767540   0.7294340   0.0000000), wk =   0.0011898
        k( 1613) = (  -0.0767540   0.7314340   0.0000000), wk =   0.0011898
        k( 1614) = (  -0.0767540   0.7334340   0.0000000), wk =   0.0011898
        k( 1615) = (  -0.0767540   0.7354340   0.0000000), wk =   0.0011898
        k( 1616) = (  -0.0767540   0.7374340   0.0000000), wk =   0.0011898
        k( 1617) = (  -0.0767540   0.7394340   0.0000000), wk =   0.0011898
        k( 1618) = (  -0.0767540   0.7414340   0.0000000), wk =   0.0011898
        k( 1619) = (  -0.0767540   0.7434340   0.0000000), wk =   0.0011898
        k( 1620) = (  -0.0767540   0.7454340   0.0000000), wk =   0.0011898
        k( 1621) = (  -0.0767540   0.7474340   0.0000000), wk =   0.0011898
        k( 1622) = (  -0.0767540   0.7494340   0.0000000), wk =   0.0011898
        k( 1623) = (  -0.0767540   0.7514340   0.0000000), wk =   0.0011898
        k( 1624) = (  -0.0767540   0.7534340   0.0000000), wk =   0.0011898
        k( 1625) = (  -0.0767540   0.7554340   0.0000000), wk =   0.0011898
        k( 1626) = (  -0.0767540   0.7574340   0.0000000), wk =   0.0011898
        k( 1627) = (  -0.0767540   0.7594340   0.0000000), wk =   0.0011898
        k( 1628) = (  -0.0767540   0.7614340   0.0000000), wk =   0.0011898
        k( 1629) = (  -0.0767540   0.7634340   0.0000000), wk =   0.0011898
        k( 1630) = (  -0.0767540   0.7654340   0.0000000), wk =   0.0011898
        k( 1631) = (  -0.0767540   0.7674340   0.0000000), wk =   0.0011898
        k( 1632) = (  -0.0767540   0.7694340   0.0000000), wk =   0.0011898
        k( 1633) = (  -0.0767540   0.7714340   0.0000000), wk =   0.0011898
        k( 1634) = (  -0.0767540   0.7734340   0.0000000), wk =   0.0011898
        k( 1635) = (  -0.0767540   0.7754340   0.0000000), wk =   0.0011898
        k( 1636) = (  -0.0767540   0.7774340   0.0000000), wk =   0.0011898
        k( 1637) = (  -0.0767540   0.7794340   0.0000000), wk =   0.0011898
        k( 1638) = (  -0.0767540   0.7814340   0.0000000), wk =   0.0011898
        k( 1639) = (  -0.0767540   0.7834340   0.0000000), wk =   0.0011898
        k( 1640) = (  -0.0767540   0.7854340   0.0000000), wk =   0.0011898
        k( 1641) = (  -0.0747540   0.7054340   0.0000000), wk =   0.0011898
        k( 1642) = (  -0.0747540   0.7074340   0.0000000), wk =   0.0011898
        k( 1643) = (  -0.0747540   0.7094340   0.0000000), wk =   0.0011898
        k( 1644) = (  -0.0747540   0.7114340   0.0000000), wk =   0.0011898
        k( 1645) = (  -0.0747540   0.7134340   0.0000000), wk =   0.0011898
        k( 1646) = (  -0.0747540   0.7154340   0.0000000), wk =   0.0011898
        k( 1647) = (  -0.0747540   0.7174340   0.0000000), wk =   0.0011898
        k( 1648) = (  -0.0747540   0.7194340   0.0000000), wk =   0.0011898
        k( 1649) = (  -0.0747540   0.7214340   0.0000000), wk =   0.0011898
        k( 1650) = (  -0.0747540   0.7234340   0.0000000), wk =   0.0011898
        k( 1651) = (  -0.0747540   0.7254340   0.0000000), wk =   0.0011898
        k( 1652) = (  -0.0747540   0.7274340   0.0000000), wk =   0.0011898
        k( 1653) = (  -0.0747540   0.7294340   0.0000000), wk =   0.0011898
        k( 1654) = (  -0.0747540   0.7314340   0.0000000), wk =   0.0011898
        k( 1655) = (  -0.0747540   0.7334340   0.0000000), wk =   0.0011898
        k( 1656) = (  -0.0747540   0.7354340   0.0000000), wk =   0.0011898
        k( 1657) = (  -0.0747540   0.7374340   0.0000000), wk =   0.0011898
        k( 1658) = (  -0.0747540   0.7394340   0.0000000), wk =   0.0011898
        k( 1659) = (  -0.0747540   0.7414340   0.0000000), wk =   0.0011898
        k( 1660) = (  -0.0747540   0.7434340   0.0000000), wk =   0.0011898
        k( 1661) = (  -0.0747540   0.7454340   0.0000000), wk =   0.0011898
        k( 1662) = (  -0.0747540   0.7474340   0.0000000), wk =   0.0011898
        k( 1663) = (  -0.0747540   0.7494340   0.0000000), wk =   0.0011898
        k( 1664) = (  -0.0747540   0.7514340   0.0000000), wk =   0.0011898
        k( 1665) = (  -0.0747540   0.7534340   0.0000000), wk =   0.0011898
        k( 1666) = (  -0.0747540   0.7554340   0.0000000), wk =   0.0011898
        k( 1667) = (  -0.0747540   0.7574340   0.0000000), wk =   0.0011898
        k( 1668) = (  -0.0747540   0.7594340   0.0000000), wk =   0.0011898
        k( 1669) = (  -0.0747540   0.7614340   0.0000000), wk =   0.0011898
        k( 1670) = (  -0.0747540   0.7634340   0.0000000), wk =   0.0011898
        k( 1671) = (  -0.0747540   0.7654340   0.0000000), wk =   0.0011898
        k( 1672) = (  -0.0747540   0.7674340   0.0000000), wk =   0.0011898
        k( 1673) = (  -0.0747540   0.7694340   0.0000000), wk =   0.0011898
        k( 1674) = (  -0.0747540   0.7714340   0.0000000), wk =   0.0011898
        k( 1675) = (  -0.0747540   0.7734340   0.0000000), wk =   0.0011898
        k( 1676) = (  -0.0747540   0.7754340   0.0000000), wk =   0.0011898
        k( 1677) = (  -0.0747540   0.7774340   0.0000000), wk =   0.0011898
        k( 1678) = (  -0.0747540   0.7794340   0.0000000), wk =   0.0011898
        k( 1679) = (  -0.0747540   0.7814340   0.0000000), wk =   0.0011898
        k( 1680) = (  -0.0747540   0.7834340   0.0000000), wk =   0.0011898
        k( 1681) = (  -0.0747540   0.7854340   0.0000000), wk =   0.0011898

                       cryst. coord.
        k(    1) = (  -0.1547540   0.3957933   0.0000000), wk =   0.0011898
        k(    2) = (  -0.1547540   0.3971348   0.0000000), wk =   0.0011898
        k(    3) = (  -0.1547540   0.3984763   0.0000000), wk =   0.0011898
        k(    4) = (  -0.1547540   0.3998178   0.0000000), wk =   0.0011898
        k(    5) = (  -0.1547540   0.4011593   0.0000000), wk =   0.0011898
        k(    6) = (  -0.1547540   0.4025008   0.0000000), wk =   0.0011898
        k(    7) = (  -0.1547540   0.4038423   0.0000000), wk =   0.0011898
        k(    8) = (  -0.1547540   0.4051838   0.0000000), wk =   0.0011898
        k(    9) = (  -0.1547540   0.4065253   0.0000000), wk =   0.0011898
        k(   10) = (  -0.1547540   0.4078668   0.0000000), wk =   0.0011898
        k(   11) = (  -0.1547540   0.4092083   0.0000000), wk =   0.0011898
        k(   12) = (  -0.1547540   0.4105498   0.0000000), wk =   0.0011898
        k(   13) = (  -0.1547540   0.4118913   0.0000000), wk =   0.0011898
        k(   14) = (  -0.1547540   0.4132328   0.0000000), wk =   0.0011898
        k(   15) = (  -0.1547540   0.4145743   0.0000000), wk =   0.0011898
        k(   16) = (  -0.1547540   0.4159158   0.0000000), wk =   0.0011898
        k(   17) = (  -0.1547540   0.4172573   0.0000000), wk =   0.0011898
        k(   18) = (  -0.1547540   0.4185988   0.0000000), wk =   0.0011898
        k(   19) = (  -0.1547540   0.4199403   0.0000000), wk =   0.0011898
        k(   20) = (  -0.1547540   0.4212818   0.0000000), wk =   0.0011898
        k(   21) = (  -0.1547540   0.4226233   0.0000000), wk =   0.0011898
        k(   22) = (  -0.1547540   0.4239648   0.0000000), wk =   0.0011898
        k(   23) = (  -0.1547540   0.4253063   0.0000000), wk =   0.0011898
        k(   24) = (  -0.1547540   0.4266478   0.0000000), wk =   0.0011898
        k(   25) = (  -0.1547540   0.4279893   0.0000000), wk =   0.0011898
        k(   26) = (  -0.1547540   0.4293308   0.0000000), wk =   0.0011898
        k(   27) = (  -0.1547540   0.4306723   0.0000000), wk =   0.0011898
        k(   28) = (  -0.1547540   0.4320138   0.0000000), wk =   0.0011898
        k(   29) = (  -0.1547540   0.4333553   0.0000000), wk =   0.0011898
        k(   30) = (  -0.1547540   0.4346968   0.0000000), wk =   0.0011898
        k(   31) = (  -0.1547540   0.4360383   0.0000000), wk =   0.0011898
        k(   32) = (  -0.1547540   0.4373798   0.0000000), wk =   0.0011898
        k(   33) = (  -0.1547540   0.4387213   0.0000000), wk =   0.0011898
        k(   34) = (  -0.1547540   0.4400628   0.0000000), wk =   0.0011898
        k(   35) = (  -0.1547540   0.4414043   0.0000000), wk =   0.0011898
        k(   36) = (  -0.1547540   0.4427458   0.0000000), wk =   0.0011898
        k(   37) = (  -0.1547540   0.4440873   0.0000000), wk =   0.0011898
        k(   38) = (  -0.1547540   0.4454289   0.0000000), wk =   0.0011898
        k(   39) = (  -0.1547540   0.4467704   0.0000000), wk =   0.0011898
        k(   40) = (  -0.1547540   0.4481119   0.0000000), wk =   0.0011898
        k(   41) = (  -0.1547540   0.4494534   0.0000000), wk =   0.0011898
        k(   42) = (  -0.1527540   0.3967933   0.0000000), wk =   0.0011898
        k(   43) = (  -0.1527540   0.3981348   0.0000000), wk =   0.0011898
        k(   44) = (  -0.1527540   0.3994763   0.0000000), wk =   0.0011898
        k(   45) = (  -0.1527540   0.4008178   0.0000000), wk =   0.0011898
        k(   46) = (  -0.1527540   0.4021593   0.0000000), wk =   0.0011898
        k(   47) = (  -0.1527540   0.4035008   0.0000000), wk =   0.0011898
        k(   48) = (  -0.1527540   0.4048423   0.0000000), wk =   0.0011898
        k(   49) = (  -0.1527540   0.4061838   0.0000000), wk =   0.0011898
        k(   50) = (  -0.1527540   0.4075253   0.0000000), wk =   0.0011898
        k(   51) = (  -0.1527540   0.4088668   0.0000000), wk =   0.0011898
        k(   52) = (  -0.1527540   0.4102083   0.0000000), wk =   0.0011898
        k(   53) = (  -0.1527540   0.4115498   0.0000000), wk =   0.0011898
        k(   54) = (  -0.1527540   0.4128913   0.0000000), wk =   0.0011898
        k(   55) = (  -0.1527540   0.4142328   0.0000000), wk =   0.0011898
        k(   56) = (  -0.1527540   0.4155743   0.0000000), wk =   0.0011898
        k(   57) = (  -0.1527540   0.4169158   0.0000000), wk =   0.0011898
        k(   58) = (  -0.1527540   0.4182573   0.0000000), wk =   0.0011898
        k(   59) = (  -0.1527540   0.4195988   0.0000000), wk =   0.0011898
        k(   60) = (  -0.1527540   0.4209403   0.0000000), wk =   0.0011898
        k(   61) = (  -0.1527540   0.4222818   0.0000000), wk =   0.0011898
        k(   62) = (  -0.1527540   0.4236233   0.0000000), wk =   0.0011898
        k(   63) = (  -0.1527540   0.4249648   0.0000000), wk =   0.0011898
        k(   64) = (  -0.1527540   0.4263063   0.0000000), wk =   0.0011898
        k(   65) = (  -0.1527540   0.4276478   0.0000000), wk =   0.0011898
        k(   66) = (  -0.1527540   0.4289893   0.0000000), wk =   0.0011898
        k(   67) = (  -0.1527540   0.4303308   0.0000000), wk =   0.0011898
        k(   68) = (  -0.1527540   0.4316723   0.0000000), wk =   0.0011898
        k(   69) = (  -0.1527540   0.4330138   0.0000000), wk =   0.0011898
        k(   70) = (  -0.1527540   0.4343553   0.0000000), wk =   0.0011898
        k(   71) = (  -0.1527540   0.4356968   0.0000000), wk =   0.0011898
        k(   72) = (  -0.1527540   0.4370383   0.0000000), wk =   0.0011898
        k(   73) = (  -0.1527540   0.4383798   0.0000000), wk =   0.0011898
        k(   74) = (  -0.1527540   0.4397213   0.0000000), wk =   0.0011898
        k(   75) = (  -0.1527540   0.4410628   0.0000000), wk =   0.0011898
        k(   76) = (  -0.1527540   0.4424043   0.0000000), wk =   0.0011898
        k(   77) = (  -0.1527540   0.4437458   0.0000000), wk =   0.0011898
        k(   78) = (  -0.1527540   0.4450873   0.0000000), wk =   0.0011898
        k(   79) = (  -0.1527540   0.4464289   0.0000000), wk =   0.0011898
        k(   80) = (  -0.1527540   0.4477704   0.0000000), wk =   0.0011898
        k(   81) = (  -0.1527540   0.4491119   0.0000000), wk =   0.0011898
        k(   82) = (  -0.1527540   0.4504534   0.0000000), wk =   0.0011898
        k(   83) = (  -0.1507540   0.3977933   0.0000000), wk =   0.0011898
        k(   84) = (  -0.1507540   0.3991348   0.0000000), wk =   0.0011898
        k(   85) = (  -0.1507540   0.4004763   0.0000000), wk =   0.0011898
        k(   86) = (  -0.1507540   0.4018178   0.0000000), wk =   0.0011898
        k(   87) = (  -0.1507540   0.4031593   0.0000000), wk =   0.0011898
        k(   88) = (  -0.1507540   0.4045008   0.0000000), wk =   0.0011898
        k(   89) = (  -0.1507540   0.4058423   0.0000000), wk =   0.0011898
        k(   90) = (  -0.1507540   0.4071838   0.0000000), wk =   0.0011898
        k(   91) = (  -0.1507540   0.4085253   0.0000000), wk =   0.0011898
        k(   92) = (  -0.1507540   0.4098668   0.0000000), wk =   0.0011898
        k(   93) = (  -0.1507540   0.4112083   0.0000000), wk =   0.0011898
        k(   94) = (  -0.1507540   0.4125498   0.0000000), wk =   0.0011898
        k(   95) = (  -0.1507540   0.4138913   0.0000000), wk =   0.0011898
        k(   96) = (  -0.1507540   0.4152328   0.0000000), wk =   0.0011898
        k(   97) = (  -0.1507540   0.4165743   0.0000000), wk =   0.0011898
        k(   98) = (  -0.1507540   0.4179158   0.0000000), wk =   0.0011898
        k(   99) = (  -0.1507540   0.4192573   0.0000000), wk =   0.0011898
        k(  100) = (  -0.1507540   0.4205988   0.0000000), wk =   0.0011898
        k(  101) = (  -0.1507540   0.4219403   0.0000000), wk =   0.0011898
        k(  102) = (  -0.1507540   0.4232818   0.0000000), wk =   0.0011898
        k(  103) = (  -0.1507540   0.4246233   0.0000000), wk =   0.0011898
        k(  104) = (  -0.1507540   0.4259648   0.0000000), wk =   0.0011898
        k(  105) = (  -0.1507540   0.4273063   0.0000000), wk =   0.0011898
        k(  106) = (  -0.1507540   0.4286478   0.0000000), wk =   0.0011898
        k(  107) = (  -0.1507540   0.4299893   0.0000000), wk =   0.0011898
        k(  108) = (  -0.1507540   0.4313308   0.0000000), wk =   0.0011898
        k(  109) = (  -0.1507540   0.4326723   0.0000000), wk =   0.0011898
        k(  110) = (  -0.1507540   0.4340138   0.0000000), wk =   0.0011898
        k(  111) = (  -0.1507540   0.4353553   0.0000000), wk =   0.0011898
        k(  112) = (  -0.1507540   0.4366968   0.0000000), wk =   0.0011898
        k(  113) = (  -0.1507540   0.4380383   0.0000000), wk =   0.0011898
        k(  114) = (  -0.1507540   0.4393798   0.0000000), wk =   0.0011898
        k(  115) = (  -0.1507540   0.4407213   0.0000000), wk =   0.0011898
        k(  116) = (  -0.1507540   0.4420628   0.0000000), wk =   0.0011898
        k(  117) = (  -0.1507540   0.4434043   0.0000000), wk =   0.0011898
        k(  118) = (  -0.1507540   0.4447458   0.0000000), wk =   0.0011898
        k(  119) = (  -0.1507540   0.4460873   0.0000000), wk =   0.0011898
        k(  120) = (  -0.1507540   0.4474289   0.0000000), wk =   0.0011898
        k(  121) = (  -0.1507540   0.4487704   0.0000000), wk =   0.0011898
        k(  122) = (  -0.1507540   0.4501119   0.0000000), wk =   0.0011898
        k(  123) = (  -0.1507540   0.4514534   0.0000000), wk =   0.0011898
        k(  124) = (  -0.1487540   0.3987933   0.0000000), wk =   0.0011898
        k(  125) = (  -0.1487540   0.4001348   0.0000000), wk =   0.0011898
        k(  126) = (  -0.1487540   0.4014763   0.0000000), wk =   0.0011898
        k(  127) = (  -0.1487540   0.4028178   0.0000000), wk =   0.0011898
        k(  128) = (  -0.1487540   0.4041593   0.0000000), wk =   0.0011898
        k(  129) = (  -0.1487540   0.4055008   0.0000000), wk =   0.0011898
        k(  130) = (  -0.1487540   0.4068423   0.0000000), wk =   0.0011898
        k(  131) = (  -0.1487540   0.4081838   0.0000000), wk =   0.0011898
        k(  132) = (  -0.1487540   0.4095253   0.0000000), wk =   0.0011898
        k(  133) = (  -0.1487540   0.4108668   0.0000000), wk =   0.0011898
        k(  134) = (  -0.1487540   0.4122083   0.0000000), wk =   0.0011898
        k(  135) = (  -0.1487540   0.4135498   0.0000000), wk =   0.0011898
        k(  136) = (  -0.1487540   0.4148913   0.0000000), wk =   0.0011898
        k(  137) = (  -0.1487540   0.4162328   0.0000000), wk =   0.0011898
        k(  138) = (  -0.1487540   0.4175743   0.0000000), wk =   0.0011898
        k(  139) = (  -0.1487540   0.4189158   0.0000000), wk =   0.0011898
        k(  140) = (  -0.1487540   0.4202573   0.0000000), wk =   0.0011898
        k(  141) = (  -0.1487540   0.4215988   0.0000000), wk =   0.0011898
        k(  142) = (  -0.1487540   0.4229403   0.0000000), wk =   0.0011898
        k(  143) = (  -0.1487540   0.4242818   0.0000000), wk =   0.0011898
        k(  144) = (  -0.1487540   0.4256233   0.0000000), wk =   0.0011898
        k(  145) = (  -0.1487540   0.4269648   0.0000000), wk =   0.0011898
        k(  146) = (  -0.1487540   0.4283063   0.0000000), wk =   0.0011898
        k(  147) = (  -0.1487540   0.4296478   0.0000000), wk =   0.0011898
        k(  148) = (  -0.1487540   0.4309893   0.0000000), wk =   0.0011898
        k(  149) = (  -0.1487540   0.4323308   0.0000000), wk =   0.0011898
        k(  150) = (  -0.1487540   0.4336723   0.0000000), wk =   0.0011898
        k(  151) = (  -0.1487540   0.4350138   0.0000000), wk =   0.0011898
        k(  152) = (  -0.1487540   0.4363553   0.0000000), wk =   0.0011898
        k(  153) = (  -0.1487540   0.4376968   0.0000000), wk =   0.0011898
        k(  154) = (  -0.1487540   0.4390383   0.0000000), wk =   0.0011898
        k(  155) = (  -0.1487540   0.4403798   0.0000000), wk =   0.0011898
        k(  156) = (  -0.1487540   0.4417213   0.0000000), wk =   0.0011898
        k(  157) = (  -0.1487540   0.4430628   0.0000000), wk =   0.0011898
        k(  158) = (  -0.1487540   0.4444043   0.0000000), wk =   0.0011898
        k(  159) = (  -0.1487540   0.4457458   0.0000000), wk =   0.0011898
        k(  160) = (  -0.1487540   0.4470873   0.0000000), wk =   0.0011898
        k(  161) = (  -0.1487540   0.4484289   0.0000000), wk =   0.0011898
        k(  162) = (  -0.1487540   0.4497704   0.0000000), wk =   0.0011898
        k(  163) = (  -0.1487540   0.4511119   0.0000000), wk =   0.0011898
        k(  164) = (  -0.1487540   0.4524534   0.0000000), wk =   0.0011898
        k(  165) = (  -0.1467540   0.3997933   0.0000000), wk =   0.0011898
        k(  166) = (  -0.1467540   0.4011348   0.0000000), wk =   0.0011898
        k(  167) = (  -0.1467540   0.4024763   0.0000000), wk =   0.0011898
        k(  168) = (  -0.1467540   0.4038178   0.0000000), wk =   0.0011898
        k(  169) = (  -0.1467540   0.4051593   0.0000000), wk =   0.0011898
        k(  170) = (  -0.1467540   0.4065008   0.0000000), wk =   0.0011898
        k(  171) = (  -0.1467540   0.4078423   0.0000000), wk =   0.0011898
        k(  172) = (  -0.1467540   0.4091838   0.0000000), wk =   0.0011898
        k(  173) = (  -0.1467540   0.4105253   0.0000000), wk =   0.0011898
        k(  174) = (  -0.1467540   0.4118668   0.0000000), wk =   0.0011898
        k(  175) = (  -0.1467540   0.4132083   0.0000000), wk =   0.0011898
        k(  176) = (  -0.1467540   0.4145498   0.0000000), wk =   0.0011898
        k(  177) = (  -0.1467540   0.4158913   0.0000000), wk =   0.0011898
        k(  178) = (  -0.1467540   0.4172328   0.0000000), wk =   0.0011898
        k(  179) = (  -0.1467540   0.4185743   0.0000000), wk =   0.0011898
        k(  180) = (  -0.1467540   0.4199158   0.0000000), wk =   0.0011898
        k(  181) = (  -0.1467540   0.4212573   0.0000000), wk =   0.0011898
        k(  182) = (  -0.1467540   0.4225988   0.0000000), wk =   0.0011898
        k(  183) = (  -0.1467540   0.4239403   0.0000000), wk =   0.0011898
        k(  184) = (  -0.1467540   0.4252818   0.0000000), wk =   0.0011898
        k(  185) = (  -0.1467540   0.4266233   0.0000000), wk =   0.0011898
        k(  186) = (  -0.1467540   0.4279648   0.0000000), wk =   0.0011898
        k(  187) = (  -0.1467540   0.4293063   0.0000000), wk =   0.0011898
        k(  188) = (  -0.1467540   0.4306478   0.0000000), wk =   0.0011898
        k(  189) = (  -0.1467540   0.4319893   0.0000000), wk =   0.0011898
        k(  190) = (  -0.1467540   0.4333308   0.0000000), wk =   0.0011898
        k(  191) = (  -0.1467540   0.4346723   0.0000000), wk =   0.0011898
        k(  192) = (  -0.1467540   0.4360138   0.0000000), wk =   0.0011898
        k(  193) = (  -0.1467540   0.4373553   0.0000000), wk =   0.0011898
        k(  194) = (  -0.1467540   0.4386968   0.0000000), wk =   0.0011898
        k(  195) = (  -0.1467540   0.4400383   0.0000000), wk =   0.0011898
        k(  196) = (  -0.1467540   0.4413798   0.0000000), wk =   0.0011898
        k(  197) = (  -0.1467540   0.4427213   0.0000000), wk =   0.0011898
        k(  198) = (  -0.1467540   0.4440628   0.0000000), wk =   0.0011898
        k(  199) = (  -0.1467540   0.4454043   0.0000000), wk =   0.0011898
        k(  200) = (  -0.1467540   0.4467458   0.0000000), wk =   0.0011898
        k(  201) = (  -0.1467540   0.4480873   0.0000000), wk =   0.0011898
        k(  202) = (  -0.1467540   0.4494289   0.0000000), wk =   0.0011898
        k(  203) = (  -0.1467540   0.4507704   0.0000000), wk =   0.0011898
        k(  204) = (  -0.1467540   0.4521119   0.0000000), wk =   0.0011898
        k(  205) = (  -0.1467540   0.4534534   0.0000000), wk =   0.0011898
        k(  206) = (  -0.1447540   0.4007933   0.0000000), wk =   0.0011898
        k(  207) = (  -0.1447540   0.4021348   0.0000000), wk =   0.0011898
        k(  208) = (  -0.1447540   0.4034763   0.0000000), wk =   0.0011898
        k(  209) = (  -0.1447540   0.4048178   0.0000000), wk =   0.0011898
        k(  210) = (  -0.1447540   0.4061593   0.0000000), wk =   0.0011898
        k(  211) = (  -0.1447540   0.4075008   0.0000000), wk =   0.0011898
        k(  212) = (  -0.1447540   0.4088423   0.0000000), wk =   0.0011898
        k(  213) = (  -0.1447540   0.4101838   0.0000000), wk =   0.0011898
        k(  214) = (  -0.1447540   0.4115253   0.0000000), wk =   0.0011898
        k(  215) = (  -0.1447540   0.4128668   0.0000000), wk =   0.0011898
        k(  216) = (  -0.1447540   0.4142083   0.0000000), wk =   0.0011898
        k(  217) = (  -0.1447540   0.4155498   0.0000000), wk =   0.0011898
        k(  218) = (  -0.1447540   0.4168913   0.0000000), wk =   0.0011898
        k(  219) = (  -0.1447540   0.4182328   0.0000000), wk =   0.0011898
        k(  220) = (  -0.1447540   0.4195743   0.0000000), wk =   0.0011898
        k(  221) = (  -0.1447540   0.4209158   0.0000000), wk =   0.0011898
        k(  222) = (  -0.1447540   0.4222573   0.0000000), wk =   0.0011898
        k(  223) = (  -0.1447540   0.4235988   0.0000000), wk =   0.0011898
        k(  224) = (  -0.1447540   0.4249403   0.0000000), wk =   0.0011898
        k(  225) = (  -0.1447540   0.4262818   0.0000000), wk =   0.0011898
        k(  226) = (  -0.1447540   0.4276233   0.0000000), wk =   0.0011898
        k(  227) = (  -0.1447540   0.4289648   0.0000000), wk =   0.0011898
        k(  228) = (  -0.1447540   0.4303063   0.0000000), wk =   0.0011898
        k(  229) = (  -0.1447540   0.4316478   0.0000000), wk =   0.0011898
        k(  230) = (  -0.1447540   0.4329893   0.0000000), wk =   0.0011898
        k(  231) = (  -0.1447540   0.4343308   0.0000000), wk =   0.0011898
        k(  232) = (  -0.1447540   0.4356723   0.0000000), wk =   0.0011898
        k(  233) = (  -0.1447540   0.4370138   0.0000000), wk =   0.0011898
        k(  234) = (  -0.1447540   0.4383553   0.0000000), wk =   0.0011898
        k(  235) = (  -0.1447540   0.4396968   0.0000000), wk =   0.0011898
        k(  236) = (  -0.1447540   0.4410383   0.0000000), wk =   0.0011898
        k(  237) = (  -0.1447540   0.4423798   0.0000000), wk =   0.0011898
        k(  238) = (  -0.1447540   0.4437213   0.0000000), wk =   0.0011898
        k(  239) = (  -0.1447540   0.4450628   0.0000000), wk =   0.0011898
        k(  240) = (  -0.1447540   0.4464043   0.0000000), wk =   0.0011898
        k(  241) = (  -0.1447540   0.4477458   0.0000000), wk =   0.0011898
        k(  242) = (  -0.1447540   0.4490873   0.0000000), wk =   0.0011898
        k(  243) = (  -0.1447540   0.4504289   0.0000000), wk =   0.0011898
        k(  244) = (  -0.1447540   0.4517704   0.0000000), wk =   0.0011898
        k(  245) = (  -0.1447540   0.4531119   0.0000000), wk =   0.0011898
        k(  246) = (  -0.1447540   0.4544534   0.0000000), wk =   0.0011898
        k(  247) = (  -0.1427540   0.4017933   0.0000000), wk =   0.0011898
        k(  248) = (  -0.1427540   0.4031348   0.0000000), wk =   0.0011898
        k(  249) = (  -0.1427540   0.4044763   0.0000000), wk =   0.0011898
        k(  250) = (  -0.1427540   0.4058178   0.0000000), wk =   0.0011898
        k(  251) = (  -0.1427540   0.4071593   0.0000000), wk =   0.0011898
        k(  252) = (  -0.1427540   0.4085008   0.0000000), wk =   0.0011898
        k(  253) = (  -0.1427540   0.4098423   0.0000000), wk =   0.0011898
        k(  254) = (  -0.1427540   0.4111838   0.0000000), wk =   0.0011898
        k(  255) = (  -0.1427540   0.4125253   0.0000000), wk =   0.0011898
        k(  256) = (  -0.1427540   0.4138668   0.0000000), wk =   0.0011898
        k(  257) = (  -0.1427540   0.4152083   0.0000000), wk =   0.0011898
        k(  258) = (  -0.1427540   0.4165498   0.0000000), wk =   0.0011898
        k(  259) = (  -0.1427540   0.4178913   0.0000000), wk =   0.0011898
        k(  260) = (  -0.1427540   0.4192328   0.0000000), wk =   0.0011898
        k(  261) = (  -0.1427540   0.4205743   0.0000000), wk =   0.0011898
        k(  262) = (  -0.1427540   0.4219158   0.0000000), wk =   0.0011898
        k(  263) = (  -0.1427540   0.4232573   0.0000000), wk =   0.0011898
        k(  264) = (  -0.1427540   0.4245988   0.0000000), wk =   0.0011898
        k(  265) = (  -0.1427540   0.4259403   0.0000000), wk =   0.0011898
        k(  266) = (  -0.1427540   0.4272818   0.0000000), wk =   0.0011898
        k(  267) = (  -0.1427540   0.4286233   0.0000000), wk =   0.0011898
        k(  268) = (  -0.1427540   0.4299648   0.0000000), wk =   0.0011898
        k(  269) = (  -0.1427540   0.4313063   0.0000000), wk =   0.0011898
        k(  270) = (  -0.1427540   0.4326478   0.0000000), wk =   0.0011898
        k(  271) = (  -0.1427540   0.4339893   0.0000000), wk =   0.0011898
        k(  272) = (  -0.1427540   0.4353308   0.0000000), wk =   0.0011898
        k(  273) = (  -0.1427540   0.4366723   0.0000000), wk =   0.0011898
        k(  274) = (  -0.1427540   0.4380138   0.0000000), wk =   0.0011898
        k(  275) = (  -0.1427540   0.4393553   0.0000000), wk =   0.0011898
        k(  276) = (  -0.1427540   0.4406968   0.0000000), wk =   0.0011898
        k(  277) = (  -0.1427540   0.4420383   0.0000000), wk =   0.0011898
        k(  278) = (  -0.1427540   0.4433798   0.0000000), wk =   0.0011898
        k(  279) = (  -0.1427540   0.4447213   0.0000000), wk =   0.0011898
        k(  280) = (  -0.1427540   0.4460628   0.0000000), wk =   0.0011898
        k(  281) = (  -0.1427540   0.4474043   0.0000000), wk =   0.0011898
        k(  282) = (  -0.1427540   0.4487458   0.0000000), wk =   0.0011898
        k(  283) = (  -0.1427540   0.4500874   0.0000000), wk =   0.0011898
        k(  284) = (  -0.1427540   0.4514289   0.0000000), wk =   0.0011898
        k(  285) = (  -0.1427540   0.4527704   0.0000000), wk =   0.0011898
        k(  286) = (  -0.1427540   0.4541119   0.0000000), wk =   0.0011898
        k(  287) = (  -0.1427540   0.4554534   0.0000000), wk =   0.0011898
        k(  288) = (  -0.1407540   0.4027933   0.0000000), wk =   0.0011898
        k(  289) = (  -0.1407540   0.4041348   0.0000000), wk =   0.0011898
        k(  290) = (  -0.1407540   0.4054763   0.0000000), wk =   0.0011898
        k(  291) = (  -0.1407540   0.4068178   0.0000000), wk =   0.0011898
        k(  292) = (  -0.1407540   0.4081593   0.0000000), wk =   0.0011898
        k(  293) = (  -0.1407540   0.4095008   0.0000000), wk =   0.0011898
        k(  294) = (  -0.1407540   0.4108423   0.0000000), wk =   0.0011898
        k(  295) = (  -0.1407540   0.4121838   0.0000000), wk =   0.0011898
        k(  296) = (  -0.1407540   0.4135253   0.0000000), wk =   0.0011898
        k(  297) = (  -0.1407540   0.4148668   0.0000000), wk =   0.0011898
        k(  298) = (  -0.1407540   0.4162083   0.0000000), wk =   0.0011898
        k(  299) = (  -0.1407540   0.4175498   0.0000000), wk =   0.0011898
        k(  300) = (  -0.1407540   0.4188913   0.0000000), wk =   0.0011898
        k(  301) = (  -0.1407540   0.4202328   0.0000000), wk =   0.0011898
        k(  302) = (  -0.1407540   0.4215743   0.0000000), wk =   0.0011898
        k(  303) = (  -0.1407540   0.4229158   0.0000000), wk =   0.0011898
        k(  304) = (  -0.1407540   0.4242573   0.0000000), wk =   0.0011898
        k(  305) = (  -0.1407540   0.4255988   0.0000000), wk =   0.0011898
        k(  306) = (  -0.1407540   0.4269403   0.0000000), wk =   0.0011898
        k(  307) = (  -0.1407540   0.4282818   0.0000000), wk =   0.0011898
        k(  308) = (  -0.1407540   0.4296233   0.0000000), wk =   0.0011898
        k(  309) = (  -0.1407540   0.4309648   0.0000000), wk =   0.0011898
        k(  310) = (  -0.1407540   0.4323063   0.0000000), wk =   0.0011898
        k(  311) = (  -0.1407540   0.4336478   0.0000000), wk =   0.0011898
        k(  312) = (  -0.1407540   0.4349893   0.0000000), wk =   0.0011898
        k(  313) = (  -0.1407540   0.4363308   0.0000000), wk =   0.0011898
        k(  314) = (  -0.1407540   0.4376723   0.0000000), wk =   0.0011898
        k(  315) = (  -0.1407540   0.4390138   0.0000000), wk =   0.0011898
        k(  316) = (  -0.1407540   0.4403553   0.0000000), wk =   0.0011898
        k(  317) = (  -0.1407540   0.4416968   0.0000000), wk =   0.0011898
        k(  318) = (  -0.1407540   0.4430383   0.0000000), wk =   0.0011898
        k(  319) = (  -0.1407540   0.4443798   0.0000000), wk =   0.0011898
        k(  320) = (  -0.1407540   0.4457213   0.0000000), wk =   0.0011898
        k(  321) = (  -0.1407540   0.4470628   0.0000000), wk =   0.0011898
        k(  322) = (  -0.1407540   0.4484043   0.0000000), wk =   0.0011898
        k(  323) = (  -0.1407540   0.4497458   0.0000000), wk =   0.0011898
        k(  324) = (  -0.1407540   0.4510874   0.0000000), wk =   0.0011898
        k(  325) = (  -0.1407540   0.4524289   0.0000000), wk =   0.0011898
        k(  326) = (  -0.1407540   0.4537704   0.0000000), wk =   0.0011898
        k(  327) = (  -0.1407540   0.4551119   0.0000000), wk =   0.0011898
        k(  328) = (  -0.1407540   0.4564534   0.0000000), wk =   0.0011898
        k(  329) = (  -0.1387540   0.4037933   0.0000000), wk =   0.0011898
        k(  330) = (  -0.1387540   0.4051348   0.0000000), wk =   0.0011898
        k(  331) = (  -0.1387540   0.4064763   0.0000000), wk =   0.0011898
        k(  332) = (  -0.1387540   0.4078178   0.0000000), wk =   0.0011898
        k(  333) = (  -0.1387540   0.4091593   0.0000000), wk =   0.0011898
        k(  334) = (  -0.1387540   0.4105008   0.0000000), wk =   0.0011898
        k(  335) = (  -0.1387540   0.4118423   0.0000000), wk =   0.0011898
        k(  336) = (  -0.1387540   0.4131838   0.0000000), wk =   0.0011898
        k(  337) = (  -0.1387540   0.4145253   0.0000000), wk =   0.0011898
        k(  338) = (  -0.1387540   0.4158668   0.0000000), wk =   0.0011898
        k(  339) = (  -0.1387540   0.4172083   0.0000000), wk =   0.0011898
        k(  340) = (  -0.1387540   0.4185498   0.0000000), wk =   0.0011898
        k(  341) = (  -0.1387540   0.4198913   0.0000000), wk =   0.0011898
        k(  342) = (  -0.1387540   0.4212328   0.0000000), wk =   0.0011898
        k(  343) = (  -0.1387540   0.4225743   0.0000000), wk =   0.0011898
        k(  344) = (  -0.1387540   0.4239158   0.0000000), wk =   0.0011898
        k(  345) = (  -0.1387540   0.4252573   0.0000000), wk =   0.0011898
        k(  346) = (  -0.1387540   0.4265988   0.0000000), wk =   0.0011898
        k(  347) = (  -0.1387540   0.4279403   0.0000000), wk =   0.0011898
        k(  348) = (  -0.1387540   0.4292818   0.0000000), wk =   0.0011898
        k(  349) = (  -0.1387540   0.4306233   0.0000000), wk =   0.0011898
        k(  350) = (  -0.1387540   0.4319648   0.0000000), wk =   0.0011898
        k(  351) = (  -0.1387540   0.4333063   0.0000000), wk =   0.0011898
        k(  352) = (  -0.1387540   0.4346478   0.0000000), wk =   0.0011898
        k(  353) = (  -0.1387540   0.4359893   0.0000000), wk =   0.0011898
        k(  354) = (  -0.1387540   0.4373308   0.0000000), wk =   0.0011898
        k(  355) = (  -0.1387540   0.4386723   0.0000000), wk =   0.0011898
        k(  356) = (  -0.1387540   0.4400138   0.0000000), wk =   0.0011898
        k(  357) = (  -0.1387540   0.4413553   0.0000000), wk =   0.0011898
        k(  358) = (  -0.1387540   0.4426968   0.0000000), wk =   0.0011898
        k(  359) = (  -0.1387540   0.4440383   0.0000000), wk =   0.0011898
        k(  360) = (  -0.1387540   0.4453798   0.0000000), wk =   0.0011898
        k(  361) = (  -0.1387540   0.4467213   0.0000000), wk =   0.0011898
        k(  362) = (  -0.1387540   0.4480628   0.0000000), wk =   0.0011898
        k(  363) = (  -0.1387540   0.4494043   0.0000000), wk =   0.0011898
        k(  364) = (  -0.1387540   0.4507458   0.0000000), wk =   0.0011898
        k(  365) = (  -0.1387540   0.4520874   0.0000000), wk =   0.0011898
        k(  366) = (  -0.1387540   0.4534289   0.0000000), wk =   0.0011898
        k(  367) = (  -0.1387540   0.4547704   0.0000000), wk =   0.0011898
        k(  368) = (  -0.1387540   0.4561119   0.0000000), wk =   0.0011898
        k(  369) = (  -0.1387540   0.4574534   0.0000000), wk =   0.0011898
        k(  370) = (  -0.1367540   0.4047933   0.0000000), wk =   0.0011898
        k(  371) = (  -0.1367540   0.4061348   0.0000000), wk =   0.0011898
        k(  372) = (  -0.1367540   0.4074763   0.0000000), wk =   0.0011898
        k(  373) = (  -0.1367540   0.4088178   0.0000000), wk =   0.0011898
        k(  374) = (  -0.1367540   0.4101593   0.0000000), wk =   0.0011898
        k(  375) = (  -0.1367540   0.4115008   0.0000000), wk =   0.0011898
        k(  376) = (  -0.1367540   0.4128423   0.0000000), wk =   0.0011898
        k(  377) = (  -0.1367540   0.4141838   0.0000000), wk =   0.0011898
        k(  378) = (  -0.1367540   0.4155253   0.0000000), wk =   0.0011898
        k(  379) = (  -0.1367540   0.4168668   0.0000000), wk =   0.0011898
        k(  380) = (  -0.1367540   0.4182083   0.0000000), wk =   0.0011898
        k(  381) = (  -0.1367540   0.4195498   0.0000000), wk =   0.0011898
        k(  382) = (  -0.1367540   0.4208913   0.0000000), wk =   0.0011898
        k(  383) = (  -0.1367540   0.4222328   0.0000000), wk =   0.0011898
        k(  384) = (  -0.1367540   0.4235743   0.0000000), wk =   0.0011898
        k(  385) = (  -0.1367540   0.4249158   0.0000000), wk =   0.0011898
        k(  386) = (  -0.1367540   0.4262573   0.0000000), wk =   0.0011898
        k(  387) = (  -0.1367540   0.4275988   0.0000000), wk =   0.0011898
        k(  388) = (  -0.1367540   0.4289403   0.0000000), wk =   0.0011898
        k(  389) = (  -0.1367540   0.4302818   0.0000000), wk =   0.0011898
        k(  390) = (  -0.1367540   0.4316233   0.0000000), wk =   0.0011898
        k(  391) = (  -0.1367540   0.4329648   0.0000000), wk =   0.0011898
        k(  392) = (  -0.1367540   0.4343063   0.0000000), wk =   0.0011898
        k(  393) = (  -0.1367540   0.4356478   0.0000000), wk =   0.0011898
        k(  394) = (  -0.1367540   0.4369893   0.0000000), wk =   0.0011898
        k(  395) = (  -0.1367540   0.4383308   0.0000000), wk =   0.0011898
        k(  396) = (  -0.1367540   0.4396723   0.0000000), wk =   0.0011898
        k(  397) = (  -0.1367540   0.4410138   0.0000000), wk =   0.0011898
        k(  398) = (  -0.1367540   0.4423553   0.0000000), wk =   0.0011898
        k(  399) = (  -0.1367540   0.4436968   0.0000000), wk =   0.0011898
        k(  400) = (  -0.1367540   0.4450383   0.0000000), wk =   0.0011898
        k(  401) = (  -0.1367540   0.4463798   0.0000000), wk =   0.0011898
        k(  402) = (  -0.1367540   0.4477213   0.0000000), wk =   0.0011898
        k(  403) = (  -0.1367540   0.4490628   0.0000000), wk =   0.0011898
        k(  404) = (  -0.1367540   0.4504043   0.0000000), wk =   0.0011898
        k(  405) = (  -0.1367540   0.4517458   0.0000000), wk =   0.0011898
        k(  406) = (  -0.1367540   0.4530874   0.0000000), wk =   0.0011898
        k(  407) = (  -0.1367540   0.4544289   0.0000000), wk =   0.0011898
        k(  408) = (  -0.1367540   0.4557704   0.0000000), wk =   0.0011898
        k(  409) = (  -0.1367540   0.4571119   0.0000000), wk =   0.0011898
        k(  410) = (  -0.1367540   0.4584534   0.0000000), wk =   0.0011898
        k(  411) = (  -0.1347540   0.4057933   0.0000000), wk =   0.0011898
        k(  412) = (  -0.1347540   0.4071348   0.0000000), wk =   0.0011898
        k(  413) = (  -0.1347540   0.4084763   0.0000000), wk =   0.0011898
        k(  414) = (  -0.1347540   0.4098178   0.0000000), wk =   0.0011898
        k(  415) = (  -0.1347540   0.4111593   0.0000000), wk =   0.0011898
        k(  416) = (  -0.1347540   0.4125008   0.0000000), wk =   0.0011898
        k(  417) = (  -0.1347540   0.4138423   0.0000000), wk =   0.0011898
        k(  418) = (  -0.1347540   0.4151838   0.0000000), wk =   0.0011898
        k(  419) = (  -0.1347540   0.4165253   0.0000000), wk =   0.0011898
        k(  420) = (  -0.1347540   0.4178668   0.0000000), wk =   0.0011898
        k(  421) = (  -0.1347540   0.4192083   0.0000000), wk =   0.0011898
        k(  422) = (  -0.1347540   0.4205498   0.0000000), wk =   0.0011898
        k(  423) = (  -0.1347540   0.4218913   0.0000000), wk =   0.0011898
        k(  424) = (  -0.1347540   0.4232328   0.0000000), wk =   0.0011898
        k(  425) = (  -0.1347540   0.4245743   0.0000000), wk =   0.0011898
        k(  426) = (  -0.1347540   0.4259158   0.0000000), wk =   0.0011898
        k(  427) = (  -0.1347540   0.4272573   0.0000000), wk =   0.0011898
        k(  428) = (  -0.1347540   0.4285988   0.0000000), wk =   0.0011898
        k(  429) = (  -0.1347540   0.4299403   0.0000000), wk =   0.0011898
        k(  430) = (  -0.1347540   0.4312818   0.0000000), wk =   0.0011898
        k(  431) = (  -0.1347540   0.4326233   0.0000000), wk =   0.0011898
        k(  432) = (  -0.1347540   0.4339648   0.0000000), wk =   0.0011898
        k(  433) = (  -0.1347540   0.4353063   0.0000000), wk =   0.0011898
        k(  434) = (  -0.1347540   0.4366478   0.0000000), wk =   0.0011898
        k(  435) = (  -0.1347540   0.4379893   0.0000000), wk =   0.0011898
        k(  436) = (  -0.1347540   0.4393308   0.0000000), wk =   0.0011898
        k(  437) = (  -0.1347540   0.4406723   0.0000000), wk =   0.0011898
        k(  438) = (  -0.1347540   0.4420138   0.0000000), wk =   0.0011898
        k(  439) = (  -0.1347540   0.4433553   0.0000000), wk =   0.0011898
        k(  440) = (  -0.1347540   0.4446968   0.0000000), wk =   0.0011898
        k(  441) = (  -0.1347540   0.4460383   0.0000000), wk =   0.0011898
        k(  442) = (  -0.1347540   0.4473798   0.0000000), wk =   0.0011898
        k(  443) = (  -0.1347540   0.4487213   0.0000000), wk =   0.0011898
        k(  444) = (  -0.1347540   0.4500628   0.0000000), wk =   0.0011898
        k(  445) = (  -0.1347540   0.4514043   0.0000000), wk =   0.0011898
        k(  446) = (  -0.1347540   0.4527458   0.0000000), wk =   0.0011898
        k(  447) = (  -0.1347540   0.4540874   0.0000000), wk =   0.0011898
        k(  448) = (  -0.1347540   0.4554289   0.0000000), wk =   0.0011898
        k(  449) = (  -0.1347540   0.4567704   0.0000000), wk =   0.0011898
        k(  450) = (  -0.1347540   0.4581119   0.0000000), wk =   0.0011898
        k(  451) = (  -0.1347540   0.4594534   0.0000000), wk =   0.0011898
        k(  452) = (  -0.1327540   0.4067933   0.0000000), wk =   0.0011898
        k(  453) = (  -0.1327540   0.4081348   0.0000000), wk =   0.0011898
        k(  454) = (  -0.1327540   0.4094763   0.0000000), wk =   0.0011898
        k(  455) = (  -0.1327540   0.4108178   0.0000000), wk =   0.0011898
        k(  456) = (  -0.1327540   0.4121593   0.0000000), wk =   0.0011898
        k(  457) = (  -0.1327540   0.4135008   0.0000000), wk =   0.0011898
        k(  458) = (  -0.1327540   0.4148423   0.0000000), wk =   0.0011898
        k(  459) = (  -0.1327540   0.4161838   0.0000000), wk =   0.0011898
        k(  460) = (  -0.1327540   0.4175253   0.0000000), wk =   0.0011898
        k(  461) = (  -0.1327540   0.4188668   0.0000000), wk =   0.0011898
        k(  462) = (  -0.1327540   0.4202083   0.0000000), wk =   0.0011898
        k(  463) = (  -0.1327540   0.4215498   0.0000000), wk =   0.0011898
        k(  464) = (  -0.1327540   0.4228913   0.0000000), wk =   0.0011898
        k(  465) = (  -0.1327540   0.4242328   0.0000000), wk =   0.0011898
        k(  466) = (  -0.1327540   0.4255743   0.0000000), wk =   0.0011898
        k(  467) = (  -0.1327540   0.4269158   0.0000000), wk =   0.0011898
        k(  468) = (  -0.1327540   0.4282573   0.0000000), wk =   0.0011898
        k(  469) = (  -0.1327540   0.4295988   0.0000000), wk =   0.0011898
        k(  470) = (  -0.1327540   0.4309403   0.0000000), wk =   0.0011898
        k(  471) = (  -0.1327540   0.4322818   0.0000000), wk =   0.0011898
        k(  472) = (  -0.1327540   0.4336233   0.0000000), wk =   0.0011898
        k(  473) = (  -0.1327540   0.4349648   0.0000000), wk =   0.0011898
        k(  474) = (  -0.1327540   0.4363063   0.0000000), wk =   0.0011898
        k(  475) = (  -0.1327540   0.4376478   0.0000000), wk =   0.0011898
        k(  476) = (  -0.1327540   0.4389893   0.0000000), wk =   0.0011898
        k(  477) = (  -0.1327540   0.4403308   0.0000000), wk =   0.0011898
        k(  478) = (  -0.1327540   0.4416723   0.0000000), wk =   0.0011898
        k(  479) = (  -0.1327540   0.4430138   0.0000000), wk =   0.0011898
        k(  480) = (  -0.1327540   0.4443553   0.0000000), wk =   0.0011898
        k(  481) = (  -0.1327540   0.4456968   0.0000000), wk =   0.0011898
        k(  482) = (  -0.1327540   0.4470383   0.0000000), wk =   0.0011898
        k(  483) = (  -0.1327540   0.4483798   0.0000000), wk =   0.0011898
        k(  484) = (  -0.1327540   0.4497213   0.0000000), wk =   0.0011898
        k(  485) = (  -0.1327540   0.4510628   0.0000000), wk =   0.0011898
        k(  486) = (  -0.1327540   0.4524043   0.0000000), wk =   0.0011898
        k(  487) = (  -0.1327540   0.4537458   0.0000000), wk =   0.0011898
        k(  488) = (  -0.1327540   0.4550874   0.0000000), wk =   0.0011898
        k(  489) = (  -0.1327540   0.4564289   0.0000000), wk =   0.0011898
        k(  490) = (  -0.1327540   0.4577704   0.0000000), wk =   0.0011898
        k(  491) = (  -0.1327540   0.4591119   0.0000000), wk =   0.0011898
        k(  492) = (  -0.1327540   0.4604534   0.0000000), wk =   0.0011898
        k(  493) = (  -0.1307540   0.4077933   0.0000000), wk =   0.0011898
        k(  494) = (  -0.1307540   0.4091348   0.0000000), wk =   0.0011898
        k(  495) = (  -0.1307540   0.4104763   0.0000000), wk =   0.0011898
        k(  496) = (  -0.1307540   0.4118178   0.0000000), wk =   0.0011898
        k(  497) = (  -0.1307540   0.4131593   0.0000000), wk =   0.0011898
        k(  498) = (  -0.1307540   0.4145008   0.0000000), wk =   0.0011898
        k(  499) = (  -0.1307540   0.4158423   0.0000000), wk =   0.0011898
        k(  500) = (  -0.1307540   0.4171838   0.0000000), wk =   0.0011898
        k(  501) = (  -0.1307540   0.4185253   0.0000000), wk =   0.0011898
        k(  502) = (  -0.1307540   0.4198668   0.0000000), wk =   0.0011898
        k(  503) = (  -0.1307540   0.4212083   0.0000000), wk =   0.0011898
        k(  504) = (  -0.1307540   0.4225498   0.0000000), wk =   0.0011898
        k(  505) = (  -0.1307540   0.4238913   0.0000000), wk =   0.0011898
        k(  506) = (  -0.1307540   0.4252328   0.0000000), wk =   0.0011898
        k(  507) = (  -0.1307540   0.4265743   0.0000000), wk =   0.0011898
        k(  508) = (  -0.1307540   0.4279158   0.0000000), wk =   0.0011898
        k(  509) = (  -0.1307540   0.4292573   0.0000000), wk =   0.0011898
        k(  510) = (  -0.1307540   0.4305988   0.0000000), wk =   0.0011898
        k(  511) = (  -0.1307540   0.4319403   0.0000000), wk =   0.0011898
        k(  512) = (  -0.1307540   0.4332818   0.0000000), wk =   0.0011898
        k(  513) = (  -0.1307540   0.4346233   0.0000000), wk =   0.0011898
        k(  514) = (  -0.1307540   0.4359648   0.0000000), wk =   0.0011898
        k(  515) = (  -0.1307540   0.4373063   0.0000000), wk =   0.0011898
        k(  516) = (  -0.1307540   0.4386478   0.0000000), wk =   0.0011898
        k(  517) = (  -0.1307540   0.4399893   0.0000000), wk =   0.0011898
        k(  518) = (  -0.1307540   0.4413308   0.0000000), wk =   0.0011898
        k(  519) = (  -0.1307540   0.4426723   0.0000000), wk =   0.0011898
        k(  520) = (  -0.1307540   0.4440138   0.0000000), wk =   0.0011898
        k(  521) = (  -0.1307540   0.4453553   0.0000000), wk =   0.0011898
        k(  522) = (  -0.1307540   0.4466968   0.0000000), wk =   0.0011898
        k(  523) = (  -0.1307540   0.4480383   0.0000000), wk =   0.0011898
        k(  524) = (  -0.1307540   0.4493798   0.0000000), wk =   0.0011898
        k(  525) = (  -0.1307540   0.4507213   0.0000000), wk =   0.0011898
        k(  526) = (  -0.1307540   0.4520628   0.0000000), wk =   0.0011898
        k(  527) = (  -0.1307540   0.4534043   0.0000000), wk =   0.0011898
        k(  528) = (  -0.1307540   0.4547458   0.0000000), wk =   0.0011898
        k(  529) = (  -0.1307540   0.4560874   0.0000000), wk =   0.0011898
        k(  530) = (  -0.1307540   0.4574289   0.0000000), wk =   0.0011898
        k(  531) = (  -0.1307540   0.4587704   0.0000000), wk =   0.0011898
        k(  532) = (  -0.1307540   0.4601119   0.0000000), wk =   0.0011898
        k(  533) = (  -0.1307540   0.4614534   0.0000000), wk =   0.0011898
        k(  534) = (  -0.1287540   0.4087933   0.0000000), wk =   0.0011898
        k(  535) = (  -0.1287540   0.4101348   0.0000000), wk =   0.0011898
        k(  536) = (  -0.1287540   0.4114763   0.0000000), wk =   0.0011898
        k(  537) = (  -0.1287540   0.4128178   0.0000000), wk =   0.0011898
        k(  538) = (  -0.1287540   0.4141593   0.0000000), wk =   0.0011898
        k(  539) = (  -0.1287540   0.4155008   0.0000000), wk =   0.0011898
        k(  540) = (  -0.1287540   0.4168423   0.0000000), wk =   0.0011898
        k(  541) = (  -0.1287540   0.4181838   0.0000000), wk =   0.0011898
        k(  542) = (  -0.1287540   0.4195253   0.0000000), wk =   0.0011898
        k(  543) = (  -0.1287540   0.4208668   0.0000000), wk =   0.0011898
        k(  544) = (  -0.1287540   0.4222083   0.0000000), wk =   0.0011898
        k(  545) = (  -0.1287540   0.4235498   0.0000000), wk =   0.0011898
        k(  546) = (  -0.1287540   0.4248913   0.0000000), wk =   0.0011898
        k(  547) = (  -0.1287540   0.4262328   0.0000000), wk =   0.0011898
        k(  548) = (  -0.1287540   0.4275743   0.0000000), wk =   0.0011898
        k(  549) = (  -0.1287540   0.4289158   0.0000000), wk =   0.0011898
        k(  550) = (  -0.1287540   0.4302573   0.0000000), wk =   0.0011898
        k(  551) = (  -0.1287540   0.4315988   0.0000000), wk =   0.0011898
        k(  552) = (  -0.1287540   0.4329403   0.0000000), wk =   0.0011898
        k(  553) = (  -0.1287540   0.4342818   0.0000000), wk =   0.0011898
        k(  554) = (  -0.1287540   0.4356233   0.0000000), wk =   0.0011898
        k(  555) = (  -0.1287540   0.4369648   0.0000000), wk =   0.0011898
        k(  556) = (  -0.1287540   0.4383063   0.0000000), wk =   0.0011898
        k(  557) = (  -0.1287540   0.4396478   0.0000000), wk =   0.0011898
        k(  558) = (  -0.1287540   0.4409893   0.0000000), wk =   0.0011898
        k(  559) = (  -0.1287540   0.4423308   0.0000000), wk =   0.0011898
        k(  560) = (  -0.1287540   0.4436723   0.0000000), wk =   0.0011898
        k(  561) = (  -0.1287540   0.4450138   0.0000000), wk =   0.0011898
        k(  562) = (  -0.1287540   0.4463553   0.0000000), wk =   0.0011898
        k(  563) = (  -0.1287540   0.4476968   0.0000000), wk =   0.0011898
        k(  564) = (  -0.1287540   0.4490383   0.0000000), wk =   0.0011898
        k(  565) = (  -0.1287540   0.4503798   0.0000000), wk =   0.0011898
        k(  566) = (  -0.1287540   0.4517213   0.0000000), wk =   0.0011898
        k(  567) = (  -0.1287540   0.4530628   0.0000000), wk =   0.0011898
        k(  568) = (  -0.1287540   0.4544043   0.0000000), wk =   0.0011898
        k(  569) = (  -0.1287540   0.4557459   0.0000000), wk =   0.0011898
        k(  570) = (  -0.1287540   0.4570874   0.0000000), wk =   0.0011898
        k(  571) = (  -0.1287540   0.4584289   0.0000000), wk =   0.0011898
        k(  572) = (  -0.1287540   0.4597704   0.0000000), wk =   0.0011898
        k(  573) = (  -0.1287540   0.4611119   0.0000000), wk =   0.0011898
        k(  574) = (  -0.1287540   0.4624534   0.0000000), wk =   0.0011898
        k(  575) = (  -0.1267540   0.4097933   0.0000000), wk =   0.0011898
        k(  576) = (  -0.1267540   0.4111348   0.0000000), wk =   0.0011898
        k(  577) = (  -0.1267540   0.4124763   0.0000000), wk =   0.0011898
        k(  578) = (  -0.1267540   0.4138178   0.0000000), wk =   0.0011898
        k(  579) = (  -0.1267540   0.4151593   0.0000000), wk =   0.0011898
        k(  580) = (  -0.1267540   0.4165008   0.0000000), wk =   0.0011898
        k(  581) = (  -0.1267540   0.4178423   0.0000000), wk =   0.0011898
        k(  582) = (  -0.1267540   0.4191838   0.0000000), wk =   0.0011898
        k(  583) = (  -0.1267540   0.4205253   0.0000000), wk =   0.0011898
        k(  584) = (  -0.1267540   0.4218668   0.0000000), wk =   0.0011898
        k(  585) = (  -0.1267540   0.4232083   0.0000000), wk =   0.0011898
        k(  586) = (  -0.1267540   0.4245498   0.0000000), wk =   0.0011898
        k(  587) = (  -0.1267540   0.4258913   0.0000000), wk =   0.0011898
        k(  588) = (  -0.1267540   0.4272328   0.0000000), wk =   0.0011898
        k(  589) = (  -0.1267540   0.4285743   0.0000000), wk =   0.0011898
        k(  590) = (  -0.1267540   0.4299158   0.0000000), wk =   0.0011898
        k(  591) = (  -0.1267540   0.4312573   0.0000000), wk =   0.0011898
        k(  592) = (  -0.1267540   0.4325988   0.0000000), wk =   0.0011898
        k(  593) = (  -0.1267540   0.4339403   0.0000000), wk =   0.0011898
        k(  594) = (  -0.1267540   0.4352818   0.0000000), wk =   0.0011898
        k(  595) = (  -0.1267540   0.4366233   0.0000000), wk =   0.0011898
        k(  596) = (  -0.1267540   0.4379648   0.0000000), wk =   0.0011898
        k(  597) = (  -0.1267540   0.4393063   0.0000000), wk =   0.0011898
        k(  598) = (  -0.1267540   0.4406478   0.0000000), wk =   0.0011898
        k(  599) = (  -0.1267540   0.4419893   0.0000000), wk =   0.0011898
        k(  600) = (  -0.1267540   0.4433308   0.0000000), wk =   0.0011898
        k(  601) = (  -0.1267540   0.4446723   0.0000000), wk =   0.0011898
        k(  602) = (  -0.1267540   0.4460138   0.0000000), wk =   0.0011898
        k(  603) = (  -0.1267540   0.4473553   0.0000000), wk =   0.0011898
        k(  604) = (  -0.1267540   0.4486968   0.0000000), wk =   0.0011898
        k(  605) = (  -0.1267540   0.4500383   0.0000000), wk =   0.0011898
        k(  606) = (  -0.1267540   0.4513798   0.0000000), wk =   0.0011898
        k(  607) = (  -0.1267540   0.4527213   0.0000000), wk =   0.0011898
        k(  608) = (  -0.1267540   0.4540628   0.0000000), wk =   0.0011898
        k(  609) = (  -0.1267540   0.4554043   0.0000000), wk =   0.0011898
        k(  610) = (  -0.1267540   0.4567459   0.0000000), wk =   0.0011898
        k(  611) = (  -0.1267540   0.4580874   0.0000000), wk =   0.0011898
        k(  612) = (  -0.1267540   0.4594289   0.0000000), wk =   0.0011898
        k(  613) = (  -0.1267540   0.4607704   0.0000000), wk =   0.0011898
        k(  614) = (  -0.1267540   0.4621119   0.0000000), wk =   0.0011898
        k(  615) = (  -0.1267540   0.4634534   0.0000000), wk =   0.0011898
        k(  616) = (  -0.1247540   0.4107933   0.0000000), wk =   0.0011898
        k(  617) = (  -0.1247540   0.4121348   0.0000000), wk =   0.0011898
        k(  618) = (  -0.1247540   0.4134763   0.0000000), wk =   0.0011898
        k(  619) = (  -0.1247540   0.4148178   0.0000000), wk =   0.0011898
        k(  620) = (  -0.1247540   0.4161593   0.0000000), wk =   0.0011898
        k(  621) = (  -0.1247540   0.4175008   0.0000000), wk =   0.0011898
        k(  622) = (  -0.1247540   0.4188423   0.0000000), wk =   0.0011898
        k(  623) = (  -0.1247540   0.4201838   0.0000000), wk =   0.0011898
        k(  624) = (  -0.1247540   0.4215253   0.0000000), wk =   0.0011898
        k(  625) = (  -0.1247540   0.4228668   0.0000000), wk =   0.0011898
        k(  626) = (  -0.1247540   0.4242083   0.0000000), wk =   0.0011898
        k(  627) = (  -0.1247540   0.4255498   0.0000000), wk =   0.0011898
        k(  628) = (  -0.1247540   0.4268913   0.0000000), wk =   0.0011898
        k(  629) = (  -0.1247540   0.4282328   0.0000000), wk =   0.0011898
        k(  630) = (  -0.1247540   0.4295743   0.0000000), wk =   0.0011898
        k(  631) = (  -0.1247540   0.4309158   0.0000000), wk =   0.0011898
        k(  632) = (  -0.1247540   0.4322573   0.0000000), wk =   0.0011898
        k(  633) = (  -0.1247540   0.4335988   0.0000000), wk =   0.0011898
        k(  634) = (  -0.1247540   0.4349403   0.0000000), wk =   0.0011898
        k(  635) = (  -0.1247540   0.4362818   0.0000000), wk =   0.0011898
        k(  636) = (  -0.1247540   0.4376233   0.0000000), wk =   0.0011898
        k(  637) = (  -0.1247540   0.4389648   0.0000000), wk =   0.0011898
        k(  638) = (  -0.1247540   0.4403063   0.0000000), wk =   0.0011898
        k(  639) = (  -0.1247540   0.4416478   0.0000000), wk =   0.0011898
        k(  640) = (  -0.1247540   0.4429893   0.0000000), wk =   0.0011898
        k(  641) = (  -0.1247540   0.4443308   0.0000000), wk =   0.0011898
        k(  642) = (  -0.1247540   0.4456723   0.0000000), wk =   0.0011898
        k(  643) = (  -0.1247540   0.4470138   0.0000000), wk =   0.0011898
        k(  644) = (  -0.1247540   0.4483553   0.0000000), wk =   0.0011898
        k(  645) = (  -0.1247540   0.4496968   0.0000000), wk =   0.0011898
        k(  646) = (  -0.1247540   0.4510383   0.0000000), wk =   0.0011898
        k(  647) = (  -0.1247540   0.4523798   0.0000000), wk =   0.0011898
        k(  648) = (  -0.1247540   0.4537213   0.0000000), wk =   0.0011898
        k(  649) = (  -0.1247540   0.4550628   0.0000000), wk =   0.0011898
        k(  650) = (  -0.1247540   0.4564043   0.0000000), wk =   0.0011898
        k(  651) = (  -0.1247540   0.4577459   0.0000000), wk =   0.0011898
        k(  652) = (  -0.1247540   0.4590874   0.0000000), wk =   0.0011898
        k(  653) = (  -0.1247540   0.4604289   0.0000000), wk =   0.0011898
        k(  654) = (  -0.1247540   0.4617704   0.0000000), wk =   0.0011898
        k(  655) = (  -0.1247540   0.4631119   0.0000000), wk =   0.0011898
        k(  656) = (  -0.1247540   0.4644534   0.0000000), wk =   0.0011898
        k(  657) = (  -0.1227540   0.4117933   0.0000000), wk =   0.0011898
        k(  658) = (  -0.1227540   0.4131348   0.0000000), wk =   0.0011898
        k(  659) = (  -0.1227540   0.4144763   0.0000000), wk =   0.0011898
        k(  660) = (  -0.1227540   0.4158178   0.0000000), wk =   0.0011898
        k(  661) = (  -0.1227540   0.4171593   0.0000000), wk =   0.0011898
        k(  662) = (  -0.1227540   0.4185008   0.0000000), wk =   0.0011898
        k(  663) = (  -0.1227540   0.4198423   0.0000000), wk =   0.0011898
        k(  664) = (  -0.1227540   0.4211838   0.0000000), wk =   0.0011898
        k(  665) = (  -0.1227540   0.4225253   0.0000000), wk =   0.0011898
        k(  666) = (  -0.1227540   0.4238668   0.0000000), wk =   0.0011898
        k(  667) = (  -0.1227540   0.4252083   0.0000000), wk =   0.0011898
        k(  668) = (  -0.1227540   0.4265498   0.0000000), wk =   0.0011898
        k(  669) = (  -0.1227540   0.4278913   0.0000000), wk =   0.0011898
        k(  670) = (  -0.1227540   0.4292328   0.0000000), wk =   0.0011898
        k(  671) = (  -0.1227540   0.4305743   0.0000000), wk =   0.0011898
        k(  672) = (  -0.1227540   0.4319158   0.0000000), wk =   0.0011898
        k(  673) = (  -0.1227540   0.4332573   0.0000000), wk =   0.0011898
        k(  674) = (  -0.1227540   0.4345988   0.0000000), wk =   0.0011898
        k(  675) = (  -0.1227540   0.4359403   0.0000000), wk =   0.0011898
        k(  676) = (  -0.1227540   0.4372818   0.0000000), wk =   0.0011898
        k(  677) = (  -0.1227540   0.4386233   0.0000000), wk =   0.0011898
        k(  678) = (  -0.1227540   0.4399648   0.0000000), wk =   0.0011898
        k(  679) = (  -0.1227540   0.4413063   0.0000000), wk =   0.0011898
        k(  680) = (  -0.1227540   0.4426478   0.0000000), wk =   0.0011898
        k(  681) = (  -0.1227540   0.4439893   0.0000000), wk =   0.0011898
        k(  682) = (  -0.1227540   0.4453308   0.0000000), wk =   0.0011898
        k(  683) = (  -0.1227540   0.4466723   0.0000000), wk =   0.0011898
        k(  684) = (  -0.1227540   0.4480138   0.0000000), wk =   0.0011898
        k(  685) = (  -0.1227540   0.4493553   0.0000000), wk =   0.0011898
        k(  686) = (  -0.1227540   0.4506968   0.0000000), wk =   0.0011898
        k(  687) = (  -0.1227540   0.4520383   0.0000000), wk =   0.0011898
        k(  688) = (  -0.1227540   0.4533798   0.0000000), wk =   0.0011898
        k(  689) = (  -0.1227540   0.4547213   0.0000000), wk =   0.0011898
        k(  690) = (  -0.1227540   0.4560628   0.0000000), wk =   0.0011898
        k(  691) = (  -0.1227540   0.4574043   0.0000000), wk =   0.0011898
        k(  692) = (  -0.1227540   0.4587459   0.0000000), wk =   0.0011898
        k(  693) = (  -0.1227540   0.4600874   0.0000000), wk =   0.0011898
        k(  694) = (  -0.1227540   0.4614289   0.0000000), wk =   0.0011898
        k(  695) = (  -0.1227540   0.4627704   0.0000000), wk =   0.0011898
        k(  696) = (  -0.1227540   0.4641119   0.0000000), wk =   0.0011898
        k(  697) = (  -0.1227540   0.4654534   0.0000000), wk =   0.0011898
        k(  698) = (  -0.1207540   0.4127933   0.0000000), wk =   0.0011898
        k(  699) = (  -0.1207540   0.4141348   0.0000000), wk =   0.0011898
        k(  700) = (  -0.1207540   0.4154763   0.0000000), wk =   0.0011898
        k(  701) = (  -0.1207540   0.4168178   0.0000000), wk =   0.0011898
        k(  702) = (  -0.1207540   0.4181593   0.0000000), wk =   0.0011898
        k(  703) = (  -0.1207540   0.4195008   0.0000000), wk =   0.0011898
        k(  704) = (  -0.1207540   0.4208423   0.0000000), wk =   0.0011898
        k(  705) = (  -0.1207540   0.4221838   0.0000000), wk =   0.0011898
        k(  706) = (  -0.1207540   0.4235253   0.0000000), wk =   0.0011898
        k(  707) = (  -0.1207540   0.4248668   0.0000000), wk =   0.0011898
        k(  708) = (  -0.1207540   0.4262083   0.0000000), wk =   0.0011898
        k(  709) = (  -0.1207540   0.4275498   0.0000000), wk =   0.0011898
        k(  710) = (  -0.1207540   0.4288913   0.0000000), wk =   0.0011898
        k(  711) = (  -0.1207540   0.4302328   0.0000000), wk =   0.0011898
        k(  712) = (  -0.1207540   0.4315743   0.0000000), wk =   0.0011898
        k(  713) = (  -0.1207540   0.4329158   0.0000000), wk =   0.0011898
        k(  714) = (  -0.1207540   0.4342573   0.0000000), wk =   0.0011898
        k(  715) = (  -0.1207540   0.4355988   0.0000000), wk =   0.0011898
        k(  716) = (  -0.1207540   0.4369403   0.0000000), wk =   0.0011898
        k(  717) = (  -0.1207540   0.4382818   0.0000000), wk =   0.0011898
        k(  718) = (  -0.1207540   0.4396233   0.0000000), wk =   0.0011898
        k(  719) = (  -0.1207540   0.4409648   0.0000000), wk =   0.0011898
        k(  720) = (  -0.1207540   0.4423063   0.0000000), wk =   0.0011898
        k(  721) = (  -0.1207540   0.4436478   0.0000000), wk =   0.0011898
        k(  722) = (  -0.1207540   0.4449893   0.0000000), wk =   0.0011898
        k(  723) = (  -0.1207540   0.4463308   0.0000000), wk =   0.0011898
        k(  724) = (  -0.1207540   0.4476723   0.0000000), wk =   0.0011898
        k(  725) = (  -0.1207540   0.4490138   0.0000000), wk =   0.0011898
        k(  726) = (  -0.1207540   0.4503553   0.0000000), wk =   0.0011898
        k(  727) = (  -0.1207540   0.4516968   0.0000000), wk =   0.0011898
        k(  728) = (  -0.1207540   0.4530383   0.0000000), wk =   0.0011898
        k(  729) = (  -0.1207540   0.4543798   0.0000000), wk =   0.0011898
        k(  730) = (  -0.1207540   0.4557213   0.0000000), wk =   0.0011898
        k(  731) = (  -0.1207540   0.4570628   0.0000000), wk =   0.0011898
        k(  732) = (  -0.1207540   0.4584043   0.0000000), wk =   0.0011898
        k(  733) = (  -0.1207540   0.4597459   0.0000000), wk =   0.0011898
        k(  734) = (  -0.1207540   0.4610874   0.0000000), wk =   0.0011898
        k(  735) = (  -0.1207540   0.4624289   0.0000000), wk =   0.0011898
        k(  736) = (  -0.1207540   0.4637704   0.0000000), wk =   0.0011898
        k(  737) = (  -0.1207540   0.4651119   0.0000000), wk =   0.0011898
        k(  738) = (  -0.1207540   0.4664534   0.0000000), wk =   0.0011898
        k(  739) = (  -0.1187540   0.4137933   0.0000000), wk =   0.0011898
        k(  740) = (  -0.1187540   0.4151348   0.0000000), wk =   0.0011898
        k(  741) = (  -0.1187540   0.4164763   0.0000000), wk =   0.0011898
        k(  742) = (  -0.1187540   0.4178178   0.0000000), wk =   0.0011898
        k(  743) = (  -0.1187540   0.4191593   0.0000000), wk =   0.0011898
        k(  744) = (  -0.1187540   0.4205008   0.0000000), wk =   0.0011898
        k(  745) = (  -0.1187540   0.4218423   0.0000000), wk =   0.0011898
        k(  746) = (  -0.1187540   0.4231838   0.0000000), wk =   0.0011898
        k(  747) = (  -0.1187540   0.4245253   0.0000000), wk =   0.0011898
        k(  748) = (  -0.1187540   0.4258668   0.0000000), wk =   0.0011898
        k(  749) = (  -0.1187540   0.4272083   0.0000000), wk =   0.0011898
        k(  750) = (  -0.1187540   0.4285498   0.0000000), wk =   0.0011898
        k(  751) = (  -0.1187540   0.4298913   0.0000000), wk =   0.0011898
        k(  752) = (  -0.1187540   0.4312328   0.0000000), wk =   0.0011898
        k(  753) = (  -0.1187540   0.4325743   0.0000000), wk =   0.0011898
        k(  754) = (  -0.1187540   0.4339158   0.0000000), wk =   0.0011898
        k(  755) = (  -0.1187540   0.4352573   0.0000000), wk =   0.0011898
        k(  756) = (  -0.1187540   0.4365988   0.0000000), wk =   0.0011898
        k(  757) = (  -0.1187540   0.4379403   0.0000000), wk =   0.0011898
        k(  758) = (  -0.1187540   0.4392818   0.0000000), wk =   0.0011898
        k(  759) = (  -0.1187540   0.4406233   0.0000000), wk =   0.0011898
        k(  760) = (  -0.1187540   0.4419648   0.0000000), wk =   0.0011898
        k(  761) = (  -0.1187540   0.4433063   0.0000000), wk =   0.0011898
        k(  762) = (  -0.1187540   0.4446478   0.0000000), wk =   0.0011898
        k(  763) = (  -0.1187540   0.4459893   0.0000000), wk =   0.0011898
        k(  764) = (  -0.1187540   0.4473308   0.0000000), wk =   0.0011898
        k(  765) = (  -0.1187540   0.4486723   0.0000000), wk =   0.0011898
        k(  766) = (  -0.1187540   0.4500138   0.0000000), wk =   0.0011898
        k(  767) = (  -0.1187540   0.4513553   0.0000000), wk =   0.0011898
        k(  768) = (  -0.1187540   0.4526968   0.0000000), wk =   0.0011898
        k(  769) = (  -0.1187540   0.4540383   0.0000000), wk =   0.0011898
        k(  770) = (  -0.1187540   0.4553798   0.0000000), wk =   0.0011898
        k(  771) = (  -0.1187540   0.4567213   0.0000000), wk =   0.0011898
        k(  772) = (  -0.1187540   0.4580628   0.0000000), wk =   0.0011898
        k(  773) = (  -0.1187540   0.4594043   0.0000000), wk =   0.0011898
        k(  774) = (  -0.1187540   0.4607459   0.0000000), wk =   0.0011898
        k(  775) = (  -0.1187540   0.4620874   0.0000000), wk =   0.0011898
        k(  776) = (  -0.1187540   0.4634289   0.0000000), wk =   0.0011898
        k(  777) = (  -0.1187540   0.4647704   0.0000000), wk =   0.0011898
        k(  778) = (  -0.1187540   0.4661119   0.0000000), wk =   0.0011898
        k(  779) = (  -0.1187540   0.4674534   0.0000000), wk =   0.0011898
        k(  780) = (  -0.1167540   0.4147933   0.0000000), wk =   0.0011898
        k(  781) = (  -0.1167540   0.4161348   0.0000000), wk =   0.0011898
        k(  782) = (  -0.1167540   0.4174763   0.0000000), wk =   0.0011898
        k(  783) = (  -0.1167540   0.4188178   0.0000000), wk =   0.0011898
        k(  784) = (  -0.1167540   0.4201593   0.0000000), wk =   0.0011898
        k(  785) = (  -0.1167540   0.4215008   0.0000000), wk =   0.0011898
        k(  786) = (  -0.1167540   0.4228423   0.0000000), wk =   0.0011898
        k(  787) = (  -0.1167540   0.4241838   0.0000000), wk =   0.0011898
        k(  788) = (  -0.1167540   0.4255253   0.0000000), wk =   0.0011898
        k(  789) = (  -0.1167540   0.4268668   0.0000000), wk =   0.0011898
        k(  790) = (  -0.1167540   0.4282083   0.0000000), wk =   0.0011898
        k(  791) = (  -0.1167540   0.4295498   0.0000000), wk =   0.0011898
        k(  792) = (  -0.1167540   0.4308913   0.0000000), wk =   0.0011898
        k(  793) = (  -0.1167540   0.4322328   0.0000000), wk =   0.0011898
        k(  794) = (  -0.1167540   0.4335743   0.0000000), wk =   0.0011898
        k(  795) = (  -0.1167540   0.4349158   0.0000000), wk =   0.0011898
        k(  796) = (  -0.1167540   0.4362573   0.0000000), wk =   0.0011898
        k(  797) = (  -0.1167540   0.4375988   0.0000000), wk =   0.0011898
        k(  798) = (  -0.1167540   0.4389403   0.0000000), wk =   0.0011898
        k(  799) = (  -0.1167540   0.4402818   0.0000000), wk =   0.0011898
        k(  800) = (  -0.1167540   0.4416233   0.0000000), wk =   0.0011898
        k(  801) = (  -0.1167540   0.4429648   0.0000000), wk =   0.0011898
        k(  802) = (  -0.1167540   0.4443063   0.0000000), wk =   0.0011898
        k(  803) = (  -0.1167540   0.4456478   0.0000000), wk =   0.0011898
        k(  804) = (  -0.1167540   0.4469893   0.0000000), wk =   0.0011898
        k(  805) = (  -0.1167540   0.4483308   0.0000000), wk =   0.0011898
        k(  806) = (  -0.1167540   0.4496723   0.0000000), wk =   0.0011898
        k(  807) = (  -0.1167540   0.4510138   0.0000000), wk =   0.0011898
        k(  808) = (  -0.1167540   0.4523553   0.0000000), wk =   0.0011898
        k(  809) = (  -0.1167540   0.4536968   0.0000000), wk =   0.0011898
        k(  810) = (  -0.1167540   0.4550383   0.0000000), wk =   0.0011898
        k(  811) = (  -0.1167540   0.4563798   0.0000000), wk =   0.0011898
        k(  812) = (  -0.1167540   0.4577213   0.0000000), wk =   0.0011898
        k(  813) = (  -0.1167540   0.4590628   0.0000000), wk =   0.0011898
        k(  814) = (  -0.1167540   0.4604043   0.0000000), wk =   0.0011898
        k(  815) = (  -0.1167540   0.4617459   0.0000000), wk =   0.0011898
        k(  816) = (  -0.1167540   0.4630874   0.0000000), wk =   0.0011898
        k(  817) = (  -0.1167540   0.4644289   0.0000000), wk =   0.0011898
        k(  818) = (  -0.1167540   0.4657704   0.0000000), wk =   0.0011898
        k(  819) = (  -0.1167540   0.4671119   0.0000000), wk =   0.0011898
        k(  820) = (  -0.1167540   0.4684534   0.0000000), wk =   0.0011898
        k(  821) = (  -0.1147540   0.4157933   0.0000000), wk =   0.0011898
        k(  822) = (  -0.1147540   0.4171348   0.0000000), wk =   0.0011898
        k(  823) = (  -0.1147540   0.4184763   0.0000000), wk =   0.0011898
        k(  824) = (  -0.1147540   0.4198178   0.0000000), wk =   0.0011898
        k(  825) = (  -0.1147540   0.4211593   0.0000000), wk =   0.0011898
        k(  826) = (  -0.1147540   0.4225008   0.0000000), wk =   0.0011898
        k(  827) = (  -0.1147540   0.4238423   0.0000000), wk =   0.0011898
        k(  828) = (  -0.1147540   0.4251838   0.0000000), wk =   0.0011898
        k(  829) = (  -0.1147540   0.4265253   0.0000000), wk =   0.0011898
        k(  830) = (  -0.1147540   0.4278668   0.0000000), wk =   0.0011898
        k(  831) = (  -0.1147540   0.4292083   0.0000000), wk =   0.0011898
        k(  832) = (  -0.1147540   0.4305498   0.0000000), wk =   0.0011898
        k(  833) = (  -0.1147540   0.4318913   0.0000000), wk =   0.0011898
        k(  834) = (  -0.1147540   0.4332328   0.0000000), wk =   0.0011898
        k(  835) = (  -0.1147540   0.4345743   0.0000000), wk =   0.0011898
        k(  836) = (  -0.1147540   0.4359158   0.0000000), wk =   0.0011898
        k(  837) = (  -0.1147540   0.4372573   0.0000000), wk =   0.0011898
        k(  838) = (  -0.1147540   0.4385988   0.0000000), wk =   0.0011898
        k(  839) = (  -0.1147540   0.4399403   0.0000000), wk =   0.0011898
        k(  840) = (  -0.1147540   0.4412818   0.0000000), wk =   0.0011898
        k(  841) = (  -0.1147540   0.4426233   0.0000000), wk =   0.0011898
        k(  842) = (  -0.1147540   0.4439648   0.0000000), wk =   0.0011898
        k(  843) = (  -0.1147540   0.4453063   0.0000000), wk =   0.0011898
        k(  844) = (  -0.1147540   0.4466478   0.0000000), wk =   0.0011898
        k(  845) = (  -0.1147540   0.4479893   0.0000000), wk =   0.0011898
        k(  846) = (  -0.1147540   0.4493308   0.0000000), wk =   0.0011898
        k(  847) = (  -0.1147540   0.4506723   0.0000000), wk =   0.0011898
        k(  848) = (  -0.1147540   0.4520138   0.0000000), wk =   0.0011898
        k(  849) = (  -0.1147540   0.4533553   0.0000000), wk =   0.0011898
        k(  850) = (  -0.1147540   0.4546968   0.0000000), wk =   0.0011898
        k(  851) = (  -0.1147540   0.4560383   0.0000000), wk =   0.0011898
        k(  852) = (  -0.1147540   0.4573798   0.0000000), wk =   0.0011898
        k(  853) = (  -0.1147540   0.4587213   0.0000000), wk =   0.0011898
        k(  854) = (  -0.1147540   0.4600628   0.0000000), wk =   0.0011898
        k(  855) = (  -0.1147540   0.4614043   0.0000000), wk =   0.0011898
        k(  856) = (  -0.1147540   0.4627459   0.0000000), wk =   0.0011898
        k(  857) = (  -0.1147540   0.4640874   0.0000000), wk =   0.0011898
        k(  858) = (  -0.1147540   0.4654289   0.0000000), wk =   0.0011898
        k(  859) = (  -0.1147540   0.4667704   0.0000000), wk =   0.0011898
        k(  860) = (  -0.1147540   0.4681119   0.0000000), wk =   0.0011898
        k(  861) = (  -0.1147540   0.4694534   0.0000000), wk =   0.0011898
        k(  862) = (  -0.1127540   0.4167933   0.0000000), wk =   0.0011898
        k(  863) = (  -0.1127540   0.4181348   0.0000000), wk =   0.0011898
        k(  864) = (  -0.1127540   0.4194763   0.0000000), wk =   0.0011898
        k(  865) = (  -0.1127540   0.4208178   0.0000000), wk =   0.0011898
        k(  866) = (  -0.1127540   0.4221593   0.0000000), wk =   0.0011898
        k(  867) = (  -0.1127540   0.4235008   0.0000000), wk =   0.0011898
        k(  868) = (  -0.1127540   0.4248423   0.0000000), wk =   0.0011898
        k(  869) = (  -0.1127540   0.4261838   0.0000000), wk =   0.0011898
        k(  870) = (  -0.1127540   0.4275253   0.0000000), wk =   0.0011898
        k(  871) = (  -0.1127540   0.4288668   0.0000000), wk =   0.0011898
        k(  872) = (  -0.1127540   0.4302083   0.0000000), wk =   0.0011898
        k(  873) = (  -0.1127540   0.4315498   0.0000000), wk =   0.0011898
        k(  874) = (  -0.1127540   0.4328913   0.0000000), wk =   0.0011898
        k(  875) = (  -0.1127540   0.4342328   0.0000000), wk =   0.0011898
        k(  876) = (  -0.1127540   0.4355743   0.0000000), wk =   0.0011898
        k(  877) = (  -0.1127540   0.4369158   0.0000000), wk =   0.0011898
        k(  878) = (  -0.1127540   0.4382573   0.0000000), wk =   0.0011898
        k(  879) = (  -0.1127540   0.4395988   0.0000000), wk =   0.0011898
        k(  880) = (  -0.1127540   0.4409403   0.0000000), wk =   0.0011898
        k(  881) = (  -0.1127540   0.4422818   0.0000000), wk =   0.0011898
        k(  882) = (  -0.1127540   0.4436233   0.0000000), wk =   0.0011898
        k(  883) = (  -0.1127540   0.4449648   0.0000000), wk =   0.0011898
        k(  884) = (  -0.1127540   0.4463063   0.0000000), wk =   0.0011898
        k(  885) = (  -0.1127540   0.4476478   0.0000000), wk =   0.0011898
        k(  886) = (  -0.1127540   0.4489893   0.0000000), wk =   0.0011898
        k(  887) = (  -0.1127540   0.4503308   0.0000000), wk =   0.0011898
        k(  888) = (  -0.1127540   0.4516723   0.0000000), wk =   0.0011898
        k(  889) = (  -0.1127540   0.4530138   0.0000000), wk =   0.0011898
        k(  890) = (  -0.1127540   0.4543553   0.0000000), wk =   0.0011898
        k(  891) = (  -0.1127540   0.4556968   0.0000000), wk =   0.0011898
        k(  892) = (  -0.1127540   0.4570383   0.0000000), wk =   0.0011898
        k(  893) = (  -0.1127540   0.4583798   0.0000000), wk =   0.0011898
        k(  894) = (  -0.1127540   0.4597213   0.0000000), wk =   0.0011898
        k(  895) = (  -0.1127540   0.4610628   0.0000000), wk =   0.0011898
        k(  896) = (  -0.1127540   0.4624044   0.0000000), wk =   0.0011898
        k(  897) = (  -0.1127540   0.4637459   0.0000000), wk =   0.0011898
        k(  898) = (  -0.1127540   0.4650874   0.0000000), wk =   0.0011898
        k(  899) = (  -0.1127540   0.4664289   0.0000000), wk =   0.0011898
        k(  900) = (  -0.1127540   0.4677704   0.0000000), wk =   0.0011898
        k(  901) = (  -0.1127540   0.4691119   0.0000000), wk =   0.0011898
        k(  902) = (  -0.1127540   0.4704534   0.0000000), wk =   0.0011898
        k(  903) = (  -0.1107540   0.4177933   0.0000000), wk =   0.0011898
        k(  904) = (  -0.1107540   0.4191348   0.0000000), wk =   0.0011898
        k(  905) = (  -0.1107540   0.4204763   0.0000000), wk =   0.0011898
        k(  906) = (  -0.1107540   0.4218178   0.0000000), wk =   0.0011898
        k(  907) = (  -0.1107540   0.4231593   0.0000000), wk =   0.0011898
        k(  908) = (  -0.1107540   0.4245008   0.0000000), wk =   0.0011898
        k(  909) = (  -0.1107540   0.4258423   0.0000000), wk =   0.0011898
        k(  910) = (  -0.1107540   0.4271838   0.0000000), wk =   0.0011898
        k(  911) = (  -0.1107540   0.4285253   0.0000000), wk =   0.0011898
        k(  912) = (  -0.1107540   0.4298668   0.0000000), wk =   0.0011898
        k(  913) = (  -0.1107540   0.4312083   0.0000000), wk =   0.0011898
        k(  914) = (  -0.1107540   0.4325498   0.0000000), wk =   0.0011898
        k(  915) = (  -0.1107540   0.4338913   0.0000000), wk =   0.0011898
        k(  916) = (  -0.1107540   0.4352328   0.0000000), wk =   0.0011898
        k(  917) = (  -0.1107540   0.4365743   0.0000000), wk =   0.0011898
        k(  918) = (  -0.1107540   0.4379158   0.0000000), wk =   0.0011898
        k(  919) = (  -0.1107540   0.4392573   0.0000000), wk =   0.0011898
        k(  920) = (  -0.1107540   0.4405988   0.0000000), wk =   0.0011898
        k(  921) = (  -0.1107540   0.4419403   0.0000000), wk =   0.0011898
        k(  922) = (  -0.1107540   0.4432818   0.0000000), wk =   0.0011898
        k(  923) = (  -0.1107540   0.4446233   0.0000000), wk =   0.0011898
        k(  924) = (  -0.1107540   0.4459648   0.0000000), wk =   0.0011898
        k(  925) = (  -0.1107540   0.4473063   0.0000000), wk =   0.0011898
        k(  926) = (  -0.1107540   0.4486478   0.0000000), wk =   0.0011898
        k(  927) = (  -0.1107540   0.4499893   0.0000000), wk =   0.0011898
        k(  928) = (  -0.1107540   0.4513308   0.0000000), wk =   0.0011898
        k(  929) = (  -0.1107540   0.4526723   0.0000000), wk =   0.0011898
        k(  930) = (  -0.1107540   0.4540138   0.0000000), wk =   0.0011898
        k(  931) = (  -0.1107540   0.4553553   0.0000000), wk =   0.0011898
        k(  932) = (  -0.1107540   0.4566968   0.0000000), wk =   0.0011898
        k(  933) = (  -0.1107540   0.4580383   0.0000000), wk =   0.0011898
        k(  934) = (  -0.1107540   0.4593798   0.0000000), wk =   0.0011898
        k(  935) = (  -0.1107540   0.4607213   0.0000000), wk =   0.0011898
        k(  936) = (  -0.1107540   0.4620628   0.0000000), wk =   0.0011898
        k(  937) = (  -0.1107540   0.4634044   0.0000000), wk =   0.0011898
        k(  938) = (  -0.1107540   0.4647459   0.0000000), wk =   0.0011898
        k(  939) = (  -0.1107540   0.4660874   0.0000000), wk =   0.0011898
        k(  940) = (  -0.1107540   0.4674289   0.0000000), wk =   0.0011898
        k(  941) = (  -0.1107540   0.4687704   0.0000000), wk =   0.0011898
        k(  942) = (  -0.1107540   0.4701119   0.0000000), wk =   0.0011898
        k(  943) = (  -0.1107540   0.4714534   0.0000000), wk =   0.0011898
        k(  944) = (  -0.1087540   0.4187933   0.0000000), wk =   0.0011898
        k(  945) = (  -0.1087540   0.4201348   0.0000000), wk =   0.0011898
        k(  946) = (  -0.1087540   0.4214763   0.0000000), wk =   0.0011898
        k(  947) = (  -0.1087540   0.4228178   0.0000000), wk =   0.0011898
        k(  948) = (  -0.1087540   0.4241593   0.0000000), wk =   0.0011898
        k(  949) = (  -0.1087540   0.4255008   0.0000000), wk =   0.0011898
        k(  950) = (  -0.1087540   0.4268423   0.0000000), wk =   0.0011898
        k(  951) = (  -0.1087540   0.4281838   0.0000000), wk =   0.0011898
        k(  952) = (  -0.1087540   0.4295253   0.0000000), wk =   0.0011898
        k(  953) = (  -0.1087540   0.4308668   0.0000000), wk =   0.0011898
        k(  954) = (  -0.1087540   0.4322083   0.0000000), wk =   0.0011898
        k(  955) = (  -0.1087540   0.4335498   0.0000000), wk =   0.0011898
        k(  956) = (  -0.1087540   0.4348913   0.0000000), wk =   0.0011898
        k(  957) = (  -0.1087540   0.4362328   0.0000000), wk =   0.0011898
        k(  958) = (  -0.1087540   0.4375743   0.0000000), wk =   0.0011898
        k(  959) = (  -0.1087540   0.4389158   0.0000000), wk =   0.0011898
        k(  960) = (  -0.1087540   0.4402573   0.0000000), wk =   0.0011898
        k(  961) = (  -0.1087540   0.4415988   0.0000000), wk =   0.0011898
        k(  962) = (  -0.1087540   0.4429403   0.0000000), wk =   0.0011898
        k(  963) = (  -0.1087540   0.4442818   0.0000000), wk =   0.0011898
        k(  964) = (  -0.1087540   0.4456233   0.0000000), wk =   0.0011898
        k(  965) = (  -0.1087540   0.4469648   0.0000000), wk =   0.0011898
        k(  966) = (  -0.1087540   0.4483063   0.0000000), wk =   0.0011898
        k(  967) = (  -0.1087540   0.4496478   0.0000000), wk =   0.0011898
        k(  968) = (  -0.1087540   0.4509893   0.0000000), wk =   0.0011898
        k(  969) = (  -0.1087540   0.4523308   0.0000000), wk =   0.0011898
        k(  970) = (  -0.1087540   0.4536723   0.0000000), wk =   0.0011898
        k(  971) = (  -0.1087540   0.4550138   0.0000000), wk =   0.0011898
        k(  972) = (  -0.1087540   0.4563553   0.0000000), wk =   0.0011898
        k(  973) = (  -0.1087540   0.4576968   0.0000000), wk =   0.0011898
        k(  974) = (  -0.1087540   0.4590383   0.0000000), wk =   0.0011898
        k(  975) = (  -0.1087540   0.4603798   0.0000000), wk =   0.0011898
        k(  976) = (  -0.1087540   0.4617213   0.0000000), wk =   0.0011898
        k(  977) = (  -0.1087540   0.4630628   0.0000000), wk =   0.0011898
        k(  978) = (  -0.1087540   0.4644044   0.0000000), wk =   0.0011898
        k(  979) = (  -0.1087540   0.4657459   0.0000000), wk =   0.0011898
        k(  980) = (  -0.1087540   0.4670874   0.0000000), wk =   0.0011898
        k(  981) = (  -0.1087540   0.4684289   0.0000000), wk =   0.0011898
        k(  982) = (  -0.1087540   0.4697704   0.0000000), wk =   0.0011898
        k(  983) = (  -0.1087540   0.4711119   0.0000000), wk =   0.0011898
        k(  984) = (  -0.1087540   0.4724534   0.0000000), wk =   0.0011898
        k(  985) = (  -0.1067540   0.4197933   0.0000000), wk =   0.0011898
        k(  986) = (  -0.1067540   0.4211348   0.0000000), wk =   0.0011898
        k(  987) = (  -0.1067540   0.4224763   0.0000000), wk =   0.0011898
        k(  988) = (  -0.1067540   0.4238178   0.0000000), wk =   0.0011898
        k(  989) = (  -0.1067540   0.4251593   0.0000000), wk =   0.0011898
        k(  990) = (  -0.1067540   0.4265008   0.0000000), wk =   0.0011898
        k(  991) = (  -0.1067540   0.4278423   0.0000000), wk =   0.0011898
        k(  992) = (  -0.1067540   0.4291838   0.0000000), wk =   0.0011898
        k(  993) = (  -0.1067540   0.4305253   0.0000000), wk =   0.0011898
        k(  994) = (  -0.1067540   0.4318668   0.0000000), wk =   0.0011898
        k(  995) = (  -0.1067540   0.4332083   0.0000000), wk =   0.0011898
        k(  996) = (  -0.1067540   0.4345498   0.0000000), wk =   0.0011898
        k(  997) = (  -0.1067540   0.4358913   0.0000000), wk =   0.0011898
        k(  998) = (  -0.1067540   0.4372328   0.0000000), wk =   0.0011898
        k(  999) = (  -0.1067540   0.4385743   0.0000000), wk =   0.0011898
        k( 1000) = (  -0.1067540   0.4399158   0.0000000), wk =   0.0011898
        k( 1001) = (  -0.1067540   0.4412573   0.0000000), wk =   0.0011898
        k( 1002) = (  -0.1067540   0.4425988   0.0000000), wk =   0.0011898
        k( 1003) = (  -0.1067540   0.4439403   0.0000000), wk =   0.0011898
        k( 1004) = (  -0.1067540   0.4452818   0.0000000), wk =   0.0011898
        k( 1005) = (  -0.1067540   0.4466233   0.0000000), wk =   0.0011898
        k( 1006) = (  -0.1067540   0.4479648   0.0000000), wk =   0.0011898
        k( 1007) = (  -0.1067540   0.4493063   0.0000000), wk =   0.0011898
        k( 1008) = (  -0.1067540   0.4506478   0.0000000), wk =   0.0011898
        k( 1009) = (  -0.1067540   0.4519893   0.0000000), wk =   0.0011898
        k( 1010) = (  -0.1067540   0.4533308   0.0000000), wk =   0.0011898
        k( 1011) = (  -0.1067540   0.4546723   0.0000000), wk =   0.0011898
        k( 1012) = (  -0.1067540   0.4560138   0.0000000), wk =   0.0011898
        k( 1013) = (  -0.1067540   0.4573553   0.0000000), wk =   0.0011898
        k( 1014) = (  -0.1067540   0.4586968   0.0000000), wk =   0.0011898
        k( 1015) = (  -0.1067540   0.4600383   0.0000000), wk =   0.0011898
        k( 1016) = (  -0.1067540   0.4613798   0.0000000), wk =   0.0011898
        k( 1017) = (  -0.1067540   0.4627213   0.0000000), wk =   0.0011898
        k( 1018) = (  -0.1067540   0.4640628   0.0000000), wk =   0.0011898
        k( 1019) = (  -0.1067540   0.4654044   0.0000000), wk =   0.0011898
        k( 1020) = (  -0.1067540   0.4667459   0.0000000), wk =   0.0011898
        k( 1021) = (  -0.1067540   0.4680874   0.0000000), wk =   0.0011898
        k( 1022) = (  -0.1067540   0.4694289   0.0000000), wk =   0.0011898
        k( 1023) = (  -0.1067540   0.4707704   0.0000000), wk =   0.0011898
        k( 1024) = (  -0.1067540   0.4721119   0.0000000), wk =   0.0011898
        k( 1025) = (  -0.1067540   0.4734534   0.0000000), wk =   0.0011898
        k( 1026) = (  -0.1047540   0.4207933   0.0000000), wk =   0.0011898
        k( 1027) = (  -0.1047540   0.4221348   0.0000000), wk =   0.0011898
        k( 1028) = (  -0.1047540   0.4234763   0.0000000), wk =   0.0011898
        k( 1029) = (  -0.1047540   0.4248178   0.0000000), wk =   0.0011898
        k( 1030) = (  -0.1047540   0.4261593   0.0000000), wk =   0.0011898
        k( 1031) = (  -0.1047540   0.4275008   0.0000000), wk =   0.0011898
        k( 1032) = (  -0.1047540   0.4288423   0.0000000), wk =   0.0011898
        k( 1033) = (  -0.1047540   0.4301838   0.0000000), wk =   0.0011898
        k( 1034) = (  -0.1047540   0.4315253   0.0000000), wk =   0.0011898
        k( 1035) = (  -0.1047540   0.4328668   0.0000000), wk =   0.0011898
        k( 1036) = (  -0.1047540   0.4342083   0.0000000), wk =   0.0011898
        k( 1037) = (  -0.1047540   0.4355498   0.0000000), wk =   0.0011898
        k( 1038) = (  -0.1047540   0.4368913   0.0000000), wk =   0.0011898
        k( 1039) = (  -0.1047540   0.4382328   0.0000000), wk =   0.0011898
        k( 1040) = (  -0.1047540   0.4395743   0.0000000), wk =   0.0011898
        k( 1041) = (  -0.1047540   0.4409158   0.0000000), wk =   0.0011898
        k( 1042) = (  -0.1047540   0.4422573   0.0000000), wk =   0.0011898
        k( 1043) = (  -0.1047540   0.4435988   0.0000000), wk =   0.0011898
        k( 1044) = (  -0.1047540   0.4449403   0.0000000), wk =   0.0011898
        k( 1045) = (  -0.1047540   0.4462818   0.0000000), wk =   0.0011898
        k( 1046) = (  -0.1047540   0.4476233   0.0000000), wk =   0.0011898
        k( 1047) = (  -0.1047540   0.4489648   0.0000000), wk =   0.0011898
        k( 1048) = (  -0.1047540   0.4503063   0.0000000), wk =   0.0011898
        k( 1049) = (  -0.1047540   0.4516478   0.0000000), wk =   0.0011898
        k( 1050) = (  -0.1047540   0.4529893   0.0000000), wk =   0.0011898
        k( 1051) = (  -0.1047540   0.4543308   0.0000000), wk =   0.0011898
        k( 1052) = (  -0.1047540   0.4556723   0.0000000), wk =   0.0011898
        k( 1053) = (  -0.1047540   0.4570138   0.0000000), wk =   0.0011898
        k( 1054) = (  -0.1047540   0.4583553   0.0000000), wk =   0.0011898
        k( 1055) = (  -0.1047540   0.4596968   0.0000000), wk =   0.0011898
        k( 1056) = (  -0.1047540   0.4610383   0.0000000), wk =   0.0011898
        k( 1057) = (  -0.1047540   0.4623798   0.0000000), wk =   0.0011898
        k( 1058) = (  -0.1047540   0.4637213   0.0000000), wk =   0.0011898
        k( 1059) = (  -0.1047540   0.4650628   0.0000000), wk =   0.0011898
        k( 1060) = (  -0.1047540   0.4664044   0.0000000), wk =   0.0011898
        k( 1061) = (  -0.1047540   0.4677459   0.0000000), wk =   0.0011898
        k( 1062) = (  -0.1047540   0.4690874   0.0000000), wk =   0.0011898
        k( 1063) = (  -0.1047540   0.4704289   0.0000000), wk =   0.0011898
        k( 1064) = (  -0.1047540   0.4717704   0.0000000), wk =   0.0011898
        k( 1065) = (  -0.1047540   0.4731119   0.0000000), wk =   0.0011898
        k( 1066) = (  -0.1047540   0.4744534   0.0000000), wk =   0.0011898
        k( 1067) = (  -0.1027540   0.4217933   0.0000000), wk =   0.0011898
        k( 1068) = (  -0.1027540   0.4231348   0.0000000), wk =   0.0011898
        k( 1069) = (  -0.1027540   0.4244763   0.0000000), wk =   0.0011898
        k( 1070) = (  -0.1027540   0.4258178   0.0000000), wk =   0.0011898
        k( 1071) = (  -0.1027540   0.4271593   0.0000000), wk =   0.0011898
        k( 1072) = (  -0.1027540   0.4285008   0.0000000), wk =   0.0011898
        k( 1073) = (  -0.1027540   0.4298423   0.0000000), wk =   0.0011898
        k( 1074) = (  -0.1027540   0.4311838   0.0000000), wk =   0.0011898
        k( 1075) = (  -0.1027540   0.4325253   0.0000000), wk =   0.0011898
        k( 1076) = (  -0.1027540   0.4338668   0.0000000), wk =   0.0011898
        k( 1077) = (  -0.1027540   0.4352083   0.0000000), wk =   0.0011898
        k( 1078) = (  -0.1027540   0.4365498   0.0000000), wk =   0.0011898
        k( 1079) = (  -0.1027540   0.4378913   0.0000000), wk =   0.0011898
        k( 1080) = (  -0.1027540   0.4392328   0.0000000), wk =   0.0011898
        k( 1081) = (  -0.1027540   0.4405743   0.0000000), wk =   0.0011898
        k( 1082) = (  -0.1027540   0.4419158   0.0000000), wk =   0.0011898
        k( 1083) = (  -0.1027540   0.4432573   0.0000000), wk =   0.0011898
        k( 1084) = (  -0.1027540   0.4445988   0.0000000), wk =   0.0011898
        k( 1085) = (  -0.1027540   0.4459403   0.0000000), wk =   0.0011898
        k( 1086) = (  -0.1027540   0.4472818   0.0000000), wk =   0.0011898
        k( 1087) = (  -0.1027540   0.4486233   0.0000000), wk =   0.0011898
        k( 1088) = (  -0.1027540   0.4499648   0.0000000), wk =   0.0011898
        k( 1089) = (  -0.1027540   0.4513063   0.0000000), wk =   0.0011898
        k( 1090) = (  -0.1027540   0.4526478   0.0000000), wk =   0.0011898
        k( 1091) = (  -0.1027540   0.4539893   0.0000000), wk =   0.0011898
        k( 1092) = (  -0.1027540   0.4553308   0.0000000), wk =   0.0011898
        k( 1093) = (  -0.1027540   0.4566723   0.0000000), wk =   0.0011898
        k( 1094) = (  -0.1027540   0.4580138   0.0000000), wk =   0.0011898
        k( 1095) = (  -0.1027540   0.4593553   0.0000000), wk =   0.0011898
        k( 1096) = (  -0.1027540   0.4606968   0.0000000), wk =   0.0011898
        k( 1097) = (  -0.1027540   0.4620383   0.0000000), wk =   0.0011898
        k( 1098) = (  -0.1027540   0.4633798   0.0000000), wk =   0.0011898
        k( 1099) = (  -0.1027540   0.4647213   0.0000000), wk =   0.0011898
        k( 1100) = (  -0.1027540   0.4660628   0.0000000), wk =   0.0011898
        k( 1101) = (  -0.1027540   0.4674044   0.0000000), wk =   0.0011898
        k( 1102) = (  -0.1027540   0.4687459   0.0000000), wk =   0.0011898
        k( 1103) = (  -0.1027540   0.4700874   0.0000000), wk =   0.0011898
        k( 1104) = (  -0.1027540   0.4714289   0.0000000), wk =   0.0011898
        k( 1105) = (  -0.1027540   0.4727704   0.0000000), wk =   0.0011898
        k( 1106) = (  -0.1027540   0.4741119   0.0000000), wk =   0.0011898
        k( 1107) = (  -0.1027540   0.4754534   0.0000000), wk =   0.0011898
        k( 1108) = (  -0.1007540   0.4227933   0.0000000), wk =   0.0011898
        k( 1109) = (  -0.1007540   0.4241348   0.0000000), wk =   0.0011898
        k( 1110) = (  -0.1007540   0.4254763   0.0000000), wk =   0.0011898
        k( 1111) = (  -0.1007540   0.4268178   0.0000000), wk =   0.0011898
        k( 1112) = (  -0.1007540   0.4281593   0.0000000), wk =   0.0011898
        k( 1113) = (  -0.1007540   0.4295008   0.0000000), wk =   0.0011898
        k( 1114) = (  -0.1007540   0.4308423   0.0000000), wk =   0.0011898
        k( 1115) = (  -0.1007540   0.4321838   0.0000000), wk =   0.0011898
        k( 1116) = (  -0.1007540   0.4335253   0.0000000), wk =   0.0011898
        k( 1117) = (  -0.1007540   0.4348668   0.0000000), wk =   0.0011898
        k( 1118) = (  -0.1007540   0.4362083   0.0000000), wk =   0.0011898
        k( 1119) = (  -0.1007540   0.4375498   0.0000000), wk =   0.0011898
        k( 1120) = (  -0.1007540   0.4388913   0.0000000), wk =   0.0011898
        k( 1121) = (  -0.1007540   0.4402328   0.0000000), wk =   0.0011898
        k( 1122) = (  -0.1007540   0.4415743   0.0000000), wk =   0.0011898
        k( 1123) = (  -0.1007540   0.4429158   0.0000000), wk =   0.0011898
        k( 1124) = (  -0.1007540   0.4442573   0.0000000), wk =   0.0011898
        k( 1125) = (  -0.1007540   0.4455988   0.0000000), wk =   0.0011898
        k( 1126) = (  -0.1007540   0.4469403   0.0000000), wk =   0.0011898
        k( 1127) = (  -0.1007540   0.4482818   0.0000000), wk =   0.0011898
        k( 1128) = (  -0.1007540   0.4496233   0.0000000), wk =   0.0011898
        k( 1129) = (  -0.1007540   0.4509648   0.0000000), wk =   0.0011898
        k( 1130) = (  -0.1007540   0.4523063   0.0000000), wk =   0.0011898
        k( 1131) = (  -0.1007540   0.4536478   0.0000000), wk =   0.0011898
        k( 1132) = (  -0.1007540   0.4549893   0.0000000), wk =   0.0011898
        k( 1133) = (  -0.1007540   0.4563308   0.0000000), wk =   0.0011898
        k( 1134) = (  -0.1007540   0.4576723   0.0000000), wk =   0.0011898
        k( 1135) = (  -0.1007540   0.4590138   0.0000000), wk =   0.0011898
        k( 1136) = (  -0.1007540   0.4603553   0.0000000), wk =   0.0011898
        k( 1137) = (  -0.1007540   0.4616968   0.0000000), wk =   0.0011898
        k( 1138) = (  -0.1007540   0.4630383   0.0000000), wk =   0.0011898
        k( 1139) = (  -0.1007540   0.4643798   0.0000000), wk =   0.0011898
        k( 1140) = (  -0.1007540   0.4657213   0.0000000), wk =   0.0011898
        k( 1141) = (  -0.1007540   0.4670628   0.0000000), wk =   0.0011898
        k( 1142) = (  -0.1007540   0.4684044   0.0000000), wk =   0.0011898
        k( 1143) = (  -0.1007540   0.4697459   0.0000000), wk =   0.0011898
        k( 1144) = (  -0.1007540   0.4710874   0.0000000), wk =   0.0011898
        k( 1145) = (  -0.1007540   0.4724289   0.0000000), wk =   0.0011898
        k( 1146) = (  -0.1007540   0.4737704   0.0000000), wk =   0.0011898
        k( 1147) = (  -0.1007540   0.4751119   0.0000000), wk =   0.0011898
        k( 1148) = (  -0.1007540   0.4764534   0.0000000), wk =   0.0011898
        k( 1149) = (  -0.0987540   0.4237933   0.0000000), wk =   0.0011898
        k( 1150) = (  -0.0987540   0.4251348   0.0000000), wk =   0.0011898
        k( 1151) = (  -0.0987540   0.4264763   0.0000000), wk =   0.0011898
        k( 1152) = (  -0.0987540   0.4278178   0.0000000), wk =   0.0011898
        k( 1153) = (  -0.0987540   0.4291593   0.0000000), wk =   0.0011898
        k( 1154) = (  -0.0987540   0.4305008   0.0000000), wk =   0.0011898
        k( 1155) = (  -0.0987540   0.4318423   0.0000000), wk =   0.0011898
        k( 1156) = (  -0.0987540   0.4331838   0.0000000), wk =   0.0011898
        k( 1157) = (  -0.0987540   0.4345253   0.0000000), wk =   0.0011898
        k( 1158) = (  -0.0987540   0.4358668   0.0000000), wk =   0.0011898
        k( 1159) = (  -0.0987540   0.4372083   0.0000000), wk =   0.0011898
        k( 1160) = (  -0.0987540   0.4385498   0.0000000), wk =   0.0011898
        k( 1161) = (  -0.0987540   0.4398913   0.0000000), wk =   0.0011898
        k( 1162) = (  -0.0987540   0.4412328   0.0000000), wk =   0.0011898
        k( 1163) = (  -0.0987540   0.4425743   0.0000000), wk =   0.0011898
        k( 1164) = (  -0.0987540   0.4439158   0.0000000), wk =   0.0011898
        k( 1165) = (  -0.0987540   0.4452573   0.0000000), wk =   0.0011898
        k( 1166) = (  -0.0987540   0.4465988   0.0000000), wk =   0.0011898
        k( 1167) = (  -0.0987540   0.4479403   0.0000000), wk =   0.0011898
        k( 1168) = (  -0.0987540   0.4492818   0.0000000), wk =   0.0011898
        k( 1169) = (  -0.0987540   0.4506233   0.0000000), wk =   0.0011898
        k( 1170) = (  -0.0987540   0.4519648   0.0000000), wk =   0.0011898
        k( 1171) = (  -0.0987540   0.4533063   0.0000000), wk =   0.0011898
        k( 1172) = (  -0.0987540   0.4546478   0.0000000), wk =   0.0011898
        k( 1173) = (  -0.0987540   0.4559893   0.0000000), wk =   0.0011898
        k( 1174) = (  -0.0987540   0.4573308   0.0000000), wk =   0.0011898
        k( 1175) = (  -0.0987540   0.4586723   0.0000000), wk =   0.0011898
        k( 1176) = (  -0.0987540   0.4600138   0.0000000), wk =   0.0011898
        k( 1177) = (  -0.0987540   0.4613553   0.0000000), wk =   0.0011898
        k( 1178) = (  -0.0987540   0.4626968   0.0000000), wk =   0.0011898
        k( 1179) = (  -0.0987540   0.4640383   0.0000000), wk =   0.0011898
        k( 1180) = (  -0.0987540   0.4653798   0.0000000), wk =   0.0011898
        k( 1181) = (  -0.0987540   0.4667213   0.0000000), wk =   0.0011898
        k( 1182) = (  -0.0987540   0.4680629   0.0000000), wk =   0.0011898
        k( 1183) = (  -0.0987540   0.4694044   0.0000000), wk =   0.0011898
        k( 1184) = (  -0.0987540   0.4707459   0.0000000), wk =   0.0011898
        k( 1185) = (  -0.0987540   0.4720874   0.0000000), wk =   0.0011898
        k( 1186) = (  -0.0987540   0.4734289   0.0000000), wk =   0.0011898
        k( 1187) = (  -0.0987540   0.4747704   0.0000000), wk =   0.0011898
        k( 1188) = (  -0.0987540   0.4761119   0.0000000), wk =   0.0011898
        k( 1189) = (  -0.0987540   0.4774534   0.0000000), wk =   0.0011898
        k( 1190) = (  -0.0967540   0.4247933   0.0000000), wk =   0.0011898
        k( 1191) = (  -0.0967540   0.4261348   0.0000000), wk =   0.0011898
        k( 1192) = (  -0.0967540   0.4274763   0.0000000), wk =   0.0011898
        k( 1193) = (  -0.0967540   0.4288178   0.0000000), wk =   0.0011898
        k( 1194) = (  -0.0967540   0.4301593   0.0000000), wk =   0.0011898
        k( 1195) = (  -0.0967540   0.4315008   0.0000000), wk =   0.0011898
        k( 1196) = (  -0.0967540   0.4328423   0.0000000), wk =   0.0011898
        k( 1197) = (  -0.0967540   0.4341838   0.0000000), wk =   0.0011898
        k( 1198) = (  -0.0967540   0.4355253   0.0000000), wk =   0.0011898
        k( 1199) = (  -0.0967540   0.4368668   0.0000000), wk =   0.0011898
        k( 1200) = (  -0.0967540   0.4382083   0.0000000), wk =   0.0011898
        k( 1201) = (  -0.0967540   0.4395498   0.0000000), wk =   0.0011898
        k( 1202) = (  -0.0967540   0.4408913   0.0000000), wk =   0.0011898
        k( 1203) = (  -0.0967540   0.4422328   0.0000000), wk =   0.0011898
        k( 1204) = (  -0.0967540   0.4435743   0.0000000), wk =   0.0011898
        k( 1205) = (  -0.0967540   0.4449158   0.0000000), wk =   0.0011898
        k( 1206) = (  -0.0967540   0.4462573   0.0000000), wk =   0.0011898
        k( 1207) = (  -0.0967540   0.4475988   0.0000000), wk =   0.0011898
        k( 1208) = (  -0.0967540   0.4489403   0.0000000), wk =   0.0011898
        k( 1209) = (  -0.0967540   0.4502818   0.0000000), wk =   0.0011898
        k( 1210) = (  -0.0967540   0.4516233   0.0000000), wk =   0.0011898
        k( 1211) = (  -0.0967540   0.4529648   0.0000000), wk =   0.0011898
        k( 1212) = (  -0.0967540   0.4543063   0.0000000), wk =   0.0011898
        k( 1213) = (  -0.0967540   0.4556478   0.0000000), wk =   0.0011898
        k( 1214) = (  -0.0967540   0.4569893   0.0000000), wk =   0.0011898
        k( 1215) = (  -0.0967540   0.4583308   0.0000000), wk =   0.0011898
        k( 1216) = (  -0.0967540   0.4596723   0.0000000), wk =   0.0011898
        k( 1217) = (  -0.0967540   0.4610138   0.0000000), wk =   0.0011898
        k( 1218) = (  -0.0967540   0.4623553   0.0000000), wk =   0.0011898
        k( 1219) = (  -0.0967540   0.4636968   0.0000000), wk =   0.0011898
        k( 1220) = (  -0.0967540   0.4650383   0.0000000), wk =   0.0011898
        k( 1221) = (  -0.0967540   0.4663798   0.0000000), wk =   0.0011898
        k( 1222) = (  -0.0967540   0.4677213   0.0000000), wk =   0.0011898
        k( 1223) = (  -0.0967540   0.4690629   0.0000000), wk =   0.0011898
        k( 1224) = (  -0.0967540   0.4704044   0.0000000), wk =   0.0011898
        k( 1225) = (  -0.0967540   0.4717459   0.0000000), wk =   0.0011898
        k( 1226) = (  -0.0967540   0.4730874   0.0000000), wk =   0.0011898
        k( 1227) = (  -0.0967540   0.4744289   0.0000000), wk =   0.0011898
        k( 1228) = (  -0.0967540   0.4757704   0.0000000), wk =   0.0011898
        k( 1229) = (  -0.0967540   0.4771119   0.0000000), wk =   0.0011898
        k( 1230) = (  -0.0967540   0.4784534   0.0000000), wk =   0.0011898
        k( 1231) = (  -0.0947540   0.4257933   0.0000000), wk =   0.0011898
        k( 1232) = (  -0.0947540   0.4271348   0.0000000), wk =   0.0011898
        k( 1233) = (  -0.0947540   0.4284763   0.0000000), wk =   0.0011898
        k( 1234) = (  -0.0947540   0.4298178   0.0000000), wk =   0.0011898
        k( 1235) = (  -0.0947540   0.4311593   0.0000000), wk =   0.0011898
        k( 1236) = (  -0.0947540   0.4325008   0.0000000), wk =   0.0011898
        k( 1237) = (  -0.0947540   0.4338423   0.0000000), wk =   0.0011898
        k( 1238) = (  -0.0947540   0.4351838   0.0000000), wk =   0.0011898
        k( 1239) = (  -0.0947540   0.4365253   0.0000000), wk =   0.0011898
        k( 1240) = (  -0.0947540   0.4378668   0.0000000), wk =   0.0011898
        k( 1241) = (  -0.0947540   0.4392083   0.0000000), wk =   0.0011898
        k( 1242) = (  -0.0947540   0.4405498   0.0000000), wk =   0.0011898
        k( 1243) = (  -0.0947540   0.4418913   0.0000000), wk =   0.0011898
        k( 1244) = (  -0.0947540   0.4432328   0.0000000), wk =   0.0011898
        k( 1245) = (  -0.0947540   0.4445743   0.0000000), wk =   0.0011898
        k( 1246) = (  -0.0947540   0.4459158   0.0000000), wk =   0.0011898
        k( 1247) = (  -0.0947540   0.4472573   0.0000000), wk =   0.0011898
        k( 1248) = (  -0.0947540   0.4485988   0.0000000), wk =   0.0011898
        k( 1249) = (  -0.0947540   0.4499403   0.0000000), wk =   0.0011898
        k( 1250) = (  -0.0947540   0.4512818   0.0000000), wk =   0.0011898
        k( 1251) = (  -0.0947540   0.4526233   0.0000000), wk =   0.0011898
        k( 1252) = (  -0.0947540   0.4539648   0.0000000), wk =   0.0011898
        k( 1253) = (  -0.0947540   0.4553063   0.0000000), wk =   0.0011898
        k( 1254) = (  -0.0947540   0.4566478   0.0000000), wk =   0.0011898
        k( 1255) = (  -0.0947540   0.4579893   0.0000000), wk =   0.0011898
        k( 1256) = (  -0.0947540   0.4593308   0.0000000), wk =   0.0011898
        k( 1257) = (  -0.0947540   0.4606723   0.0000000), wk =   0.0011898
        k( 1258) = (  -0.0947540   0.4620138   0.0000000), wk =   0.0011898
        k( 1259) = (  -0.0947540   0.4633553   0.0000000), wk =   0.0011898
        k( 1260) = (  -0.0947540   0.4646968   0.0000000), wk =   0.0011898
        k( 1261) = (  -0.0947540   0.4660383   0.0000000), wk =   0.0011898
        k( 1262) = (  -0.0947540   0.4673798   0.0000000), wk =   0.0011898
        k( 1263) = (  -0.0947540   0.4687213   0.0000000), wk =   0.0011898
        k( 1264) = (  -0.0947540   0.4700629   0.0000000), wk =   0.0011898
        k( 1265) = (  -0.0947540   0.4714044   0.0000000), wk =   0.0011898
        k( 1266) = (  -0.0947540   0.4727459   0.0000000), wk =   0.0011898
        k( 1267) = (  -0.0947540   0.4740874   0.0000000), wk =   0.0011898
        k( 1268) = (  -0.0947540   0.4754289   0.0000000), wk =   0.0011898
        k( 1269) = (  -0.0947540   0.4767704   0.0000000), wk =   0.0011898
        k( 1270) = (  -0.0947540   0.4781119   0.0000000), wk =   0.0011898
        k( 1271) = (  -0.0947540   0.4794534   0.0000000), wk =   0.0011898
        k( 1272) = (  -0.0927540   0.4267933   0.0000000), wk =   0.0011898
        k( 1273) = (  -0.0927540   0.4281348   0.0000000), wk =   0.0011898
        k( 1274) = (  -0.0927540   0.4294763   0.0000000), wk =   0.0011898
        k( 1275) = (  -0.0927540   0.4308178   0.0000000), wk =   0.0011898
        k( 1276) = (  -0.0927540   0.4321593   0.0000000), wk =   0.0011898
        k( 1277) = (  -0.0927540   0.4335008   0.0000000), wk =   0.0011898
        k( 1278) = (  -0.0927540   0.4348423   0.0000000), wk =   0.0011898
        k( 1279) = (  -0.0927540   0.4361838   0.0000000), wk =   0.0011898
        k( 1280) = (  -0.0927540   0.4375253   0.0000000), wk =   0.0011898
        k( 1281) = (  -0.0927540   0.4388668   0.0000000), wk =   0.0011898
        k( 1282) = (  -0.0927540   0.4402083   0.0000000), wk =   0.0011898
        k( 1283) = (  -0.0927540   0.4415498   0.0000000), wk =   0.0011898
        k( 1284) = (  -0.0927540   0.4428913   0.0000000), wk =   0.0011898
        k( 1285) = (  -0.0927540   0.4442328   0.0000000), wk =   0.0011898
        k( 1286) = (  -0.0927540   0.4455743   0.0000000), wk =   0.0011898
        k( 1287) = (  -0.0927540   0.4469158   0.0000000), wk =   0.0011898
        k( 1288) = (  -0.0927540   0.4482573   0.0000000), wk =   0.0011898
        k( 1289) = (  -0.0927540   0.4495988   0.0000000), wk =   0.0011898
        k( 1290) = (  -0.0927540   0.4509403   0.0000000), wk =   0.0011898
        k( 1291) = (  -0.0927540   0.4522818   0.0000000), wk =   0.0011898
        k( 1292) = (  -0.0927540   0.4536233   0.0000000), wk =   0.0011898
        k( 1293) = (  -0.0927540   0.4549648   0.0000000), wk =   0.0011898
        k( 1294) = (  -0.0927540   0.4563063   0.0000000), wk =   0.0011898
        k( 1295) = (  -0.0927540   0.4576478   0.0000000), wk =   0.0011898
        k( 1296) = (  -0.0927540   0.4589893   0.0000000), wk =   0.0011898
        k( 1297) = (  -0.0927540   0.4603308   0.0000000), wk =   0.0011898
        k( 1298) = (  -0.0927540   0.4616723   0.0000000), wk =   0.0011898
        k( 1299) = (  -0.0927540   0.4630138   0.0000000), wk =   0.0011898
        k( 1300) = (  -0.0927540   0.4643553   0.0000000), wk =   0.0011898
        k( 1301) = (  -0.0927540   0.4656968   0.0000000), wk =   0.0011898
        k( 1302) = (  -0.0927540   0.4670383   0.0000000), wk =   0.0011898
        k( 1303) = (  -0.0927540   0.4683798   0.0000000), wk =   0.0011898
        k( 1304) = (  -0.0927540   0.4697213   0.0000000), wk =   0.0011898
        k( 1305) = (  -0.0927540   0.4710629   0.0000000), wk =   0.0011898
        k( 1306) = (  -0.0927540   0.4724044   0.0000000), wk =   0.0011898
        k( 1307) = (  -0.0927540   0.4737459   0.0000000), wk =   0.0011898
        k( 1308) = (  -0.0927540   0.4750874   0.0000000), wk =   0.0011898
        k( 1309) = (  -0.0927540   0.4764289   0.0000000), wk =   0.0011898
        k( 1310) = (  -0.0927540   0.4777704   0.0000000), wk =   0.0011898
        k( 1311) = (  -0.0927540   0.4791119   0.0000000), wk =   0.0011898
        k( 1312) = (  -0.0927540   0.4804534   0.0000000), wk =   0.0011898
        k( 1313) = (  -0.0907540   0.4277933   0.0000000), wk =   0.0011898
        k( 1314) = (  -0.0907540   0.4291348   0.0000000), wk =   0.0011898
        k( 1315) = (  -0.0907540   0.4304763   0.0000000), wk =   0.0011898
        k( 1316) = (  -0.0907540   0.4318178   0.0000000), wk =   0.0011898
        k( 1317) = (  -0.0907540   0.4331593   0.0000000), wk =   0.0011898
        k( 1318) = (  -0.0907540   0.4345008   0.0000000), wk =   0.0011898
        k( 1319) = (  -0.0907540   0.4358423   0.0000000), wk =   0.0011898
        k( 1320) = (  -0.0907540   0.4371838   0.0000000), wk =   0.0011898
        k( 1321) = (  -0.0907540   0.4385253   0.0000000), wk =   0.0011898
        k( 1322) = (  -0.0907540   0.4398668   0.0000000), wk =   0.0011898
        k( 1323) = (  -0.0907540   0.4412083   0.0000000), wk =   0.0011898
        k( 1324) = (  -0.0907540   0.4425498   0.0000000), wk =   0.0011898
        k( 1325) = (  -0.0907540   0.4438913   0.0000000), wk =   0.0011898
        k( 1326) = (  -0.0907540   0.4452328   0.0000000), wk =   0.0011898
        k( 1327) = (  -0.0907540   0.4465743   0.0000000), wk =   0.0011898
        k( 1328) = (  -0.0907540   0.4479158   0.0000000), wk =   0.0011898
        k( 1329) = (  -0.0907540   0.4492573   0.0000000), wk =   0.0011898
        k( 1330) = (  -0.0907540   0.4505988   0.0000000), wk =   0.0011898
        k( 1331) = (  -0.0907540   0.4519403   0.0000000), wk =   0.0011898
        k( 1332) = (  -0.0907540   0.4532818   0.0000000), wk =   0.0011898
        k( 1333) = (  -0.0907540   0.4546233   0.0000000), wk =   0.0011898
        k( 1334) = (  -0.0907540   0.4559648   0.0000000), wk =   0.0011898
        k( 1335) = (  -0.0907540   0.4573063   0.0000000), wk =   0.0011898
        k( 1336) = (  -0.0907540   0.4586478   0.0000000), wk =   0.0011898
        k( 1337) = (  -0.0907540   0.4599893   0.0000000), wk =   0.0011898
        k( 1338) = (  -0.0907540   0.4613308   0.0000000), wk =   0.0011898
        k( 1339) = (  -0.0907540   0.4626723   0.0000000), wk =   0.0011898
        k( 1340) = (  -0.0907540   0.4640138   0.0000000), wk =   0.0011898
        k( 1341) = (  -0.0907540   0.4653553   0.0000000), wk =   0.0011898
        k( 1342) = (  -0.0907540   0.4666968   0.0000000), wk =   0.0011898
        k( 1343) = (  -0.0907540   0.4680383   0.0000000), wk =   0.0011898
        k( 1344) = (  -0.0907540   0.4693798   0.0000000), wk =   0.0011898
        k( 1345) = (  -0.0907540   0.4707213   0.0000000), wk =   0.0011898
        k( 1346) = (  -0.0907540   0.4720629   0.0000000), wk =   0.0011898
        k( 1347) = (  -0.0907540   0.4734044   0.0000000), wk =   0.0011898
        k( 1348) = (  -0.0907540   0.4747459   0.0000000), wk =   0.0011898
        k( 1349) = (  -0.0907540   0.4760874   0.0000000), wk =   0.0011898
        k( 1350) = (  -0.0907540   0.4774289   0.0000000), wk =   0.0011898
        k( 1351) = (  -0.0907540   0.4787704   0.0000000), wk =   0.0011898
        k( 1352) = (  -0.0907540   0.4801119   0.0000000), wk =   0.0011898
        k( 1353) = (  -0.0907540   0.4814534   0.0000000), wk =   0.0011898
        k( 1354) = (  -0.0887540   0.4287933   0.0000000), wk =   0.0011898
        k( 1355) = (  -0.0887540   0.4301348   0.0000000), wk =   0.0011898
        k( 1356) = (  -0.0887540   0.4314763   0.0000000), wk =   0.0011898
        k( 1357) = (  -0.0887540   0.4328178   0.0000000), wk =   0.0011898
        k( 1358) = (  -0.0887540   0.4341593   0.0000000), wk =   0.0011898
        k( 1359) = (  -0.0887540   0.4355008   0.0000000), wk =   0.0011898
        k( 1360) = (  -0.0887540   0.4368423   0.0000000), wk =   0.0011898
        k( 1361) = (  -0.0887540   0.4381838   0.0000000), wk =   0.0011898
        k( 1362) = (  -0.0887540   0.4395253   0.0000000), wk =   0.0011898
        k( 1363) = (  -0.0887540   0.4408668   0.0000000), wk =   0.0011898
        k( 1364) = (  -0.0887540   0.4422083   0.0000000), wk =   0.0011898
        k( 1365) = (  -0.0887540   0.4435498   0.0000000), wk =   0.0011898
        k( 1366) = (  -0.0887540   0.4448913   0.0000000), wk =   0.0011898
        k( 1367) = (  -0.0887540   0.4462328   0.0000000), wk =   0.0011898
        k( 1368) = (  -0.0887540   0.4475743   0.0000000), wk =   0.0011898
        k( 1369) = (  -0.0887540   0.4489158   0.0000000), wk =   0.0011898
        k( 1370) = (  -0.0887540   0.4502573   0.0000000), wk =   0.0011898
        k( 1371) = (  -0.0887540   0.4515988   0.0000000), wk =   0.0011898
        k( 1372) = (  -0.0887540   0.4529403   0.0000000), wk =   0.0011898
        k( 1373) = (  -0.0887540   0.4542818   0.0000000), wk =   0.0011898
        k( 1374) = (  -0.0887540   0.4556233   0.0000000), wk =   0.0011898
        k( 1375) = (  -0.0887540   0.4569648   0.0000000), wk =   0.0011898
        k( 1376) = (  -0.0887540   0.4583063   0.0000000), wk =   0.0011898
        k( 1377) = (  -0.0887540   0.4596478   0.0000000), wk =   0.0011898
        k( 1378) = (  -0.0887540   0.4609893   0.0000000), wk =   0.0011898
        k( 1379) = (  -0.0887540   0.4623308   0.0000000), wk =   0.0011898
        k( 1380) = (  -0.0887540   0.4636723   0.0000000), wk =   0.0011898
        k( 1381) = (  -0.0887540   0.4650138   0.0000000), wk =   0.0011898
        k( 1382) = (  -0.0887540   0.4663553   0.0000000), wk =   0.0011898
        k( 1383) = (  -0.0887540   0.4676968   0.0000000), wk =   0.0011898
        k( 1384) = (  -0.0887540   0.4690383   0.0000000), wk =   0.0011898
        k( 1385) = (  -0.0887540   0.4703798   0.0000000), wk =   0.0011898
        k( 1386) = (  -0.0887540   0.4717213   0.0000000), wk =   0.0011898
        k( 1387) = (  -0.0887540   0.4730629   0.0000000), wk =   0.0011898
        k( 1388) = (  -0.0887540   0.4744044   0.0000000), wk =   0.0011898
        k( 1389) = (  -0.0887540   0.4757459   0.0000000), wk =   0.0011898
        k( 1390) = (  -0.0887540   0.4770874   0.0000000), wk =   0.0011898
        k( 1391) = (  -0.0887540   0.4784289   0.0000000), wk =   0.0011898
        k( 1392) = (  -0.0887540   0.4797704   0.0000000), wk =   0.0011898
        k( 1393) = (  -0.0887540   0.4811119   0.0000000), wk =   0.0011898
        k( 1394) = (  -0.0887540   0.4824534   0.0000000), wk =   0.0011898
        k( 1395) = (  -0.0867540   0.4297933   0.0000000), wk =   0.0011898
        k( 1396) = (  -0.0867540   0.4311348   0.0000000), wk =   0.0011898
        k( 1397) = (  -0.0867540   0.4324763   0.0000000), wk =   0.0011898
        k( 1398) = (  -0.0867540   0.4338178   0.0000000), wk =   0.0011898
        k( 1399) = (  -0.0867540   0.4351593   0.0000000), wk =   0.0011898
        k( 1400) = (  -0.0867540   0.4365008   0.0000000), wk =   0.0011898
        k( 1401) = (  -0.0867540   0.4378423   0.0000000), wk =   0.0011898
        k( 1402) = (  -0.0867540   0.4391838   0.0000000), wk =   0.0011898
        k( 1403) = (  -0.0867540   0.4405253   0.0000000), wk =   0.0011898
        k( 1404) = (  -0.0867540   0.4418668   0.0000000), wk =   0.0011898
        k( 1405) = (  -0.0867540   0.4432083   0.0000000), wk =   0.0011898
        k( 1406) = (  -0.0867540   0.4445498   0.0000000), wk =   0.0011898
        k( 1407) = (  -0.0867540   0.4458913   0.0000000), wk =   0.0011898
        k( 1408) = (  -0.0867540   0.4472328   0.0000000), wk =   0.0011898
        k( 1409) = (  -0.0867540   0.4485743   0.0000000), wk =   0.0011898
        k( 1410) = (  -0.0867540   0.4499158   0.0000000), wk =   0.0011898
        k( 1411) = (  -0.0867540   0.4512573   0.0000000), wk =   0.0011898
        k( 1412) = (  -0.0867540   0.4525988   0.0000000), wk =   0.0011898
        k( 1413) = (  -0.0867540   0.4539403   0.0000000), wk =   0.0011898
        k( 1414) = (  -0.0867540   0.4552818   0.0000000), wk =   0.0011898
        k( 1415) = (  -0.0867540   0.4566233   0.0000000), wk =   0.0011898
        k( 1416) = (  -0.0867540   0.4579648   0.0000000), wk =   0.0011898
        k( 1417) = (  -0.0867540   0.4593063   0.0000000), wk =   0.0011898
        k( 1418) = (  -0.0867540   0.4606478   0.0000000), wk =   0.0011898
        k( 1419) = (  -0.0867540   0.4619893   0.0000000), wk =   0.0011898
        k( 1420) = (  -0.0867540   0.4633308   0.0000000), wk =   0.0011898
        k( 1421) = (  -0.0867540   0.4646723   0.0000000), wk =   0.0011898
        k( 1422) = (  -0.0867540   0.4660138   0.0000000), wk =   0.0011898
        k( 1423) = (  -0.0867540   0.4673553   0.0000000), wk =   0.0011898
        k( 1424) = (  -0.0867540   0.4686968   0.0000000), wk =   0.0011898
        k( 1425) = (  -0.0867540   0.4700383   0.0000000), wk =   0.0011898
        k( 1426) = (  -0.0867540   0.4713798   0.0000000), wk =   0.0011898
        k( 1427) = (  -0.0867540   0.4727213   0.0000000), wk =   0.0011898
        k( 1428) = (  -0.0867540   0.4740629   0.0000000), wk =   0.0011898
        k( 1429) = (  -0.0867540   0.4754044   0.0000000), wk =   0.0011898
        k( 1430) = (  -0.0867540   0.4767459   0.0000000), wk =   0.0011898
        k( 1431) = (  -0.0867540   0.4780874   0.0000000), wk =   0.0011898
        k( 1432) = (  -0.0867540   0.4794289   0.0000000), wk =   0.0011898
        k( 1433) = (  -0.0867540   0.4807704   0.0000000), wk =   0.0011898
        k( 1434) = (  -0.0867540   0.4821119   0.0000000), wk =   0.0011898
        k( 1435) = (  -0.0867540   0.4834534   0.0000000), wk =   0.0011898
        k( 1436) = (  -0.0847540   0.4307933   0.0000000), wk =   0.0011898
        k( 1437) = (  -0.0847540   0.4321348   0.0000000), wk =   0.0011898
        k( 1438) = (  -0.0847540   0.4334763   0.0000000), wk =   0.0011898
        k( 1439) = (  -0.0847540   0.4348178   0.0000000), wk =   0.0011898
        k( 1440) = (  -0.0847540   0.4361593   0.0000000), wk =   0.0011898
        k( 1441) = (  -0.0847540   0.4375008   0.0000000), wk =   0.0011898
        k( 1442) = (  -0.0847540   0.4388423   0.0000000), wk =   0.0011898
        k( 1443) = (  -0.0847540   0.4401838   0.0000000), wk =   0.0011898
        k( 1444) = (  -0.0847540   0.4415253   0.0000000), wk =   0.0011898
        k( 1445) = (  -0.0847540   0.4428668   0.0000000), wk =   0.0011898
        k( 1446) = (  -0.0847540   0.4442083   0.0000000), wk =   0.0011898
        k( 1447) = (  -0.0847540   0.4455498   0.0000000), wk =   0.0011898
        k( 1448) = (  -0.0847540   0.4468913   0.0000000), wk =   0.0011898
        k( 1449) = (  -0.0847540   0.4482328   0.0000000), wk =   0.0011898
        k( 1450) = (  -0.0847540   0.4495743   0.0000000), wk =   0.0011898
        k( 1451) = (  -0.0847540   0.4509158   0.0000000), wk =   0.0011898
        k( 1452) = (  -0.0847540   0.4522573   0.0000000), wk =   0.0011898
        k( 1453) = (  -0.0847540   0.4535988   0.0000000), wk =   0.0011898
        k( 1454) = (  -0.0847540   0.4549403   0.0000000), wk =   0.0011898
        k( 1455) = (  -0.0847540   0.4562818   0.0000000), wk =   0.0011898
        k( 1456) = (  -0.0847540   0.4576233   0.0000000), wk =   0.0011898
        k( 1457) = (  -0.0847540   0.4589648   0.0000000), wk =   0.0011898
        k( 1458) = (  -0.0847540   0.4603063   0.0000000), wk =   0.0011898
        k( 1459) = (  -0.0847540   0.4616478   0.0000000), wk =   0.0011898
        k( 1460) = (  -0.0847540   0.4629893   0.0000000), wk =   0.0011898
        k( 1461) = (  -0.0847540   0.4643308   0.0000000), wk =   0.0011898
        k( 1462) = (  -0.0847540   0.4656723   0.0000000), wk =   0.0011898
        k( 1463) = (  -0.0847540   0.4670138   0.0000000), wk =   0.0011898
        k( 1464) = (  -0.0847540   0.4683553   0.0000000), wk =   0.0011898
        k( 1465) = (  -0.0847540   0.4696968   0.0000000), wk =   0.0011898
        k( 1466) = (  -0.0847540   0.4710383   0.0000000), wk =   0.0011898
        k( 1467) = (  -0.0847540   0.4723798   0.0000000), wk =   0.0011898
        k( 1468) = (  -0.0847540   0.4737213   0.0000000), wk =   0.0011898
        k( 1469) = (  -0.0847540   0.4750629   0.0000000), wk =   0.0011898
        k( 1470) = (  -0.0847540   0.4764044   0.0000000), wk =   0.0011898
        k( 1471) = (  -0.0847540   0.4777459   0.0000000), wk =   0.0011898
        k( 1472) = (  -0.0847540   0.4790874   0.0000000), wk =   0.0011898
        k( 1473) = (  -0.0847540   0.4804289   0.0000000), wk =   0.0011898
        k( 1474) = (  -0.0847540   0.4817704   0.0000000), wk =   0.0011898
        k( 1475) = (  -0.0847540   0.4831119   0.0000000), wk =   0.0011898
        k( 1476) = (  -0.0847540   0.4844534   0.0000000), wk =   0.0011898
        k( 1477) = (  -0.0827540   0.4317933   0.0000000), wk =   0.0011898
        k( 1478) = (  -0.0827540   0.4331348   0.0000000), wk =   0.0011898
        k( 1479) = (  -0.0827540   0.4344763   0.0000000), wk =   0.0011898
        k( 1480) = (  -0.0827540   0.4358178   0.0000000), wk =   0.0011898
        k( 1481) = (  -0.0827540   0.4371593   0.0000000), wk =   0.0011898
        k( 1482) = (  -0.0827540   0.4385008   0.0000000), wk =   0.0011898
        k( 1483) = (  -0.0827540   0.4398423   0.0000000), wk =   0.0011898
        k( 1484) = (  -0.0827540   0.4411838   0.0000000), wk =   0.0011898
        k( 1485) = (  -0.0827540   0.4425253   0.0000000), wk =   0.0011898
        k( 1486) = (  -0.0827540   0.4438668   0.0000000), wk =   0.0011898
        k( 1487) = (  -0.0827540   0.4452083   0.0000000), wk =   0.0011898
        k( 1488) = (  -0.0827540   0.4465498   0.0000000), wk =   0.0011898
        k( 1489) = (  -0.0827540   0.4478913   0.0000000), wk =   0.0011898
        k( 1490) = (  -0.0827540   0.4492328   0.0000000), wk =   0.0011898
        k( 1491) = (  -0.0827540   0.4505743   0.0000000), wk =   0.0011898
        k( 1492) = (  -0.0827540   0.4519158   0.0000000), wk =   0.0011898
        k( 1493) = (  -0.0827540   0.4532573   0.0000000), wk =   0.0011898
        k( 1494) = (  -0.0827540   0.4545988   0.0000000), wk =   0.0011898
        k( 1495) = (  -0.0827540   0.4559403   0.0000000), wk =   0.0011898
        k( 1496) = (  -0.0827540   0.4572818   0.0000000), wk =   0.0011898
        k( 1497) = (  -0.0827540   0.4586233   0.0000000), wk =   0.0011898
        k( 1498) = (  -0.0827540   0.4599648   0.0000000), wk =   0.0011898
        k( 1499) = (  -0.0827540   0.4613063   0.0000000), wk =   0.0011898
        k( 1500) = (  -0.0827540   0.4626478   0.0000000), wk =   0.0011898
        k( 1501) = (  -0.0827540   0.4639893   0.0000000), wk =   0.0011898
        k( 1502) = (  -0.0827540   0.4653308   0.0000000), wk =   0.0011898
        k( 1503) = (  -0.0827540   0.4666723   0.0000000), wk =   0.0011898
        k( 1504) = (  -0.0827540   0.4680138   0.0000000), wk =   0.0011898
        k( 1505) = (  -0.0827540   0.4693553   0.0000000), wk =   0.0011898
        k( 1506) = (  -0.0827540   0.4706968   0.0000000), wk =   0.0011898
        k( 1507) = (  -0.0827540   0.4720383   0.0000000), wk =   0.0011898
        k( 1508) = (  -0.0827540   0.4733798   0.0000000), wk =   0.0011898
        k( 1509) = (  -0.0827540   0.4747214   0.0000000), wk =   0.0011898
        k( 1510) = (  -0.0827540   0.4760629   0.0000000), wk =   0.0011898
        k( 1511) = (  -0.0827540   0.4774044   0.0000000), wk =   0.0011898
        k( 1512) = (  -0.0827540   0.4787459   0.0000000), wk =   0.0011898
        k( 1513) = (  -0.0827540   0.4800874   0.0000000), wk =   0.0011898
        k( 1514) = (  -0.0827540   0.4814289   0.0000000), wk =   0.0011898
        k( 1515) = (  -0.0827540   0.4827704   0.0000000), wk =   0.0011898
        k( 1516) = (  -0.0827540   0.4841119   0.0000000), wk =   0.0011898
        k( 1517) = (  -0.0827540   0.4854534   0.0000000), wk =   0.0011898
        k( 1518) = (  -0.0807540   0.4327933   0.0000000), wk =   0.0011898
        k( 1519) = (  -0.0807540   0.4341348   0.0000000), wk =   0.0011898
        k( 1520) = (  -0.0807540   0.4354763   0.0000000), wk =   0.0011898
        k( 1521) = (  -0.0807540   0.4368178   0.0000000), wk =   0.0011898
        k( 1522) = (  -0.0807540   0.4381593   0.0000000), wk =   0.0011898
        k( 1523) = (  -0.0807540   0.4395008   0.0000000), wk =   0.0011898
        k( 1524) = (  -0.0807540   0.4408423   0.0000000), wk =   0.0011898
        k( 1525) = (  -0.0807540   0.4421838   0.0000000), wk =   0.0011898
        k( 1526) = (  -0.0807540   0.4435253   0.0000000), wk =   0.0011898
        k( 1527) = (  -0.0807540   0.4448668   0.0000000), wk =   0.0011898
        k( 1528) = (  -0.0807540   0.4462083   0.0000000), wk =   0.0011898
        k( 1529) = (  -0.0807540   0.4475498   0.0000000), wk =   0.0011898
        k( 1530) = (  -0.0807540   0.4488913   0.0000000), wk =   0.0011898
        k( 1531) = (  -0.0807540   0.4502328   0.0000000), wk =   0.0011898
        k( 1532) = (  -0.0807540   0.4515743   0.0000000), wk =   0.0011898
        k( 1533) = (  -0.0807540   0.4529158   0.0000000), wk =   0.0011898
        k( 1534) = (  -0.0807540   0.4542573   0.0000000), wk =   0.0011898
        k( 1535) = (  -0.0807540   0.4555988   0.0000000), wk =   0.0011898
        k( 1536) = (  -0.0807540   0.4569403   0.0000000), wk =   0.0011898
        k( 1537) = (  -0.0807540   0.4582818   0.0000000), wk =   0.0011898
        k( 1538) = (  -0.0807540   0.4596233   0.0000000), wk =   0.0011898
        k( 1539) = (  -0.0807540   0.4609648   0.0000000), wk =   0.0011898
        k( 1540) = (  -0.0807540   0.4623063   0.0000000), wk =   0.0011898
        k( 1541) = (  -0.0807540   0.4636478   0.0000000), wk =   0.0011898
        k( 1542) = (  -0.0807540   0.4649893   0.0000000), wk =   0.0011898
        k( 1543) = (  -0.0807540   0.4663308   0.0000000), wk =   0.0011898
        k( 1544) = (  -0.0807540   0.4676723   0.0000000), wk =   0.0011898
        k( 1545) = (  -0.0807540   0.4690138   0.0000000), wk =   0.0011898
        k( 1546) = (  -0.0807540   0.4703553   0.0000000), wk =   0.0011898
        k( 1547) = (  -0.0807540   0.4716968   0.0000000), wk =   0.0011898
        k( 1548) = (  -0.0807540   0.4730383   0.0000000), wk =   0.0011898
        k( 1549) = (  -0.0807540   0.4743798   0.0000000), wk =   0.0011898
        k( 1550) = (  -0.0807540   0.4757214   0.0000000), wk =   0.0011898
        k( 1551) = (  -0.0807540   0.4770629   0.0000000), wk =   0.0011898
        k( 1552) = (  -0.0807540   0.4784044   0.0000000), wk =   0.0011898
        k( 1553) = (  -0.0807540   0.4797459   0.0000000), wk =   0.0011898
        k( 1554) = (  -0.0807540   0.4810874   0.0000000), wk =   0.0011898
        k( 1555) = (  -0.0807540   0.4824289   0.0000000), wk =   0.0011898
        k( 1556) = (  -0.0807540   0.4837704   0.0000000), wk =   0.0011898
        k( 1557) = (  -0.0807540   0.4851119   0.0000000), wk =   0.0011898
        k( 1558) = (  -0.0807540   0.4864534   0.0000000), wk =   0.0011898
        k( 1559) = (  -0.0787540   0.4337933   0.0000000), wk =   0.0011898
        k( 1560) = (  -0.0787540   0.4351348   0.0000000), wk =   0.0011898
        k( 1561) = (  -0.0787540   0.4364763   0.0000000), wk =   0.0011898
        k( 1562) = (  -0.0787540   0.4378178   0.0000000), wk =   0.0011898
        k( 1563) = (  -0.0787540   0.4391593   0.0000000), wk =   0.0011898
        k( 1564) = (  -0.0787540   0.4405008   0.0000000), wk =   0.0011898
        k( 1565) = (  -0.0787540   0.4418423   0.0000000), wk =   0.0011898
        k( 1566) = (  -0.0787540   0.4431838   0.0000000), wk =   0.0011898
        k( 1567) = (  -0.0787540   0.4445253   0.0000000), wk =   0.0011898
        k( 1568) = (  -0.0787540   0.4458668   0.0000000), wk =   0.0011898
        k( 1569) = (  -0.0787540   0.4472083   0.0000000), wk =   0.0011898
        k( 1570) = (  -0.0787540   0.4485498   0.0000000), wk =   0.0011898
        k( 1571) = (  -0.0787540   0.4498913   0.0000000), wk =   0.0011898
        k( 1572) = (  -0.0787540   0.4512328   0.0000000), wk =   0.0011898
        k( 1573) = (  -0.0787540   0.4525743   0.0000000), wk =   0.0011898
        k( 1574) = (  -0.0787540   0.4539158   0.0000000), wk =   0.0011898
        k( 1575) = (  -0.0787540   0.4552573   0.0000000), wk =   0.0011898
        k( 1576) = (  -0.0787540   0.4565988   0.0000000), wk =   0.0011898
        k( 1577) = (  -0.0787540   0.4579403   0.0000000), wk =   0.0011898
        k( 1578) = (  -0.0787540   0.4592818   0.0000000), wk =   0.0011898
        k( 1579) = (  -0.0787540   0.4606233   0.0000000), wk =   0.0011898
        k( 1580) = (  -0.0787540   0.4619648   0.0000000), wk =   0.0011898
        k( 1581) = (  -0.0787540   0.4633063   0.0000000), wk =   0.0011898
        k( 1582) = (  -0.0787540   0.4646478   0.0000000), wk =   0.0011898
        k( 1583) = (  -0.0787540   0.4659893   0.0000000), wk =   0.0011898
        k( 1584) = (  -0.0787540   0.4673308   0.0000000), wk =   0.0011898
        k( 1585) = (  -0.0787540   0.4686723   0.0000000), wk =   0.0011898
        k( 1586) = (  -0.0787540   0.4700138   0.0000000), wk =   0.0011898
        k( 1587) = (  -0.0787540   0.4713553   0.0000000), wk =   0.0011898
        k( 1588) = (  -0.0787540   0.4726968   0.0000000), wk =   0.0011898
        k( 1589) = (  -0.0787540   0.4740383   0.0000000), wk =   0.0011898
        k( 1590) = (  -0.0787540   0.4753798   0.0000000), wk =   0.0011898
        k( 1591) = (  -0.0787540   0.4767214   0.0000000), wk =   0.0011898
        k( 1592) = (  -0.0787540   0.4780629   0.0000000), wk =   0.0011898
        k( 1593) = (  -0.0787540   0.4794044   0.0000000), wk =   0.0011898
        k( 1594) = (  -0.0787540   0.4807459   0.0000000), wk =   0.0011898
        k( 1595) = (  -0.0787540   0.4820874   0.0000000), wk =   0.0011898
        k( 1596) = (  -0.0787540   0.4834289   0.0000000), wk =   0.0011898
        k( 1597) = (  -0.0787540   0.4847704   0.0000000), wk =   0.0011898
        k( 1598) = (  -0.0787540   0.4861119   0.0000000), wk =   0.0011898
        k( 1599) = (  -0.0787540   0.4874534   0.0000000), wk =   0.0011898
        k( 1600) = (  -0.0767540   0.4347933   0.0000000), wk =   0.0011898
        k( 1601) = (  -0.0767540   0.4361348   0.0000000), wk =   0.0011898
        k( 1602) = (  -0.0767540   0.4374763   0.0000000), wk =   0.0011898
        k( 1603) = (  -0.0767540   0.4388178   0.0000000), wk =   0.0011898
        k( 1604) = (  -0.0767540   0.4401593   0.0000000), wk =   0.0011898
        k( 1605) = (  -0.0767540   0.4415008   0.0000000), wk =   0.0011898
        k( 1606) = (  -0.0767540   0.4428423   0.0000000), wk =   0.0011898
        k( 1607) = (  -0.0767540   0.4441838   0.0000000), wk =   0.0011898
        k( 1608) = (  -0.0767540   0.4455253   0.0000000), wk =   0.0011898
        k( 1609) = (  -0.0767540   0.4468668   0.0000000), wk =   0.0011898
        k( 1610) = (  -0.0767540   0.4482083   0.0000000), wk =   0.0011898
        k( 1611) = (  -0.0767540   0.4495498   0.0000000), wk =   0.0011898
        k( 1612) = (  -0.0767540   0.4508913   0.0000000), wk =   0.0011898
        k( 1613) = (  -0.0767540   0.4522328   0.0000000), wk =   0.0011898
        k( 1614) = (  -0.0767540   0.4535743   0.0000000), wk =   0.0011898
        k( 1615) = (  -0.0767540   0.4549158   0.0000000), wk =   0.0011898
        k( 1616) = (  -0.0767540   0.4562573   0.0000000), wk =   0.0011898
        k( 1617) = (  -0.0767540   0.4575988   0.0000000), wk =   0.0011898
        k( 1618) = (  -0.0767540   0.4589403   0.0000000), wk =   0.0011898
        k( 1619) = (  -0.0767540   0.4602818   0.0000000), wk =   0.0011898
        k( 1620) = (  -0.0767540   0.4616233   0.0000000), wk =   0.0011898
        k( 1621) = (  -0.0767540   0.4629648   0.0000000), wk =   0.0011898
        k( 1622) = (  -0.0767540   0.4643063   0.0000000), wk =   0.0011898
        k( 1623) = (  -0.0767540   0.4656478   0.0000000), wk =   0.0011898
        k( 1624) = (  -0.0767540   0.4669893   0.0000000), wk =   0.0011898
        k( 1625) = (  -0.0767540   0.4683308   0.0000000), wk =   0.0011898
        k( 1626) = (  -0.0767540   0.4696723   0.0000000), wk =   0.0011898
        k( 1627) = (  -0.0767540   0.4710138   0.0000000), wk =   0.0011898
        k( 1628) = (  -0.0767540   0.4723553   0.0000000), wk =   0.0011898
        k( 1629) = (  -0.0767540   0.4736968   0.0000000), wk =   0.0011898
        k( 1630) = (  -0.0767540   0.4750383   0.0000000), wk =   0.0011898
        k( 1631) = (  -0.0767540   0.4763798   0.0000000), wk =   0.0011898
        k( 1632) = (  -0.0767540   0.4777214   0.0000000), wk =   0.0011898
        k( 1633) = (  -0.0767540   0.4790629   0.0000000), wk =   0.0011898
        k( 1634) = (  -0.0767540   0.4804044   0.0000000), wk =   0.0011898
        k( 1635) = (  -0.0767540   0.4817459   0.0000000), wk =   0.0011898
        k( 1636) = (  -0.0767540   0.4830874   0.0000000), wk =   0.0011898
        k( 1637) = (  -0.0767540   0.4844289   0.0000000), wk =   0.0011898
        k( 1638) = (  -0.0767540   0.4857704   0.0000000), wk =   0.0011898
        k( 1639) = (  -0.0767540   0.4871119   0.0000000), wk =   0.0011898
        k( 1640) = (  -0.0767540   0.4884534   0.0000000), wk =   0.0011898
        k( 1641) = (  -0.0747540   0.4357933   0.0000000), wk =   0.0011898
        k( 1642) = (  -0.0747540   0.4371348   0.0000000), wk =   0.0011898
        k( 1643) = (  -0.0747540   0.4384763   0.0000000), wk =   0.0011898
        k( 1644) = (  -0.0747540   0.4398178   0.0000000), wk =   0.0011898
        k( 1645) = (  -0.0747540   0.4411593   0.0000000), wk =   0.0011898
        k( 1646) = (  -0.0747540   0.4425008   0.0000000), wk =   0.0011898
        k( 1647) = (  -0.0747540   0.4438423   0.0000000), wk =   0.0011898
        k( 1648) = (  -0.0747540   0.4451838   0.0000000), wk =   0.0011898
        k( 1649) = (  -0.0747540   0.4465253   0.0000000), wk =   0.0011898
        k( 1650) = (  -0.0747540   0.4478668   0.0000000), wk =   0.0011898
        k( 1651) = (  -0.0747540   0.4492083   0.0000000), wk =   0.0011898
        k( 1652) = (  -0.0747540   0.4505498   0.0000000), wk =   0.0011898
        k( 1653) = (  -0.0747540   0.4518913   0.0000000), wk =   0.0011898
        k( 1654) = (  -0.0747540   0.4532328   0.0000000), wk =   0.0011898
        k( 1655) = (  -0.0747540   0.4545743   0.0000000), wk =   0.0011898
        k( 1656) = (  -0.0747540   0.4559158   0.0000000), wk =   0.0011898
        k( 1657) = (  -0.0747540   0.4572573   0.0000000), wk =   0.0011898
        k( 1658) = (  -0.0747540   0.4585988   0.0000000), wk =   0.0011898
        k( 1659) = (  -0.0747540   0.4599403   0.0000000), wk =   0.0011898
        k( 1660) = (  -0.0747540   0.4612818   0.0000000), wk =   0.0011898
        k( 1661) = (  -0.0747540   0.4626233   0.0000000), wk =   0.0011898
        k( 1662) = (  -0.0747540   0.4639648   0.0000000), wk =   0.0011898
        k( 1663) = (  -0.0747540   0.4653063   0.0000000), wk =   0.0011898
        k( 1664) = (  -0.0747540   0.4666478   0.0000000), wk =   0.0011898
        k( 1665) = (  -0.0747540   0.4679893   0.0000000), wk =   0.0011898
        k( 1666) = (  -0.0747540   0.4693308   0.0000000), wk =   0.0011898
        k( 1667) = (  -0.0747540   0.4706723   0.0000000), wk =   0.0011898
        k( 1668) = (  -0.0747540   0.4720138   0.0000000), wk =   0.0011898
        k( 1669) = (  -0.0747540   0.4733553   0.0000000), wk =   0.0011898
        k( 1670) = (  -0.0747540   0.4746968   0.0000000), wk =   0.0011898
        k( 1671) = (  -0.0747540   0.4760383   0.0000000), wk =   0.0011898
        k( 1672) = (  -0.0747540   0.4773798   0.0000000), wk =   0.0011898
        k( 1673) = (  -0.0747540   0.4787214   0.0000000), wk =   0.0011898
        k( 1674) = (  -0.0747540   0.4800629   0.0000000), wk =   0.0011898
        k( 1675) = (  -0.0747540   0.4814044   0.0000000), wk =   0.0011898
        k( 1676) = (  -0.0747540   0.4827459   0.0000000), wk =   0.0011898
        k( 1677) = (  -0.0747540   0.4840874   0.0000000), wk =   0.0011898
        k( 1678) = (  -0.0747540   0.4854289   0.0000000), wk =   0.0011898
        k( 1679) = (  -0.0747540   0.4867704   0.0000000), wk =   0.0011898
        k( 1680) = (  -0.0747540   0.4881119   0.0000000), wk =   0.0011898
        k( 1681) = (  -0.0747540   0.4894534   0.0000000), wk =   0.0011898

     Dense  grid:    21391 G-vectors     FFT dimensions: (  24,  20, 120)

     Dynamical RAM for                 wfc:       0.33 MB

     Dynamical RAM for     wfc (w. buffer):       0.33 MB

     Dynamical RAM for           str. fact:       0.33 MB

     Dynamical RAM for           local pot:       0.00 MB

     Dynamical RAM for          nlocal pot:       0.65 MB

     Dynamical RAM for                qrad:       0.29 MB

     Dynamical RAM for          rho,v,vnew:       2.30 MB

     Dynamical RAM for           G-vectors:       1.39 MB

     Dynamical RAM for          h,s,v(r/c):       0.01 MB

     Dynamical RAM for          <psi|beta>:       0.00 MB

     Dynamical RAM for                 psi:       0.65 MB

     Dynamical RAM for                hpsi:       0.65 MB

     Dynamical RAM for      wfcinit/wfcrot:       0.65 MB

     Estimated static dynamical RAM per process >       8.13 MB

     Estimated max dynamical RAM per process >       9.45 MB

     Estimated total dynamical RAM >      75.59 MB

     The potential is recalculated from file :
     ./tmp/graphene24.0zoom.save/charge-density

     Starting wfcs are    8 randomized atomic wfcs

     Band Structure Calculation
     Davidson diagonalization with overlap

     Computing kpt #:     1  of   211 on this pool
     total cpu time spent up to now is        1.4 secs

     Computing kpt #:     2  of   211 on this pool
     total cpu time spent up to now is        1.5 secs

     Computing kpt #:     3  of   211 on this pool
     total cpu time spent up to now is        1.6 secs

     Computing kpt #:     4  of   211 on this pool
     total cpu time spent up to now is        1.7 secs

     Computing kpt #:     5  of   211 on this pool
     total cpu time spent up to now is        1.9 secs

     Computing kpt #:     6  of   211 on this pool
     total cpu time spent up to now is        2.0 secs

     Computing kpt #:     7  of   211 on this pool
     total cpu time spent up to now is        2.1 secs

     Computing kpt #:     8  of   211 on this pool
     total cpu time spent up to now is        2.2 secs

     Computing kpt #:     9  of   211 on this pool
     total cpu time spent up to now is        2.3 secs

     Computing kpt #:    10  of   211 on this pool
     total cpu time spent up to now is        2.4 secs

     Computing kpt #:    11  of   211 on this pool
     total cpu time spent up to now is        2.5 secs

     Computing kpt #:    12  of   211 on this pool
     total cpu time spent up to now is        2.6 secs

     Computing kpt #:    13  of   211 on this pool
     total cpu time spent up to now is        2.8 secs

     Computing kpt #:    14  of   211 on this pool
     total cpu time spent up to now is        2.9 secs

     Computing kpt #:    15  of   211 on this pool
     total cpu time spent up to now is        3.0 secs

     Computing kpt #:    16  of   211 on this pool
     total cpu time spent up to now is        3.1 secs

     Computing kpt #:    17  of   211 on this pool
     total cpu time spent up to now is        3.2 secs

     Computing kpt #:    18  of   211 on this pool
     total cpu time spent up to now is        3.3 secs

     Computing kpt #:    19  of   211 on this pool
     total cpu time spent up to now is        3.4 secs

     Computing kpt #:    20  of   211 on this pool
     total cpu time spent up to now is        3.5 secs

     Computing kpt #:    21  of   211 on this pool
     total cpu time spent up to now is        3.7 secs

     Computing kpt #:    22  of   211 on this pool
     total cpu time spent up to now is        3.8 secs

     Computing kpt #:    23  of   211 on this pool
     total cpu time spent up to now is        3.9 secs

     Computing kpt #:    24  of   211 on this pool
     total cpu time spent up to now is        4.0 secs

     Computing kpt #:    25  of   211 on this pool
     total cpu time spent up to now is        4.1 secs

     Computing kpt #:    26  of   211 on this pool
     total cpu time spent up to now is        4.2 secs

     Computing kpt #:    27  of   211 on this pool
     total cpu time spent up to now is        4.3 secs

     Computing kpt #:    28  of   211 on this pool
     total cpu time spent up to now is        4.4 secs

     Computing kpt #:    29  of   211 on this pool
     total cpu time spent up to now is        4.6 secs

     Computing kpt #:    30  of   211 on this pool
     total cpu time spent up to now is        4.7 secs

     Computing kpt #:    31  of   211 on this pool
     total cpu time spent up to now is        4.8 secs

     Computing kpt #:    32  of   211 on this pool
     total cpu time spent up to now is        4.9 secs

     Computing kpt #:    33  of   211 on this pool
     total cpu time spent up to now is        5.0 secs

     Computing kpt #:    34  of   211 on this pool
     total cpu time spent up to now is        5.1 secs

     Computing kpt #:    35  of   211 on this pool
     total cpu time spent up to now is        5.2 secs

     Computing kpt #:    36  of   211 on this pool
     total cpu time spent up to now is        5.3 secs

     Computing kpt #:    37  of   211 on this pool
     total cpu time spent up to now is        5.4 secs

     Computing kpt #:    38  of   211 on this pool
     total cpu time spent up to now is        5.5 secs

     Computing kpt #:    39  of   211 on this pool
     total cpu time spent up to now is        5.6 secs

     Computing kpt #:    40  of   211 on this pool
     total cpu time spent up to now is        5.8 secs

     Computing kpt #:    41  of   211 on this pool
     total cpu time spent up to now is        5.9 secs

     Computing kpt #:    42  of   211 on this pool
     total cpu time spent up to now is        6.0 secs

     Computing kpt #:    43  of   211 on this pool
     total cpu time spent up to now is        6.1 secs

     Computing kpt #:    44  of   211 on this pool
     total cpu time spent up to now is        6.2 secs

     Computing kpt #:    45  of   211 on this pool
     total cpu time spent up to now is        6.3 secs

     Computing kpt #:    46  of   211 on this pool
     total cpu time spent up to now is        6.4 secs

     Computing kpt #:    47  of   211 on this pool
     total cpu time spent up to now is        6.5 secs

     Computing kpt #:    48  of   211 on this pool
     total cpu time spent up to now is        6.7 secs

     Computing kpt #:    49  of   211 on this pool
     total cpu time spent up to now is        6.8 secs

     Computing kpt #:    50  of   211 on this pool
     total cpu time spent up to now is        6.9 secs

     Computing kpt #:    51  of   211 on this pool
     total cpu time spent up to now is        7.0 secs

     Computing kpt #:    52  of   211 on this pool
     total cpu time spent up to now is        7.1 secs

     Computing kpt #:    53  of   211 on this pool
     total cpu time spent up to now is        7.2 secs

     Computing kpt #:    54  of   211 on this pool
     total cpu time spent up to now is        7.3 secs

     Computing kpt #:    55  of   211 on this pool
     total cpu time spent up to now is        7.4 secs

     Computing kpt #:    56  of   211 on this pool
     total cpu time spent up to now is        7.5 secs

     Computing kpt #:    57  of   211 on this pool
     total cpu time spent up to now is        7.6 secs

     Computing kpt #:    58  of   211 on this pool
     total cpu time spent up to now is        7.8 secs

     Computing kpt #:    59  of   211 on this pool
     total cpu time spent up to now is        7.9 secs

     Computing kpt #:    60  of   211 on this pool
     total cpu time spent up to now is        8.0 secs

     Computing kpt #:    61  of   211 on this pool
     total cpu time spent up to now is        8.1 secs

     Computing kpt #:    62  of   211 on this pool
     total cpu time spent up to now is        8.2 secs

     Computing kpt #:    63  of   211 on this pool
     total cpu time spent up to now is        8.3 secs

     Computing kpt #:    64  of   211 on this pool
     total cpu time spent up to now is        8.4 secs

     Computing kpt #:    65  of   211 on this pool
     total cpu time spent up to now is        8.6 secs

     Computing kpt #:    66  of   211 on this pool
     total cpu time spent up to now is        8.7 secs

     Computing kpt #:    67  of   211 on this pool
     total cpu time spent up to now is        8.8 secs

     Computing kpt #:    68  of   211 on this pool
     total cpu time spent up to now is        8.9 secs

     Computing kpt #:    69  of   211 on this pool
     total cpu time spent up to now is        9.0 secs

     Computing kpt #:    70  of   211 on this pool
     total cpu time spent up to now is        9.1 secs

     Computing kpt #:    71  of   211 on this pool
     total cpu time spent up to now is        9.2 secs

     Computing kpt #:    72  of   211 on this pool
     total cpu time spent up to now is        9.3 secs

     Computing kpt #:    73  of   211 on this pool
     total cpu time spent up to now is        9.4 secs

     Computing kpt #:    74  of   211 on this pool
     total cpu time spent up to now is        9.6 secs

     Computing kpt #:    75  of   211 on this pool
     total cpu time spent up to now is        9.7 secs

     Computing kpt #:    76  of   211 on this pool
     total cpu time spent up to now is        9.8 secs

     Computing kpt #:    77  of   211 on this pool
     total cpu time spent up to now is        9.9 secs

     Computing kpt #:    78  of   211 on this pool
     total cpu time spent up to now is       10.0 secs

     Computing kpt #:    79  of   211 on this pool
     total cpu time spent up to now is       10.1 secs

     Computing kpt #:    80  of   211 on this pool
     total cpu time spent up to now is       10.2 secs

     Computing kpt #:    81  of   211 on this pool
     total cpu time spent up to now is       10.3 secs

     Computing kpt #:    82  of   211 on this pool
     total cpu time spent up to now is       10.4 secs

     Computing kpt #:    83  of   211 on this pool
     total cpu time spent up to now is       10.6 secs

     Computing kpt #:    84  of   211 on this pool
     total cpu time spent up to now is       10.7 secs

     Computing kpt #:    85  of   211 on this pool
     total cpu time spent up to now is       10.8 secs

     Computing kpt #:    86  of   211 on this pool
     total cpu time spent up to now is       10.9 secs

     Computing kpt #:    87  of   211 on this pool
     total cpu time spent up to now is       11.0 secs

     Computing kpt #:    88  of   211 on this pool
     total cpu time spent up to now is       11.2 secs

     Computing kpt #:    89  of   211 on this pool
     total cpu time spent up to now is       11.3 secs

     Computing kpt #:    90  of   211 on this pool
     total cpu time spent up to now is       11.4 secs

     Computing kpt #:    91  of   211 on this pool
     total cpu time spent up to now is       11.5 secs

     Computing kpt #:    92  of   211 on this pool
     total cpu time spent up to now is       11.6 secs

     Computing kpt #:    93  of   211 on this pool
     total cpu time spent up to now is       11.7 secs

     Computing kpt #:    94  of   211 on this pool
     total cpu time spent up to now is       11.8 secs

     Computing kpt #:    95  of   211 on this pool
     total cpu time spent up to now is       11.9 secs

     Computing kpt #:    96  of   211 on this pool
     total cpu time spent up to now is       12.1 secs

     Computing kpt #:    97  of   211 on this pool
     total cpu time spent up to now is       12.2 secs

     Computing kpt #:    98  of   211 on this pool
     total cpu time spent up to now is       12.3 secs

     Computing kpt #:    99  of   211 on this pool
     total cpu time spent up to now is       12.4 secs

     Computing kpt #:   100  of   211 on this pool
     total cpu time spent up to now is       12.5 secs

     Computing kpt #:   101  of   211 on this pool
     total cpu time spent up to now is       12.6 secs

     Computing kpt #:   102  of   211 on this pool
     total cpu time spent up to now is       12.8 secs

     Computing kpt #:   103  of   211 on this pool
     total cpu time spent up to now is       12.9 secs

     Computing kpt #:   104  of   211 on this pool
     total cpu time spent up to now is       13.0 secs

     Computing kpt #:   105  of   211 on this pool
     total cpu time spent up to now is       13.1 secs

     Computing kpt #:   106  of   211 on this pool
     total cpu time spent up to now is       13.2 secs

     Computing kpt #:   107  of   211 on this pool
     total cpu time spent up to now is       13.3 secs

     Computing kpt #:   108  of   211 on this pool
     total cpu time spent up to now is       13.4 secs

     Computing kpt #:   109  of   211 on this pool
     total cpu time spent up to now is       13.5 secs

     Computing kpt #:   110  of   211 on this pool
     total cpu time spent up to now is       13.6 secs

     Computing kpt #:   111  of   211 on this pool
     total cpu time spent up to now is       13.7 secs

     Computing kpt #:   112  of   211 on this pool
     total cpu time spent up to now is       13.9 secs

     Computing kpt #:   113  of   211 on this pool
     total cpu time spent up to now is       14.0 secs

     Computing kpt #:   114  of   211 on this pool
     total cpu time spent up to now is       14.1 secs

     Computing kpt #:   115  of   211 on this pool
     total cpu time spent up to now is       14.2 secs

     Computing kpt #:   116  of   211 on this pool
     total cpu time spent up to now is       14.3 secs

     Computing kpt #:   117  of   211 on this pool
     total cpu time spent up to now is       14.4 secs

     Computing kpt #:   118  of   211 on this pool
     total cpu time spent up to now is       14.5 secs

     Computing kpt #:   119  of   211 on this pool
     total cpu time spent up to now is       14.6 secs

     Computing kpt #:   120  of   211 on this pool
     total cpu time spent up to now is       14.8 secs

     Computing kpt #:   121  of   211 on this pool
     total cpu time spent up to now is       14.9 secs

     Computing kpt #:   122  of   211 on this pool
     total cpu time spent up to now is       15.0 secs

     Computing kpt #:   123  of   211 on this pool
     total cpu time spent up to now is       15.1 secs

     Computing kpt #:   124  of   211 on this pool
     total cpu time spent up to now is       15.2 secs

     Computing kpt #:   125  of   211 on this pool
     total cpu time spent up to now is       15.3 secs

     Computing kpt #:   126  of   211 on this pool
     total cpu time spent up to now is       15.4 secs

     Computing kpt #:   127  of   211 on this pool
     total cpu time spent up to now is       15.5 secs

     Computing kpt #:   128  of   211 on this pool
     total cpu time spent up to now is       15.6 secs

     Computing kpt #:   129  of   211 on this pool
     total cpu time spent up to now is       15.8 secs

     Computing kpt #:   130  of   211 on this pool
     total cpu time spent up to now is       15.9 secs

     Computing kpt #:   131  of   211 on this pool
     total cpu time spent up to now is       16.0 secs

     Computing kpt #:   132  of   211 on this pool
     total cpu time spent up to now is       16.1 secs

     Computing kpt #:   133  of   211 on this pool
     total cpu time spent up to now is       16.2 secs

     Computing kpt #:   134  of   211 on this pool
     total cpu time spent up to now is       16.3 secs

     Computing kpt #:   135  of   211 on this pool
     total cpu time spent up to now is       16.4 secs

     Computing kpt #:   136  of   211 on this pool
     total cpu time spent up to now is       16.5 secs

     Computing kpt #:   137  of   211 on this pool
     total cpu time spent up to now is       16.7 secs

     Computing kpt #:   138  of   211 on this pool
     total cpu time spent up to now is       16.8 secs

     Computing kpt #:   139  of   211 on this pool
     total cpu time spent up to now is       16.9 secs

     Computing kpt #:   140  of   211 on this pool
     total cpu time spent up to now is       17.0 secs

     Computing kpt #:   141  of   211 on this pool
     total cpu time spent up to now is       17.1 secs

     Computing kpt #:   142  of   211 on this pool
     total cpu time spent up to now is       17.2 secs

     Computing kpt #:   143  of   211 on this pool
     total cpu time spent up to now is       17.3 secs

     Computing kpt #:   144  of   211 on this pool
     total cpu time spent up to now is       17.5 secs

     Computing kpt #:   145  of   211 on this pool
     total cpu time spent up to now is       17.6 secs

     Computing kpt #:   146  of   211 on this pool
     total cpu time spent up to now is       17.7 secs

     Computing kpt #:   147  of   211 on this pool
     total cpu time spent up to now is       17.8 secs

     Computing kpt #:   148  of   211 on this pool
     total cpu time spent up to now is       17.9 secs

     Computing kpt #:   149  of   211 on this pool
     total cpu time spent up to now is       18.0 secs

     Computing kpt #:   150  of   211 on this pool
     total cpu time spent up to now is       18.1 secs

     Computing kpt #:   151  of   211 on this pool
     total cpu time spent up to now is       18.2 secs

     Computing kpt #:   152  of   211 on this pool
     total cpu time spent up to now is       18.3 secs

     Computing kpt #:   153  of   211 on this pool
     total cpu time spent up to now is       18.4 secs

     Computing kpt #:   154  of   211 on this pool
     total cpu time spent up to now is       18.5 secs

     Computing kpt #:   155  of   211 on this pool
     total cpu time spent up to now is       18.6 secs

     Computing kpt #:   156  of   211 on this pool
     total cpu time spent up to now is       18.8 secs

     Computing kpt #:   157  of   211 on this pool
     total cpu time spent up to now is       18.9 secs

     Computing kpt #:   158  of   211 on this pool
     total cpu time spent up to now is       19.0 secs

     Computing kpt #:   159  of   211 on this pool
     total cpu time spent up to now is       19.1 secs

     Computing kpt #:   160  of   211 on this pool
     total cpu time spent up to now is       19.2 secs

     Computing kpt #:   161  of   211 on this pool
     total cpu time spent up to now is       19.3 secs

     Computing kpt #:   162  of   211 on this pool
     total cpu time spent up to now is       19.4 secs

     Computing kpt #:   163  of   211 on this pool
     total cpu time spent up to now is       19.5 secs

     Computing kpt #:   164  of   211 on this pool
     total cpu time spent up to now is       19.6 secs

     Computing kpt #:   165  of   211 on this pool
     total cpu time spent up to now is       19.8 secs

     Computing kpt #:   166  of   211 on this pool
     total cpu time spent up to now is       19.9 secs

     Computing kpt #:   167  of   211 on this pool
     total cpu time spent up to now is       20.0 secs

     Computing kpt #:   168  of   211 on this pool
     total cpu time spent up to now is       20.1 secs

     Computing kpt #:   169  of   211 on this pool
     total cpu time spent up to now is       20.2 secs

     Computing kpt #:   170  of   211 on this pool
     total cpu time spent up to now is       20.3 secs

     Computing kpt #:   171  of   211 on this pool
     total cpu time spent up to now is       20.4 secs

     Computing kpt #:   172  of   211 on this pool
     total cpu time spent up to now is       20.5 secs

     Computing kpt #:   173  of   211 on this pool
     total cpu time spent up to now is       20.6 secs

     Computing kpt #:   174  of   211 on this pool
     total cpu time spent up to now is       20.7 secs

     Computing kpt #:   175  of   211 on this pool
     total cpu time spent up to now is       20.8 secs

     Computing kpt #:   176  of   211 on this pool
     total cpu time spent up to now is       21.0 secs

     Computing kpt #:   177  of   211 on this pool
     total cpu time spent up to now is       21.1 secs

     Computing kpt #:   178  of   211 on this pool
     total cpu time spent up to now is       21.2 secs

     Computing kpt #:   179  of   211 on this pool
     total cpu time spent up to now is       21.3 secs

     Computing kpt #:   180  of   211 on this pool
     total cpu time spent up to now is       21.4 secs

     Computing kpt #:   181  of   211 on this pool
     total cpu time spent up to now is       21.5 secs

     Computing kpt #:   182  of   211 on this pool
     total cpu time spent up to now is       21.6 secs

     Computing kpt #:   183  of   211 on this pool
     total cpu time spent up to now is       21.8 secs

     Computing kpt #:   184  of   211 on this pool
     total cpu time spent up to now is       21.9 secs

     Computing kpt #:   185  of   211 on this pool
     total cpu time spent up to now is       22.0 secs

     Computing kpt #:   186  of   211 on this pool
     total cpu time spent up to now is       22.1 secs

     Computing kpt #:   187  of   211 on this pool
     total cpu time spent up to now is       22.2 secs

     Computing kpt #:   188  of   211 on this pool
     total cpu time spent up to now is       22.3 secs

     Computing kpt #:   189  of   211 on this pool
     total cpu time spent up to now is       22.4 secs

     Computing kpt #:   190  of   211 on this pool
     total cpu time spent up to now is       22.5 secs

     Computing kpt #:   191  of   211 on this pool
     total cpu time spent up to now is       22.7 secs

     Computing kpt #:   192  of   211 on this pool
     total cpu time spent up to now is       22.8 secs

     Computing kpt #:   193  of   211 on this pool
     total cpu time spent up to now is       22.9 secs

     Computing kpt #:   194  of   211 on this pool
     total cpu time spent up to now is       23.0 secs

     Computing kpt #:   195  of   211 on this pool
     total cpu time spent up to now is       23.1 secs

     Computing kpt #:   196  of   211 on this pool
     total cpu time spent up to now is       23.2 secs

     Computing kpt #:   197  of   211 on this pool
     total cpu time spent up to now is       23.3 secs

     Computing kpt #:   198  of   211 on this pool
     total cpu time spent up to now is       23.4 secs

     Computing kpt #:   199  of   211 on this pool
     total cpu time spent up to now is       23.5 secs

     Computing kpt #:   200  of   211 on this pool
     total cpu time spent up to now is       23.6 secs

     Computing kpt #:   201  of   211 on this pool
     total cpu time spent up to now is       23.8 secs

     Computing kpt #:   202  of   211 on this pool
     total cpu time spent up to now is       23.9 secs

     Computing kpt #:   203  of   211 on this pool
     total cpu time spent up to now is       24.0 secs

     Computing kpt #:   204  of   211 on this pool
     total cpu time spent up to now is       24.1 secs

     Computing kpt #:   205  of   211 on this pool
     total cpu time spent up to now is       24.2 secs

     Computing kpt #:   206  of   211 on this pool
     total cpu time spent up to now is       24.3 secs

     Computing kpt #:   207  of   211 on this pool
     total cpu time spent up to now is       24.4 secs

     Computing kpt #:   208  of   211 on this pool
     total cpu time spent up to now is       24.5 secs

     Computing kpt #:   209  of   211 on this pool
     total cpu time spent up to now is       24.7 secs

     Computing kpt #:   210  of   211 on this pool
     total cpu time spent up to now is       24.8 secs

     Computing kpt #:   211  of   211 on this pool
     total cpu time spent up to now is       24.9 secs

     ethr =  1.25E-08,  avg # of iterations = 31.2

     total cpu time spent up to now is       24.9 secs

     End of band structure calculation

          k =-0.1548 0.7054 0.0000 (  2686 PWs)   bands (ev):

   -15.4679 -13.1942 -11.0372  -2.9310  -1.8393  -0.6468   8.0760   9.2845

          k =-0.1548 0.7074 0.0000 (  2684 PWs)   bands (ev):

   -15.4560 -13.2036 -11.0417  -2.9055  -1.8639  -0.6488   8.0751   9.3243

          k =-0.1548 0.7094 0.0000 (  2684 PWs)   bands (ev):

   -15.4448 -13.2134 -11.0467  -2.8800  -1.8887  -0.6507   8.0743   9.3639

          k =-0.1548 0.7114 0.0000 (  2684 PWs)   bands (ev):

   -15.4341 -13.2227 -11.0514  -2.8546  -1.9135  -0.6525   8.0734   9.4034

          k =-0.1548 0.7134 0.0000 (  2684 PWs)   bands (ev):

   -15.4240 -13.2316 -11.0558  -2.8294  -1.9381  -0.6542   8.0726   9.4428

          k =-0.1548 0.7154 0.0000 (  2686 PWs)   bands (ev):

   -15.4145 -13.2403 -11.0602  -2.8046  -1.9628  -0.6565   8.0718   9.4820

          k =-0.1548 0.7174 0.0000 (  2686 PWs)   bands (ev):

   -15.4054 -13.2483 -11.0641  -2.7798  -1.9872  -0.6580   8.0710   9.5210

          k =-0.1548 0.7194 0.0000 (  2686 PWs)   bands (ev):

   -15.3969 -13.2558 -11.0678  -2.7552  -2.0113  -0.6594   8.0702   9.5597

          k =-0.1548 0.7214 0.0000 (  2688 PWs)   bands (ev):

   -15.3890 -13.2629 -11.0711  -2.7309  -2.0371  -0.6611   8.0695   9.5981

          k =-0.1548 0.7234 0.0000 (  2690 PWs)   bands (ev):

   -15.3827 -13.2692 -11.0747  -2.7084  -2.0590  -0.6626   8.0688   9.6359

          k =-0.1548 0.7254 0.0000 (  2690 PWs)   bands (ev):

   -15.3759 -13.2752 -11.0775  -2.6849  -2.0821  -0.6637   8.0682   9.6734

          k =-0.1548 0.7274 0.0000 (  2694 PWs)   bands (ev):

   -15.3704 -13.2808 -11.0805  -2.6627  -2.1055  -0.6655   8.0675   9.7100

          k =-0.1548 0.7294 0.0000 (  2694 PWs)   bands (ev):

   -15.3648 -13.2857 -11.0827  -2.6405  -2.1274  -0.6664   8.0670   9.7460

          k =-0.1548 0.7314 0.0000 (  2694 PWs)   bands (ev):

   -15.3599 -13.2901 -11.0847  -2.6192  -2.1484  -0.6672   8.0665   9.7809

          k =-0.1548 0.7334 0.0000 (  2694 PWs)   bands (ev):

   -15.3556 -13.2939 -11.0865  -2.5990  -2.1684  -0.6678   8.0661   9.8143

          k =-0.1548 0.7354 0.0000 (  2694 PWs)   bands (ev):

   -15.3520 -13.2971 -11.0879  -2.5804  -2.1868  -0.6684   8.0658   9.8457

          k =-0.1548 0.7374 0.0000 (  2694 PWs)   bands (ev):

   -15.3493 -13.2995 -11.0892  -2.5637  -2.2035  -0.6690   8.0655   9.8740

          k =-0.1548 0.7394 0.0000 (  2696 PWs)   bands (ev):

   -15.3473 -13.3018 -11.0908  -2.5498  -2.2175  -0.6694   8.0652   9.8988

          k =-0.1548 0.7414 0.0000 (  2694 PWs)   bands (ev):

   -15.3456 -13.3031 -11.0915  -2.5384  -2.2276  -0.6690   8.0651   9.9184

          k =-0.1548 0.7434 0.0000 (  2696 PWs)   bands (ev):

   -15.3454 -13.3043 -11.0919  -2.5320  -2.2350  -0.6693   8.0649   9.9309

          k =-0.1548 0.7454 0.0000 (  2694 PWs)   bands (ev):

   -15.3447 -13.3046 -11.0915  -2.5296  -2.2373  -0.6687   8.0649   9.9357

          k =-0.1548 0.7474 0.0000 (  2696 PWs)   bands (ev):

   -15.3454 -13.3043 -11.0919  -2.5320  -2.2350  -0.6693   8.0649   9.9309

          k =-0.1548 0.7494 0.0000 (  2694 PWs)   bands (ev):

   -15.3456 -13.3031 -11.0915  -2.5384  -2.2276  -0.6690   8.0651   9.9184

          k =-0.1548 0.7514 0.0000 (  2696 PWs)   bands (ev):

   -15.3473 -13.3018 -11.0908  -2.5498  -2.2175  -0.6694   8.0652   9.8988

          k =-0.1548 0.7534 0.0000 (  2694 PWs)   bands (ev):

   -15.3493 -13.2995 -11.0892  -2.5637  -2.2035  -0.6690   8.0655   9.8740

          k =-0.1548 0.7554 0.0000 (  2694 PWs)   bands (ev):

   -15.3520 -13.2971 -11.0879  -2.5804  -2.1868  -0.6684   8.0658   9.8457

          k =-0.1548 0.7574 0.0000 (  2694 PWs)   bands (ev):

   -15.3556 -13.2939 -11.0865  -2.5990  -2.1684  -0.6678   8.0661   9.8143

          k =-0.1548 0.7594 0.0000 (  2694 PWs)   bands (ev):

   -15.3599 -13.2901 -11.0847  -2.6192  -2.1484  -0.6672   8.0665   9.7809

          k =-0.1548 0.7614 0.0000 (  2694 PWs)   bands (ev):

   -15.3648 -13.2857 -11.0827  -2.6405  -2.1274  -0.6664   8.0670   9.7460

          k =-0.1548 0.7634 0.0000 (  2694 PWs)   bands (ev):

   -15.3704 -13.2808 -11.0804  -2.6627  -2.1055  -0.6655   8.0675   9.7100

          k =-0.1548 0.7654 0.0000 (  2690 PWs)   bands (ev):

   -15.3759 -13.2752 -11.0775  -2.6849  -2.0821  -0.6637   8.0682   9.6734

          k =-0.1548 0.7674 0.0000 (  2690 PWs)   bands (ev):

   -15.3827 -13.2692 -11.0747  -2.7084  -2.0590  -0.6626   8.0688   9.6359

          k =-0.1548 0.7694 0.0000 (  2688 PWs)   bands (ev):

   -15.3890 -13.2629 -11.0711  -2.7309  -2.0371  -0.6611   8.0695   9.5980

          k =-0.1548 0.7714 0.0000 (  2686 PWs)   bands (ev):

   -15.3969 -13.2558 -11.0677  -2.7552  -2.0113  -0.6594   8.0702   9.5597

          k =-0.1548 0.7734 0.0000 (  2686 PWs)   bands (ev):

   -15.4054 -13.2483 -11.0641  -2.7798  -1.9872  -0.6580   8.0710   9.5210

          k =-0.1548 0.7754 0.0000 (  2686 PWs)   bands (ev):

   -15.4145 -13.2403 -11.0602  -2.8046  -1.9628  -0.6565   8.0718   9.4820

          k =-0.1548 0.7774 0.0000 (  2684 PWs)   bands (ev):

   -15.4240 -13.2316 -11.0558  -2.8294  -1.9381  -0.6542   8.0726   9.4428

          k =-0.1548 0.7794 0.0000 (  2684 PWs)   bands (ev):

   -15.4341 -13.2227 -11.0514  -2.8546  -1.9135  -0.6525   8.0734   9.4034

          k =-0.1548 0.7814 0.0000 (  2684 PWs)   bands (ev):

   -15.4448 -13.2134 -11.0467  -2.8800  -1.8887  -0.6507   8.0743   9.3639

          k =-0.1548 0.7834 0.0000 (  2684 PWs)   bands (ev):

   -15.4560 -13.2036 -11.0417  -2.9055  -1.8639  -0.6488   8.0751   9.3243

          k =-0.1548 0.7854 0.0000 (  2686 PWs)   bands (ev):

   -15.4679 -13.1942 -11.0372  -2.9311  -1.8393  -0.6468   8.0760   9.2845

          k =-0.1528 0.7054 0.0000 (  2684 PWs)   bands (ev):

   -15.4659 -13.1977 -11.0225  -2.9283  -1.8378  -0.6823   8.0892   9.2762

          k =-0.1528 0.7074 0.0000 (  2684 PWs)   bands (ev):

   -15.4541 -13.2081 -11.0276  -2.9025  -1.8629  -0.6843   8.0884   9.3160

          k =-0.1528 0.7094 0.0000 (  2684 PWs)   bands (ev):

   -15.4428 -13.2181 -11.0325  -2.8768  -1.8880  -0.6862   8.0877   9.3556

          k =-0.1528 0.7114 0.0000 (  2684 PWs)   bands (ev):

   -15.4320 -13.2276 -11.0371  -2.8512  -1.9131  -0.6880   8.0870   9.3952

          k =-0.1528 0.7134 0.0000 (  2684 PWs)   bands (ev):

   -15.4218 -13.2367 -11.0414  -2.8257  -1.9380  -0.6896   8.0862   9.4346

          k =-0.1528 0.7154 0.0000 (  2686 PWs)   bands (ev):

   -15.4122 -13.2456 -11.0458  -2.8007  -1.9630  -0.6920   8.0855   9.4738

          k =-0.1528 0.7174 0.0000 (  2686 PWs)   bands (ev):

   -15.4030 -13.2537 -11.0496  -2.7755  -1.9876  -0.6935   8.0848   9.5129

          k =-0.1528 0.7194 0.0000 (  2686 PWs)   bands (ev):

   -15.3944 -13.2614 -11.0531  -2.7506  -2.0121  -0.6949   8.0841   9.5517

          k =-0.1528 0.7214 0.0000 (  2690 PWs)   bands (ev):

   -15.3876 -13.2687 -11.0569  -2.7273  -2.0371  -0.6965   8.0834   9.5900

          k =-0.1528 0.7234 0.0000 (  2690 PWs)   bands (ev):

   -15.3801 -13.2751 -11.0599  -2.7030  -2.0606  -0.6981   8.0828   9.6280

          k =-0.1528 0.7254 0.0000 (  2690 PWs)   bands (ev):

   -15.3732 -13.2812 -11.0627  -2.6791  -2.0842  -0.6992   8.0822   9.6656

          k =-0.1528 0.7274 0.0000 (  2694 PWs)   bands (ev):

   -15.3676 -13.2870 -11.0656  -2.6564  -2.1081  -0.7010   8.0817   9.7022

          k =-0.1528 0.7294 0.0000 (  2694 PWs)   bands (ev):

   -15.3620 -13.2920 -11.0678  -2.6336  -2.1305  -0.7019   8.0812   9.7383

          k =-0.1528 0.7314 0.0000 (  2694 PWs)   bands (ev):

   -15.3570 -13.2965 -11.0698  -2.6117  -2.1522  -0.7027   8.0808   9.7733

          k =-0.1528 0.7334 0.0000 (  2692 PWs)   bands (ev):

   -15.3526 -13.3001 -11.0714  -2.5908  -2.1728  -0.7025   8.0804   9.8068

          k =-0.1528 0.7354 0.0000 (  2692 PWs)   bands (ev):

   -15.3490 -13.3034 -11.0729  -2.5714  -2.1920  -0.7030   8.0800   9.8382

          k =-0.1528 0.7374 0.0000 (  2694 PWs)   bands (ev):

   -15.3463 -13.3062 -11.0748  -2.5542  -2.2094  -0.7035   8.0798   9.8669

          k =-0.1528 0.7394 0.0000 (  2694 PWs)   bands (ev):

   -15.3443 -13.3082 -11.0758  -2.5386  -2.2237  -0.7042   8.0796   9.8915

          k =-0.1528 0.7414 0.0000 (  2694 PWs)   bands (ev):

   -15.3426 -13.3097 -11.0764  -2.5271  -2.2351  -0.7045   8.0794   9.9112

          k =-0.1528 0.7434 0.0000 (  2696 PWs)   bands (ev):

   -15.3423 -13.3110 -11.0768  -2.5202  -2.2431  -0.7048   8.0793   9.9237

          k =-0.1528 0.7454 0.0000 (  2698 PWs)   bands (ev):

   -15.3423 -13.3113 -11.0775  -2.5177  -2.2457  -0.7054   8.0793   9.9278

          k =-0.1528 0.7474 0.0000 (  2696 PWs)   bands (ev):

   -15.3423 -13.3110 -11.0768  -2.5202  -2.2431  -0.7048   8.0793   9.9237

          k =-0.1528 0.7494 0.0000 (  2694 PWs)   bands (ev):

   -15.3426 -13.3097 -11.0764  -2.5271  -2.2351  -0.7045   8.0794   9.9111

          k =-0.1528 0.7514 0.0000 (  2694 PWs)   bands (ev):

   -15.3443 -13.3082 -11.0758  -2.5386  -2.2237  -0.7042   8.0796   9.8915

          k =-0.1528 0.7534 0.0000 (  2694 PWs)   bands (ev):

   -15.3463 -13.3062 -11.0748  -2.5542  -2.2094  -0.7035   8.0798   9.8669

          k =-0.1528 0.7554 0.0000 (  2692 PWs)   bands (ev):

   -15.3490 -13.3034 -11.0729  -2.5714  -2.1920  -0.7030   8.0800   9.8382

          k =-0.1528 0.7574 0.0000 (  2692 PWs)   bands (ev):

   -15.3526 -13.3001 -11.0714  -2.5908  -2.1728  -0.7025   8.0804   9.8067

          k =-0.1528 0.7594 0.0000 (  2694 PWs)   bands (ev):

   -15.3570 -13.2965 -11.0698  -2.6117  -2.1522  -0.7027   8.0808   9.7732

          k =-0.1528 0.7614 0.0000 (  2694 PWs)   bands (ev):

   -15.3620 -13.2920 -11.0678  -2.6336  -2.1305  -0.7019   8.0812   9.7383

          k =-0.1528 0.7634 0.0000 (  2694 PWs)   bands (ev):

   -15.3676 -13.2870 -11.0656  -2.6564  -2.1081  -0.7010   8.0817   9.7022

          k =-0.1528 0.7654 0.0000 (  2690 PWs)   bands (ev):

   -15.3732 -13.2812 -11.0627  -2.6791  -2.0842  -0.6992   8.0822   9.6655

          k =-0.1528 0.7674 0.0000 (  2690 PWs)   bands (ev):

   -15.3801 -13.2751 -11.0599  -2.7030  -2.0606  -0.6981   8.0828   9.6280

          k =-0.1528 0.7694 0.0000 (  2690 PWs)   bands (ev):

   -15.3876 -13.2687 -11.0569  -2.7273  -2.0371  -0.6965   8.0834   9.5900

          k =-0.1528 0.7714 0.0000 (  2686 PWs)   bands (ev):

   -15.3944 -13.2614 -11.0531  -2.7506  -2.0121  -0.6949   8.0841   9.5517

          k =-0.1528 0.7734 0.0000 (  2686 PWs)   bands (ev):

   -15.4030 -13.2537 -11.0496  -2.7755  -1.9876  -0.6935   8.0848   9.5129

          k =-0.1528 0.7754 0.0000 (  2686 PWs)   bands (ev):

   -15.4122 -13.2456 -11.0458  -2.8007  -1.9630  -0.6920   8.0855   9.4738

          k =-0.1528 0.7774 0.0000 (  2684 PWs)   bands (ev):

   -15.4218 -13.2367 -11.0414  -2.8258  -1.9380  -0.6896   8.0862   9.4346

          k =-0.1528 0.7794 0.0000 (  2684 PWs)   bands (ev):

   -15.4320 -13.2276 -11.0371  -2.8512  -1.9131  -0.6880   8.0870   9.3952

          k =-0.1528 0.7814 0.0000 (  2684 PWs)   bands (ev):

   -15.4428 -13.2181 -11.0325  -2.8768  -1.8880  -0.6862   8.0877   9.3556

          k =-0.1528 0.7834 0.0000 (  2684 PWs)   bands (ev):

   -15.4541 -13.2081 -11.0276  -2.9025  -1.8629  -0.6843   8.0884   9.3159

          k =-0.1528 0.7854 0.0000 (  2684 PWs)   bands (ev):

   -15.4659 -13.1977 -11.0225  -2.9283  -1.8378  -0.6823   8.0892   9.2762

          k =-0.1508 0.7054 0.0000 (  2684 PWs)   bands (ev):

   -15.4642 -13.2020 -11.0085  -2.9258  -1.8364  -0.7175   8.1024   9.2679

          k =-0.1508 0.7074 0.0000 (  2684 PWs)   bands (ev):

   -15.4523 -13.2126 -11.0135  -2.8998  -1.8618  -0.7195   8.1018   9.3077

          k =-0.1508 0.7094 0.0000 (  2684 PWs)   bands (ev):

   -15.4409 -13.2228 -11.0183  -2.8739  -1.8872  -0.7214   8.1012   9.3474

          k =-0.1508 0.7114 0.0000 (  2684 PWs)   bands (ev):

   -15.4300 -13.2325 -11.0228  -2.8481  -1.9124  -0.7232   8.1006   9.3871

          k =-0.1508 0.7134 0.0000 (  2684 PWs)   bands (ev):

   -15.4197 -13.2418 -11.0270  -2.8224  -1.9376  -0.7248   8.0999   9.4265

          k =-0.1508 0.7154 0.0000 (  2684 PWs)   bands (ev):

   -15.4099 -13.2506 -11.0310  -2.7968  -1.9627  -0.7264   8.0993   9.4658

          k =-0.1508 0.7174 0.0000 (  2688 PWs)   bands (ev):

   -15.4017 -13.2592 -11.0351  -2.7717  -1.9878  -0.7290   8.0987   9.5048

          k =-0.1508 0.7194 0.0000 (  2690 PWs)   bands (ev):

   -15.3933 -13.2671 -11.0390  -2.7477  -2.0134  -0.7304   8.0980   9.5436

          k =-0.1508 0.7214 0.0000 (  2690 PWs)   bands (ev):

   -15.3851 -13.2744 -11.0422  -2.7227  -2.0380  -0.7317   8.0975   9.5821

          k =-0.1508 0.7234 0.0000 (  2692 PWs)   bands (ev):

   -15.3777 -13.2813 -11.0452  -2.6980  -2.0642  -0.7333   8.0969   9.6202

          k =-0.1508 0.7254 0.0000 (  2690 PWs)   bands (ev):

   -15.3706 -13.2872 -11.0479  -2.6737  -2.0859  -0.7344   8.0964   9.6578

          k =-0.1508 0.7274 0.0000 (  2694 PWs)   bands (ev):

   -15.3650 -13.2931 -11.0507  -2.6505  -2.1103  -0.7363   8.0959   9.6945

          k =-0.1508 0.7294 0.0000 (  2694 PWs)   bands (ev):

   -15.3593 -13.2982 -11.0529  -2.6272  -2.1333  -0.7371   8.0955   9.7307

          k =-0.1508 0.7314 0.0000 (  2692 PWs)   bands (ev):

   -15.3542 -13.3025 -11.0548  -2.6046  -2.1556  -0.7370   8.0951   9.7657

          k =-0.1508 0.7334 0.0000 (  2692 PWs)   bands (ev):

   -15.3498 -13.3064 -11.0564  -2.5831  -2.1769  -0.7377   8.0947   9.7993

          k =-0.1508 0.7354 0.0000 (  2694 PWs)   bands (ev):

   -15.3464 -13.3100 -11.0586  -2.5632  -2.1969  -0.7383   8.0944   9.8308

          k =-0.1508 0.7374 0.0000 (  2692 PWs)   bands (ev):

   -15.3433 -13.3126 -11.0597  -2.5441  -2.2145  -0.7381   8.0942   9.8597

          k =-0.1508 0.7394 0.0000 (  2694 PWs)   bands (ev):

   -15.3413 -13.3148 -11.0607  -2.5284  -2.2303  -0.7395   8.0940   9.8843

          k =-0.1508 0.7414 0.0000 (  2696 PWs)   bands (ev):

   -15.3404 -13.3166 -11.0613  -2.5167  -2.2431  -0.7399   8.0938   9.9038

          k =-0.1508 0.7434 0.0000 (  2696 PWs)   bands (ev):

   -15.3394 -13.3176 -11.0617  -2.5087  -2.2510  -0.7400   8.0938   9.9166

          k =-0.1508 0.7454 0.0000 (  2698 PWs)   bands (ev):

   -15.3394 -13.3179 -11.0623  -2.5059  -2.2539  -0.7407   8.0937   9.9207

          k =-0.1508 0.7474 0.0000 (  2696 PWs)   bands (ev):

   -15.3394 -13.3176 -11.0617  -2.5087  -2.2510  -0.7400   8.0938   9.9166

          k =-0.1508 0.7494 0.0000 (  2696 PWs)   bands (ev):

   -15.3404 -13.3166 -11.0613  -2.5167  -2.2431  -0.7399   8.0938   9.9038

          k =-0.1508 0.7514 0.0000 (  2694 PWs)   bands (ev):

   -15.3413 -13.3148 -11.0607  -2.5284  -2.2303  -0.7395   8.0940   9.8843

          k =-0.1508 0.7534 0.0000 (  2692 PWs)   bands (ev):

   -15.3433 -13.3126 -11.0597  -2.5441  -2.2145  -0.7381   8.0942   9.8596

          k =-0.1508 0.7554 0.0000 (  2694 PWs)   bands (ev):

   -15.3464 -13.3100 -11.0586  -2.5632  -2.1969  -0.7383   8.0944   9.8308

          k =-0.1508 0.7574 0.0000 (  2692 PWs)   bands (ev):

   -15.3498 -13.3064 -11.0564  -2.5831  -2.1769  -0.7377   8.0947   9.7992

          k =-0.1508 0.7594 0.0000 (  2692 PWs)   bands (ev):

   -15.3542 -13.3025 -11.0548  -2.6046  -2.1556  -0.7370   8.0951   9.7657

          k =-0.1508 0.7614 0.0000 (  2694 PWs)   bands (ev):

   -15.3593 -13.2982 -11.0529  -2.6272  -2.1333  -0.7371   8.0955   9.7306

          k =-0.1508 0.7634 0.0000 (  2694 PWs)   bands (ev):

   -15.3650 -13.2931 -11.0507  -2.6505  -2.1103  -0.7363   8.0959   9.6945

          k =-0.1508 0.7654 0.0000 (  2690 PWs)   bands (ev):

   -15.3706 -13.2872 -11.0479  -2.6737  -2.0859  -0.7344   8.0964   9.6578

          k =-0.1508 0.7674 0.0000 (  2692 PWs)   bands (ev):

   -15.3777 -13.2813 -11.0452  -2.6981  -2.0642  -0.7333   8.0969   9.6201

          k =-0.1508 0.7694 0.0000 (  2690 PWs)   bands (ev):

   -15.3851 -13.2744 -11.0422  -2.7227  -2.0380  -0.7317   8.0975   9.5821

          k =-0.1508 0.7714 0.0000 (  2690 PWs)   bands (ev):

   -15.3933 -13.2671 -11.0390  -2.7477  -2.0134  -0.7304   8.0980   9.5436

          k =-0.1508 0.7734 0.0000 (  2688 PWs)   bands (ev):

   -15.4017 -13.2592 -11.0351  -2.7717  -1.9878  -0.7290   8.0987   9.5047

          k =-0.1508 0.7754 0.0000 (  2684 PWs)   bands (ev):

   -15.4099 -13.2506 -11.0310  -2.7968  -1.9627  -0.7264   8.0993   9.4658

          k =-0.1508 0.7774 0.0000 (  2684 PWs)   bands (ev):

   -15.4197 -13.2418 -11.0270  -2.8224  -1.9376  -0.7248   8.0999   9.4265

          k =-0.1508 0.7794 0.0000 (  2684 PWs)   bands (ev):

   -15.4300 -13.2325 -11.0228  -2.8481  -1.9124  -0.7232   8.1006   9.3870

          k =-0.1508 0.7814 0.0000 (  2684 PWs)   bands (ev):

   -15.4409 -13.2228 -11.0182  -2.8739  -1.8872  -0.7214   8.1012   9.3474

          k =-0.1508 0.7834 0.0000 (  2684 PWs)   bands (ev):

   -15.4523 -13.2126 -11.0135  -2.8998  -1.8618  -0.7195   8.1018   9.3077

          k =-0.1508 0.7854 0.0000 (  2684 PWs)   bands (ev):

   -15.4642 -13.2020 -11.0084  -2.9258  -1.8364  -0.7175   8.1024   9.2679

          k =-0.1488 0.7054 0.0000 (  2684 PWs)   bands (ev):

   -15.4626 -13.2062 -10.9943  -2.9235  -1.8349  -0.7524   8.1158   9.2598

          k =-0.1488 0.7074 0.0000 (  2684 PWs)   bands (ev):

   -15.4506 -13.2170 -10.9993  -2.8973  -1.8605  -0.7544   8.1153   9.2996

          k =-0.1488 0.7094 0.0000 (  2684 PWs)   bands (ev):

   -15.4391 -13.2274 -11.0039  -2.8712  -1.8861  -0.7563   8.1148   9.3394

          k =-0.1488 0.7114 0.0000 (  2684 PWs)   bands (ev):

   -15.4281 -13.2373 -11.0084  -2.8452  -1.9116  -0.7581   8.1142   9.3790

          k =-0.1488 0.7134 0.0000 (  2684 PWs)   bands (ev):

   -15.4177 -13.2468 -11.0125  -2.8192  -1.9370  -0.7598   8.1137   9.4185

          k =-0.1488 0.7154 0.0000 (  2686 PWs)   bands (ev):

   -15.4087 -13.2559 -11.0165  -2.7935  -1.9624  -0.7617   8.1132   9.4578

          k =-0.1488 0.7174 0.0000 (  2688 PWs)   bands (ev):

   -15.3996 -13.2644 -11.0206  -2.7690  -1.9884  -0.7632   8.1126   9.4969

          k =-0.1488 0.7194 0.0000 (  2690 PWs)   bands (ev):

   -15.3910 -13.2726 -11.0243  -2.7437  -2.0137  -0.7654   8.1121   9.5357

          k =-0.1488 0.7214 0.0000 (  2690 PWs)   bands (ev):

   -15.3828 -13.2800 -11.0274  -2.7184  -2.0386  -0.7666   8.1116   9.5743

          k =-0.1488 0.7234 0.0000 (  2692 PWs)   bands (ev):

   -15.3753 -13.2870 -11.0303  -2.6934  -2.0652  -0.7683   8.1111   9.6124

          k =-0.1488 0.7254 0.0000 (  2694 PWs)   bands (ev):

   -15.3686 -13.2936 -11.0331  -2.6693  -2.0900  -0.7695   8.1106   9.6500

          k =-0.1488 0.7274 0.0000 (  2692 PWs)   bands (ev):

   -15.3623 -13.2988 -11.0357  -2.6449  -2.1122  -0.7704   8.1102   9.6869

          k =-0.1488 0.7294 0.0000 (  2692 PWs)   bands (ev):

   -15.3566 -13.3040 -11.0378  -2.6211  -2.1357  -0.7712   8.1098   9.7231

          k =-0.1488 0.7314 0.0000 (  2692 PWs)   bands (ev):

   -15.3515 -13.3087 -11.0397  -2.5980  -2.1586  -0.7720   8.1095   9.7582

          k =-0.1488 0.7334 0.0000 (  2692 PWs)   bands (ev):

   -15.3471 -13.3127 -11.0414  -2.5758  -2.1806  -0.7727   8.1092   9.7919

          k =-0.1488 0.7354 0.0000 (  2692 PWs)   bands (ev):

   -15.3436 -13.3161 -11.0435  -2.5542  -2.2010  -0.7726   8.1089   9.8235

          k =-0.1488 0.7374 0.0000 (  2692 PWs)   bands (ev):

   -15.3405 -13.3190 -11.0446  -2.5351  -2.2199  -0.7731   8.1087   9.8524

          k =-0.1488 0.7394 0.0000 (  2694 PWs)   bands (ev):

   -15.3389 -13.3215 -11.0455  -2.5192  -2.2369  -0.7736   8.1085   9.8772

          k =-0.1488 0.7414 0.0000 (  2696 PWs)   bands (ev):

   -15.3376 -13.3231 -11.0462  -2.5060  -2.2502  -0.7749   8.1084   9.8967

          k =-0.1488 0.7434 0.0000 (  2696 PWs)   bands (ev):

   -15.3365 -13.3241 -11.0466  -2.4973  -2.2588  -0.7750   8.1083   9.9095

          k =-0.1488 0.7454 0.0000 (  2698 PWs)   bands (ev):

   -15.3365 -13.3244 -11.0472  -2.4943  -2.2619  -0.7756   8.1083   9.9137

          k =-0.1488 0.7474 0.0000 (  2696 PWs)   bands (ev):

   -15.3365 -13.3241 -11.0466  -2.4973  -2.2588  -0.7750   8.1083   9.9095

          k =-0.1488 0.7494 0.0000 (  2696 PWs)   bands (ev):

   -15.3376 -13.3231 -11.0462  -2.5060  -2.2502  -0.7749   8.1084   9.8967

          k =-0.1488 0.7514 0.0000 (  2694 PWs)   bands (ev):

   -15.3389 -13.3215 -11.0455  -2.5192  -2.2369  -0.7736   8.1085   9.8772

          k =-0.1488 0.7534 0.0000 (  2692 PWs)   bands (ev):

   -15.3405 -13.3190 -11.0446  -2.5351  -2.2199  -0.7731   8.1087   9.8524

          k =-0.1488 0.7554 0.0000 (  2692 PWs)   bands (ev):

   -15.3436 -13.3161 -11.0435  -2.5542  -2.2010  -0.7726   8.1089   9.8235

          k =-0.1488 0.7574 0.0000 (  2692 PWs)   bands (ev):

   -15.3471 -13.3127 -11.0414  -2.5758  -2.1806  -0.7727   8.1092   9.7918

          k =-0.1488 0.7594 0.0000 (  2692 PWs)   bands (ev):

   -15.3515 -13.3087 -11.0397  -2.5980  -2.1586  -0.7720   8.1095   9.7582

          k =-0.1488 0.7614 0.0000 (  2692 PWs)   bands (ev):

   -15.3566 -13.3040 -11.0378  -2.6211  -2.1357  -0.7712   8.1098   9.7231

          k =-0.1488 0.7634 0.0000 (  2692 PWs)   bands (ev):

   -15.3623 -13.2988 -11.0357  -2.6449  -2.1122  -0.7704   8.1102   9.6869

          k =-0.1488 0.7654 0.0000 (  2694 PWs)   bands (ev):

   -15.3686 -13.2936 -11.0331  -2.6693  -2.0900  -0.7695   8.1106   9.6500

          k =-0.1488 0.7674 0.0000 (  2692 PWs)   bands (ev):

   -15.3753 -13.2870 -11.0303  -2.6934  -2.0652  -0.7683   8.1111   9.6124

          k =-0.1488 0.7694 0.0000 (  2690 PWs)   bands (ev):

   -15.3828 -13.2800 -11.0274  -2.7184  -2.0386  -0.7666   8.1116   9.5743

          k =-0.1488 0.7714 0.0000 (  2690 PWs)   bands (ev):

   -15.3910 -13.2726 -11.0243  -2.7437  -2.0137  -0.7654   8.1121   9.5357

          k =-0.1488 0.7734 0.0000 (  2688 PWs)   bands (ev):

   -15.3996 -13.2644 -11.0206  -2.7690  -1.9884  -0.7632   8.1126   9.4969

          k =-0.1488 0.7754 0.0000 (  2686 PWs)   bands (ev):

   -15.4087 -13.2559 -11.0165  -2.7935  -1.9624  -0.7617   8.1132   9.4577

          k =-0.1488 0.7774 0.0000 (  2684 PWs)   bands (ev):

   -15.4177 -13.2468 -11.0125  -2.8192  -1.9370  -0.7598   8.1137   9.4185

          k =-0.1488 0.7794 0.0000 (  2684 PWs)   bands (ev):

   -15.4281 -13.2373 -11.0084  -2.8452  -1.9116  -0.7581   8.1142   9.3790

          k =-0.1488 0.7814 0.0000 (  2684 PWs)   bands (ev):

   -15.4391 -13.2274 -11.0039  -2.8712  -1.8861  -0.7563   8.1148   9.3393

          k =-0.1488 0.7834 0.0000 (  2684 PWs)   bands (ev):

   -15.4506 -13.2170 -10.9993  -2.8973  -1.8605  -0.7544   8.1153   9.2996

          k =-0.1488 0.7854 0.0000 (  2684 PWs)   bands (ev):

   -15.4626 -13.2062 -10.9943  -2.9235  -1.8349  -0.7524   8.1158   9.2597

          k =-0.1468 0.7054 0.0000 (  2682 PWs)   bands (ev):

   -15.4608 -13.2103 -10.9801  -2.9214  -1.8332  -0.7862   8.1291   9.2518

          k =-0.1468 0.7074 0.0000 (  2684 PWs)   bands (ev):

   -15.4490 -13.2214 -10.9850  -2.8950  -1.8591  -0.7891   8.1288   9.2916

          k =-0.1468 0.7094 0.0000 (  2684 PWs)   bands (ev):

   -15.4374 -13.2320 -10.9896  -2.8687  -1.8848  -0.7910   8.1284   9.3314

          k =-0.1468 0.7114 0.0000 (  2684 PWs)   bands (ev):

   -15.4263 -13.2421 -10.9939  -2.8425  -1.9106  -0.7928   8.1280   9.3711

          k =-0.1468 0.7134 0.0000 (  2686 PWs)   bands (ev):

   -15.4167 -13.2518 -10.9981  -2.8165  -1.9362  -0.7948   8.1275   9.4105

          k =-0.1468 0.7154 0.0000 (  2688 PWs)   bands (ev):

   -15.4070 -13.2610 -11.0023  -2.7915  -1.9627  -0.7964   8.1271   9.4499

          k =-0.1468 0.7174 0.0000 (  2688 PWs)   bands (ev):

   -15.3975 -13.2697 -11.0059  -2.7656  -1.9882  -0.7979   8.1266   9.4891

          k =-0.1468 0.7194 0.0000 (  2690 PWs)   bands (ev):

   -15.3888 -13.2780 -11.0095  -2.7401  -2.0137  -0.8000   8.1262   9.5280

          k =-0.1468 0.7214 0.0000 (  2690 PWs)   bands (ev):

   -15.3805 -13.2856 -11.0126  -2.7145  -2.0390  -0.8013   8.1257   9.5666

          k =-0.1468 0.7234 0.0000 (  2692 PWs)   bands (ev):

   -15.3729 -13.2927 -11.0155  -2.6891  -2.0659  -0.8029   8.1253   9.6047

          k =-0.1468 0.7254 0.0000 (  2692 PWs)   bands (ev):

   -15.3661 -13.2991 -11.0182  -2.6645  -2.0911  -0.8033   8.1249   9.6425

          k =-0.1468 0.7274 0.0000 (  2694 PWs)   bands (ev):

   -15.3601 -13.3050 -11.0207  -2.6398  -2.1160  -0.8051   8.1246   9.6794

          k =-0.1468 0.7294 0.0000 (  2692 PWs)   bands (ev):

   -15.3541 -13.3101 -11.0228  -2.6155  -2.1378  -0.8059   8.1242   9.7156

          k =-0.1468 0.7314 0.0000 (  2692 PWs)   bands (ev):

   -15.3489 -13.3148 -11.0247  -2.5918  -2.1612  -0.8067   8.1239   9.7508

          k =-0.1468 0.7334 0.0000 (  2692 PWs)   bands (ev):

   -15.3447 -13.3189 -11.0270  -2.5682  -2.1836  -0.8067   8.1237   9.7846

          k =-0.1468 0.7354 0.0000 (  2692 PWs)   bands (ev):

   -15.3409 -13.3224 -11.0284  -2.5465  -2.2051  -0.8073   8.1234   9.8163

          k =-0.1468 0.7374 0.0000 (  2692 PWs)   bands (ev):

   -15.3378 -13.3253 -11.0295  -2.5266  -2.2249  -0.8078   8.1232   9.8452

          k =-0.1468 0.7394 0.0000 (  2694 PWs)   bands (ev):

   -15.3362 -13.3278 -11.0303  -2.5097  -2.2428  -0.8083   8.1231   9.8702

          k =-0.1468 0.7414 0.0000 (  2696 PWs)   bands (ev):

   -15.3348 -13.3295 -11.0310  -2.4955  -2.2571  -0.8096   8.1230   9.8897

          k =-0.1468 0.7434 0.0000 (  2698 PWs)   bands (ev):

   -15.3341 -13.3305 -11.0319  -2.4862  -2.2666  -0.8103   8.1229   9.9023

          k =-0.1468 0.7454 0.0000 (  2698 PWs)   bands (ev):

   -15.3338 -13.3308 -11.0320  -2.4828  -2.2698  -0.8104   8.1229   9.9068

          k =-0.1468 0.7474 0.0000 (  2698 PWs)   bands (ev):

   -15.3341 -13.3305 -11.0319  -2.4862  -2.2666  -0.8103   8.1229   9.9023

          k =-0.1468 0.7494 0.0000 (  2696 PWs)   bands (ev):

   -15.3348 -13.3295 -11.0310  -2.4955  -2.2571  -0.8096   8.1230   9.8897

          k =-0.1468 0.7514 0.0000 (  2694 PWs)   bands (ev):

   -15.3362 -13.3278 -11.0303  -2.5097  -2.2428  -0.8083   8.1231   9.8701

          k =-0.1468 0.7534 0.0000 (  2692 PWs)   bands (ev):

   -15.3378 -13.3253 -11.0295  -2.5266  -2.2249  -0.8078   8.1232   9.8452

          k =-0.1468 0.7554 0.0000 (  2692 PWs)   bands (ev):

   -15.3409 -13.3224 -11.0284  -2.5465  -2.2051  -0.8073   8.1234   9.8163

          k =-0.1468 0.7574 0.0000 (  2692 PWs)   bands (ev):

   -15.3447 -13.3189 -11.0270  -2.5682  -2.1836  -0.8067   8.1237   9.7845

          k =-0.1468 0.7594 0.0000 (  2692 PWs)   bands (ev):

   -15.3489 -13.3148 -11.0247  -2.5918  -2.1612  -0.8067   8.1239   9.7508

          k =-0.1468 0.7614 0.0000 (  2692 PWs)   bands (ev):

   -15.3541 -13.3101 -11.0228  -2.6155  -2.1378  -0.8059   8.1242   9.7156

          k =-0.1468 0.7634 0.0000 (  2694 PWs)   bands (ev):

   -15.3601 -13.3050 -11.0207  -2.6398  -2.1160  -0.8051   8.1246   9.6794

          k =-0.1468 0.7654 0.0000 (  2692 PWs)   bands (ev):

   -15.3661 -13.2991 -11.0182  -2.6645  -2.0911  -0.8033   8.1249   9.6424

          k =-0.1468 0.7674 0.0000 (  2692 PWs)   bands (ev):

   -15.3729 -13.2927 -11.0155  -2.6891  -2.0659  -0.8029   8.1253   9.6047

          k =-0.1468 0.7694 0.0000 (  2690 PWs)   bands (ev):

   -15.3805 -13.2856 -11.0126  -2.7145  -2.0390  -0.8013   8.1257   9.5666

          k =-0.1468 0.7714 0.0000 (  2690 PWs)   bands (ev):

   -15.3888 -13.2780 -11.0095  -2.7401  -2.0137  -0.8000   8.1262   9.5280

          k =-0.1468 0.7734 0.0000 (  2688 PWs)   bands (ev):

   -15.3975 -13.2697 -11.0059  -2.7656  -1.9882  -0.7979   8.1266   9.4891

          k =-0.1468 0.7754 0.0000 (  2688 PWs)   bands (ev):

   -15.4070 -13.2610 -11.0023  -2.7915  -1.9627  -0.7964   8.1271   9.4499

          k =-0.1468 0.7774 0.0000 (  2686 PWs)   bands (ev):

   -15.4167 -13.2518 -10.9981  -2.8165  -1.9362  -0.7948   8.1275   9.4105

          k =-0.1468 0.7794 0.0000 (  2684 PWs)   bands (ev):

   -15.4263 -13.2421 -10.9939  -2.8425  -1.9106  -0.7928   8.1280   9.3711

          k =-0.1468 0.7814 0.0000 (  2684 PWs)   bands (ev):

   -15.4374 -13.2320 -10.9896  -2.8687  -1.8848  -0.7910   8.1284   9.3314

          k =-0.1468 0.7834 0.0000 (  2684 PWs)   bands (ev):

   -15.4490 -13.2214 -10.9850  -2.8950  -1.8591  -0.7891   8.1288   9.2916

          k =-0.1468 0.7854 0.0000 (  2682 PWs)   bands (ev):

   -15.4608 -13.2103 -10.9801  -2.9214  -1.8332  -0.7862   8.1291   9.2518

          k =-0.1448 0.7054 0.0000 (  2684 PWs)   bands (ev):

   -15.4594 -13.2145 -10.9663  -2.9205  -1.8315  -0.8208   8.1426   9.2438

          k =-0.1448 0.7074 0.0000 (  2684 PWs)   bands (ev):

   -15.4472 -13.2257 -10.9710  -2.8940  -1.8575  -0.8228   8.1423   9.2837

          k =-0.1448 0.7094 0.0000 (  2684 PWs)   bands (ev):

   -15.4357 -13.2365 -10.9752  -2.8665  -1.8834  -0.8253   8.1421   9.3235

          k =-0.1448 0.7114 0.0000 (  2686 PWs)   bands (ev):

   -15.4255 -13.2469 -10.9795  -2.8402  -1.9093  -0.8275   8.1418   9.3631

          k =-0.1448 0.7134 0.0000 (  2688 PWs)   bands (ev):

   -15.4151 -13.2567 -10.9839  -2.8149  -1.9361  -0.8292   8.1414   9.4027

          k =-0.1448 0.7154 0.0000 (  2688 PWs)   bands (ev):

   -15.4050 -13.2660 -10.9877  -2.7886  -1.9620  -0.8308   8.1411   9.4421

          k =-0.1448 0.7174 0.0000 (  2688 PWs)   bands (ev):

   -15.3955 -13.2749 -10.9912  -2.7625  -1.9877  -0.8323   8.1407   9.4814

          k =-0.1448 0.7194 0.0000 (  2688 PWs)   bands (ev):

   -15.3865 -13.2832 -10.9944  -2.7364  -2.0133  -0.8337   8.1404   9.5203

          k =-0.1448 0.7214 0.0000 (  2688 PWs)   bands (ev):

   -15.3783 -13.2908 -10.9977  -2.7107  -2.0390  -0.8349   8.1400   9.5590

          k =-0.1448 0.7234 0.0000 (  2688 PWs)   bands (ev):

   -15.3705 -13.2980 -11.0005  -2.6850  -2.0644  -0.8360   8.1397   9.5973

          k =-0.1448 0.7254 0.0000 (  2692 PWs)   bands (ev):

   -15.3638 -13.3048 -11.0032  -2.6601  -2.0919  -0.8377   8.1393   9.6350

          k =-0.1448 0.7274 0.0000 (  2694 PWs)   bands (ev):

   -15.3577 -13.3109 -11.0057  -2.6350  -2.1173  -0.8395   8.1390   9.6719

          k =-0.1448 0.7294 0.0000 (  2694 PWs)   bands (ev):

   -15.3518 -13.3163 -11.0078  -2.6102  -2.1418  -0.8403   8.1387   9.7083

          k =-0.1448 0.7314 0.0000 (  2692 PWs)   bands (ev):

   -15.3467 -13.3208 -11.0103  -2.5852  -2.1633  -0.8405   8.1385   9.7435

          k =-0.1448 0.7334 0.0000 (  2692 PWs)   bands (ev):

   -15.3422 -13.3250 -11.0119  -2.5617  -2.1866  -0.8411   8.1383   9.7773

          k =-0.1448 0.7354 0.0000 (  2692 PWs)   bands (ev):

   -15.3384 -13.3286 -11.0132  -2.5393  -2.2088  -0.8417   8.1381   9.8091

          k =-0.1448 0.7374 0.0000 (  2694 PWs)   bands (ev):

   -15.3360 -13.3318 -11.0143  -2.5192  -2.2299  -0.8423   8.1379   9.8380

          k =-0.1448 0.7394 0.0000 (  2694 PWs)   bands (ev):

   -15.3335 -13.3341 -11.0152  -2.5006  -2.2484  -0.8427   8.1377   9.8632

          k =-0.1448 0.7414 0.0000 (  2696 PWs)   bands (ev):

   -15.3322 -13.3358 -11.0158  -2.4854  -2.2638  -0.8440   8.1376   9.8827

          k =-0.1448 0.7434 0.0000 (  2698 PWs)   bands (ev):

   -15.3315 -13.3368 -11.0167  -2.4752  -2.2740  -0.8447   8.1376   9.8954

          k =-0.1448 0.7454 0.0000 (  2698 PWs)   bands (ev):

   -15.3311 -13.3372 -11.0168  -2.4715  -2.2777  -0.8448   8.1376   9.8999

          k =-0.1448 0.7474 0.0000 (  2698 PWs)   bands (ev):

   -15.3315 -13.3368 -11.0167  -2.4752  -2.2740  -0.8447   8.1376   9.8954

          k =-0.1448 0.7494 0.0000 (  2696 PWs)   bands (ev):

   -15.3322 -13.3358 -11.0158  -2.4854  -2.2638  -0.8440   8.1376   9.8827

          k =-0.1448 0.7514 0.0000 (  2694 PWs)   bands (ev):

   -15.3335 -13.3341 -11.0152  -2.5006  -2.2484  -0.8427   8.1377   9.8631

          k =-0.1448 0.7534 0.0000 (  2694 PWs)   bands (ev):

   -15.3360 -13.3318 -11.0143  -2.5192  -2.2299  -0.8423   8.1379   9.8379

          k =-0.1448 0.7554 0.0000 (  2692 PWs)   bands (ev):

   -15.3384 -13.3286 -11.0132  -2.5393  -2.2088  -0.8417   8.1381   9.8091

          k =-0.1448 0.7574 0.0000 (  2692 PWs)   bands (ev):

   -15.3422 -13.3250 -11.0119  -2.5617  -2.1866  -0.8411   8.1383   9.7773

          k =-0.1448 0.7594 0.0000 (  2692 PWs)   bands (ev):

   -15.3467 -13.3208 -11.0103  -2.5852  -2.1633  -0.8405   8.1385   9.7435

          k =-0.1448 0.7614 0.0000 (  2694 PWs)   bands (ev):

   -15.3518 -13.3163 -11.0078  -2.6102  -2.1418  -0.8403   8.1387   9.7082

          k =-0.1448 0.7634 0.0000 (  2694 PWs)   bands (ev):

   -15.3577 -13.3109 -11.0057  -2.6350  -2.1173  -0.8395   8.1390   9.6719

          k =-0.1448 0.7654 0.0000 (  2692 PWs)   bands (ev):

   -15.3638 -13.3048 -11.0032  -2.6602  -2.0919  -0.8377   8.1393   9.6349

          k =-0.1448 0.7674 0.0000 (  2688 PWs)   bands (ev):

   -15.3705 -13.2980 -11.0005  -2.6850  -2.0644  -0.8360   8.1397   9.5973

          k =-0.1448 0.7694 0.0000 (  2688 PWs)   bands (ev):

   -15.3783 -13.2908 -10.9977  -2.7107  -2.0390  -0.8349   8.1400   9.5590

          k =-0.1448 0.7714 0.0000 (  2688 PWs)   bands (ev):

   -15.3865 -13.2832 -10.9944  -2.7365  -2.0133  -0.8337   8.1404   9.5203

          k =-0.1448 0.7734 0.0000 (  2688 PWs)   bands (ev):

   -15.3955 -13.2749 -10.9912  -2.7625  -1.9877  -0.8323   8.1407   9.4813

          k =-0.1448 0.7754 0.0000 (  2688 PWs)   bands (ev):

   -15.4050 -13.2660 -10.9877  -2.7887  -1.9620  -0.8308   8.1411   9.4421

          k =-0.1448 0.7774 0.0000 (  2688 PWs)   bands (ev):

   -15.4151 -13.2567 -10.9839  -2.8149  -1.9361  -0.8292   8.1414   9.4027

          k =-0.1448 0.7794 0.0000 (  2686 PWs)   bands (ev):

   -15.4255 -13.2469 -10.9795  -2.8402  -1.9093  -0.8275   8.1418   9.3631

          k =-0.1448 0.7814 0.0000 (  2684 PWs)   bands (ev):

   -15.4357 -13.2365 -10.9752  -2.8665  -1.8834  -0.8253   8.1421   9.3235

          k =-0.1448 0.7834 0.0000 (  2684 PWs)   bands (ev):

   -15.4472 -13.2257 -10.9710  -2.8940  -1.8575  -0.8228   8.1423   9.2837

          k =-0.1448 0.7854 0.0000 (  2684 PWs)   bands (ev):

   -15.4594 -13.2145 -10.9663  -2.9206  -1.8315  -0.8208   8.1426   9.2438

          k =-0.1428 0.7054 0.0000 (  2684 PWs)   bands (ev):

   -15.4580 -13.2186 -10.9520  -2.9188  -1.8296  -0.8549   8.1560   9.2359

          k =-0.1428 0.7074 0.0000 (  2684 PWs)   bands (ev):

   -15.4457 -13.2300 -10.9567  -2.8922  -1.8557  -0.8569   8.1559   9.2759

          k =-0.1428 0.7094 0.0000 (  2686 PWs)   bands (ev):

   -15.4349 -13.2410 -10.9612  -2.8656  -1.8819  -0.8591   8.1558   9.3156

          k =-0.1428 0.7114 0.0000 (  2686 PWs)   bands (ev):

   -15.4239 -13.2514 -10.9653  -2.8390  -1.9088  -0.8608   8.1556   9.3555

          k =-0.1428 0.7134 0.0000 (  2688 PWs)   bands (ev):

   -15.4134 -13.2615 -10.9693  -2.8125  -1.9350  -0.8633   8.1553   9.3950

          k =-0.1428 0.7154 0.0000 (  2688 PWs)   bands (ev):

   -15.4032 -13.2710 -10.9730  -2.7860  -1.9610  -0.8649   8.1551   9.4345

          k =-0.1428 0.7174 0.0000 (  2686 PWs)   bands (ev):

   -15.3935 -13.2797 -10.9764  -2.7596  -1.9870  -0.8655   8.1549   9.4738

          k =-0.1428 0.7194 0.0000 (  2686 PWs)   bands (ev):

   -15.3845 -13.2881 -10.9796  -2.7333  -2.0129  -0.8669   8.1546   9.5128

          k =-0.1428 0.7214 0.0000 (  2686 PWs)   bands (ev):

   -15.3760 -13.2960 -10.9825  -2.7071  -2.0387  -0.8682   8.1543   9.5515

          k =-0.1428 0.7234 0.0000 (  2688 PWs)   bands (ev):

   -15.3684 -13.3035 -10.9856  -2.6814  -2.0645  -0.8702   8.1540   9.5898

          k =-0.1428 0.7254 0.0000 (  2692 PWs)   bands (ev):

   -15.3615 -13.3105 -10.9882  -2.6562  -2.0924  -0.8718   8.1538   9.6275

          k =-0.1428 0.7274 0.0000 (  2694 PWs)   bands (ev):

   -15.3554 -13.3167 -10.9907  -2.6306  -2.1182  -0.8736   8.1535   9.6646

          k =-0.1428 0.7294 0.0000 (  2692 PWs)   bands (ev):

   -15.3494 -13.3220 -10.9927  -2.6043  -2.1429  -0.8738   8.1533   9.7010

          k =-0.1428 0.7314 0.0000 (  2692 PWs)   bands (ev):

   -15.3443 -13.3268 -10.9952  -2.5798  -2.1652  -0.8746   8.1531   9.7363

          k =-0.1428 0.7334 0.0000 (  2692 PWs)   bands (ev):

   -15.3397 -13.3311 -10.9968  -2.5557  -2.1891  -0.8753   8.1529   9.7702

          k =-0.1428 0.7354 0.0000 (  2692 PWs)   bands (ev):

   -15.3359 -13.3347 -10.9981  -2.5326  -2.2121  -0.8759   8.1527   9.8020

          k =-0.1428 0.7374 0.0000 (  2694 PWs)   bands (ev):

   -15.3335 -13.3380 -10.9991  -2.5116  -2.2340  -0.8765   8.1526   9.8310

          k =-0.1428 0.7394 0.0000 (  2694 PWs)   bands (ev):

   -15.3310 -13.3403 -11.0000  -2.4919  -2.2536  -0.8768   8.1525   9.8562

          k =-0.1428 0.7414 0.0000 (  2696 PWs)   bands (ev):

   -15.3295 -13.3420 -11.0010  -2.4756  -2.2700  -0.8777   8.1524   9.8759

          k =-0.1428 0.7434 0.0000 (  2698 PWs)   bands (ev):

   -15.3289 -13.3431 -11.0014  -2.4644  -2.2814  -0.8789   8.1523   9.8886

          k =-0.1428 0.7454 0.0000 (  2698 PWs)   bands (ev):

   -15.3285 -13.3434 -11.0016  -2.4604  -2.2854  -0.8789   8.1523   9.8931

          k =-0.1428 0.7474 0.0000 (  2698 PWs)   bands (ev):

   -15.3289 -13.3431 -11.0014  -2.4644  -2.2814  -0.8789   8.1523   9.8886

          k =-0.1428 0.7494 0.0000 (  2696 PWs)   bands (ev):

   -15.3296 -13.3420 -11.0010  -2.4756  -2.2700  -0.8777   8.1524   9.8759

          k =-0.1428 0.7514 0.0000 (  2694 PWs)   bands (ev):

   -15.3310 -13.3403 -11.0000  -2.4919  -2.2536  -0.8768   8.1525   9.8562

          k =-0.1428 0.7534 0.0000 (  2694 PWs)   bands (ev):

   -15.3335 -13.3380 -10.9991  -2.5116  -2.2340  -0.8765   8.1526   9.8309

          k =-0.1428 0.7554 0.0000 (  2692 PWs)   bands (ev):

   -15.3359 -13.3347 -10.9981  -2.5326  -2.2121  -0.8759   8.1527   9.8020

          k =-0.1428 0.7574 0.0000 (  2692 PWs)   bands (ev):

   -15.3397 -13.3311 -10.9968  -2.5557  -2.1891  -0.8753   8.1529   9.7702

          k =-0.1428 0.7594 0.0000 (  2692 PWs)   bands (ev):

   -15.3443 -13.3268 -10.9952  -2.5798  -2.1652  -0.8746   8.1531   9.7363

          k =-0.1428 0.7614 0.0000 (  2692 PWs)   bands (ev):

   -15.3494 -13.3220 -10.9927  -2.6043  -2.1429  -0.8738   8.1533   9.7010

          k =-0.1428 0.7634 0.0000 (  2694 PWs)   bands (ev):

   -15.3554 -13.3167 -10.9907  -2.6306  -2.1181  -0.8736   8.1535   9.6646

          k =-0.1428 0.7654 0.0000 (  2692 PWs)   bands (ev):

   -15.3615 -13.3105 -10.9882  -2.6562  -2.0924  -0.8718   8.1538   9.6275

          k =-0.1428 0.7674 0.0000 (  2688 PWs)   bands (ev):

   -15.3684 -13.3035 -10.9856  -2.6814  -2.0645  -0.8702   8.1540   9.5898

          k =-0.1428 0.7694 0.0000 (  2686 PWs)   bands (ev):

   -15.3760 -13.2960 -10.9825  -2.7071  -2.0387  -0.8682   8.1543   9.5515

          k =-0.1428 0.7714 0.0000 (  2686 PWs)   bands (ev):

   -15.3845 -13.2881 -10.9796  -2.7333  -2.0129  -0.8669   8.1546   9.5128

          k =-0.1428 0.7734 0.0000 (  2686 PWs)   bands (ev):

   -15.3935 -13.2797 -10.9764  -2.7596  -1.9870  -0.8655   8.1549   9.4737

          k =-0.1428 0.7754 0.0000 (  2688 PWs)   bands (ev):

   -15.4032 -13.2710 -10.9730  -2.7860  -1.9610  -0.8649   8.1551   9.4344

          k =-0.1428 0.7774 0.0000 (  2688 PWs)   bands (ev):

   -15.4134 -13.2615 -10.9693  -2.8125  -1.9350  -0.8633   8.1553   9.3950

          k =-0.1428 0.7794 0.0000 (  2686 PWs)   bands (ev):

   -15.4239 -13.2514 -10.9653  -2.8390  -1.9088  -0.8608   8.1556   9.3555

          k =-0.1428 0.7814 0.0000 (  2686 PWs)   bands (ev):

   -15.4349 -13.2410 -10.9612  -2.8656  -1.8819  -0.8591   8.1558   9.3156

          k =-0.1428 0.7834 0.0000 (  2684 PWs)   bands (ev):

   -15.4457 -13.2300 -10.9566  -2.8922  -1.8557  -0.8569   8.1559   9.2759

          k =-0.1428 0.7854 0.0000 (  2684 PWs)   bands (ev):

   -15.4580 -13.2186 -10.9520  -2.9189  -1.8296  -0.8549   8.1560   9.2359

          k =-0.1408 0.7054 0.0000 (  2682 PWs)   bands (ev):

   -15.4566 -13.2226 -10.9371  -2.9168  -1.8269  -0.8877   8.1696   9.2282

          k =-0.1408 0.7074 0.0000 (  2686 PWs)   bands (ev):

   -15.4453 -13.2343 -10.9424  -2.8906  -1.8538  -0.8910   8.1696   9.2680

          k =-0.1408 0.7094 0.0000 (  2688 PWs)   bands (ev):

   -15.4337 -13.2454 -10.9471  -2.8648  -1.8811  -0.8929   8.1695   9.3079

          k =-0.1408 0.7114 0.0000 (  2688 PWs)   bands (ev):

   -15.4223 -13.2561 -10.9512  -2.8381  -1.9074  -0.8948   8.1694   9.3477

          k =-0.1408 0.7134 0.0000 (  2686 PWs)   bands (ev):

   -15.4115 -13.2662 -10.9546  -2.8103  -1.9336  -0.8963   8.1693   9.3875

          k =-0.1408 0.7154 0.0000 (  2686 PWs)   bands (ev):

   -15.4014 -13.2756 -10.9582  -2.7836  -1.9598  -0.8979   8.1692   9.4269

          k =-0.1408 0.7174 0.0000 (  2686 PWs)   bands (ev):

   -15.3917 -13.2848 -10.9616  -2.7570  -1.9860  -0.8994   8.1691   9.4662

          k =-0.1408 0.7194 0.0000 (  2686 PWs)   bands (ev):

   -15.3826 -13.2934 -10.9648  -2.7305  -2.0122  -0.9008   8.1689   9.5053

          k =-0.1408 0.7214 0.0000 (  2686 PWs)   bands (ev):

   -15.3740 -13.3014 -10.9677  -2.7041  -2.0382  -0.9020   8.1687   9.5441

          k =-0.1408 0.7234 0.0000 (  2690 PWs)   bands (ev):

   -15.3665 -13.3092 -10.9708  -2.6786  -2.0649  -0.9041   8.1685   9.5824

          k =-0.1408 0.7254 0.0000 (  2692 PWs)   bands (ev):

   -15.3594 -13.3161 -10.9733  -2.6525  -2.0926  -0.9056   8.1683   9.6202

          k =-0.1408 0.7274 0.0000 (  2692 PWs)   bands (ev):

   -15.3531 -13.3222 -10.9757  -2.6255  -2.1185  -0.9068   8.1681   9.6574

          k =-0.1408 0.7294 0.0000 (  2694 PWs)   bands (ev):

   -15.3475 -13.3279 -10.9784  -2.6001  -2.1440  -0.9077   8.1679   9.6938

          k =-0.1408 0.7314 0.0000 (  2694 PWs)   bands (ev):

   -15.3422 -13.3329 -10.9801  -2.5749  -2.1690  -0.9085   8.1678   9.7292

          k =-0.1408 0.7334 0.0000 (  2692 PWs)   bands (ev):

   -15.3374 -13.3370 -10.9816  -2.5502  -2.1912  -0.9091   8.1676   9.7631

          k =-0.1408 0.7354 0.0000 (  2694 PWs)   bands (ev):

   -15.3343 -13.3410 -10.9829  -2.5272  -2.2152  -0.9098   8.1675   9.7948

          k =-0.1408 0.7374 0.0000 (  2694 PWs)   bands (ev):

   -15.3311 -13.3440 -10.9840  -2.5045  -2.2377  -0.9103   8.1674   9.8240

          k =-0.1408 0.7394 0.0000 (  2694 PWs)   bands (ev):

   -15.3285 -13.3464 -10.9848  -2.4837  -2.2584  -0.9107   8.1673   9.8494

          k =-0.1408 0.7414 0.0000 (  2696 PWs)   bands (ev):

   -15.3271 -13.3481 -10.9858  -2.4661  -2.2760  -0.9115   8.1672   9.8692

          k =-0.1408 0.7434 0.0000 (  2698 PWs)   bands (ev):

   -15.3264 -13.3492 -10.9862  -2.4539  -2.2885  -0.9127   8.1672   9.8819

          k =-0.1408 0.7454 0.0000 (  2698 PWs)   bands (ev):

   -15.3261 -13.3496 -10.9863  -2.4493  -2.2930  -0.9128   8.1672   9.8864

          k =-0.1408 0.7474 0.0000 (  2698 PWs)   bands (ev):

   -15.3264 -13.3492 -10.9862  -2.4539  -2.2885  -0.9127   8.1672   9.8819

          k =-0.1408 0.7494 0.0000 (  2696 PWs)   bands (ev):

   -15.3271 -13.3481 -10.9858  -2.4662  -2.2760  -0.9115   8.1672   9.8692

          k =-0.1408 0.7514 0.0000 (  2694 PWs)   bands (ev):

   -15.3285 -13.3464 -10.9848  -2.4837  -2.2584  -0.9107   8.1673   9.8494

          k =-0.1408 0.7534 0.0000 (  2694 PWs)   bands (ev):

   -15.3311 -13.3440 -10.9840  -2.5045  -2.2377  -0.9103   8.1674   9.8240

          k =-0.1408 0.7554 0.0000 (  2694 PWs)   bands (ev):

   -15.3343 -13.3410 -10.9829  -2.5272  -2.2152  -0.9098   8.1675   9.7948

          k =-0.1408 0.7574 0.0000 (  2692 PWs)   bands (ev):

   -15.3374 -13.3370 -10.9816  -2.5502  -2.1912  -0.9091   8.1676   9.7631

          k =-0.1408 0.7594 0.0000 (  2694 PWs)   bands (ev):

   -15.3422 -13.3329 -10.9801  -2.5749  -2.1690  -0.9085   8.1678   9.7291

          k =-0.1408 0.7614 0.0000 (  2694 PWs)   bands (ev):

   -15.3475 -13.3279 -10.9784  -2.6001  -2.1440  -0.9077   8.1679   9.6938

          k =-0.1408 0.7634 0.0000 (  2692 PWs)   bands (ev):

   -15.3531 -13.3222 -10.9757  -2.6255  -2.1185  -0.9068   8.1681   9.6573

          k =-0.1408 0.7654 0.0000 (  2692 PWs)   bands (ev):

   -15.3594 -13.3161 -10.9733  -2.6525  -2.0926  -0.9056   8.1683   9.6202

          k =-0.1408 0.7674 0.0000 (  2690 PWs)   bands (ev):

   -15.3665 -13.3092 -10.9708  -2.6786  -2.0649  -0.9041   8.1685   9.5824

          k =-0.1408 0.7694 0.0000 (  2686 PWs)   bands (ev):

   -15.3740 -13.3014 -10.9677  -2.7041  -2.0382  -0.9020   8.1687   9.5441

          k =-0.1408 0.7714 0.0000 (  2686 PWs)   bands (ev):

   -15.3826 -13.2934 -10.9647  -2.7305  -2.0122  -0.9008   8.1689   9.5053

          k =-0.1408 0.7734 0.0000 (  2686 PWs)   bands (ev):

   -15.3917 -13.2848 -10.9616  -2.7570  -1.9860  -0.8994   8.1691   9.4662

          k =-0.1408 0.7754 0.0000 (  2686 PWs)   bands (ev):

   -15.4014 -13.2756 -10.9582  -2.7836  -1.9598  -0.8979   8.1692   9.4269

          k =-0.1408 0.7774 0.0000 (  2686 PWs)   bands (ev):

   -15.4115 -13.2662 -10.9546  -2.8103  -1.9336  -0.8963   8.1694   9.3875

          k =-0.1408 0.7794 0.0000 (  2688 PWs)   bands (ev):

   -15.4224 -13.2561 -10.9512  -2.8381  -1.9074  -0.8948   8.1694   9.3477

          k =-0.1408 0.7814 0.0000 (  2688 PWs)   bands (ev):

   -15.4337 -13.2454 -10.9471  -2.8648  -1.8811  -0.8929   8.1695   9.3079

          k =-0.1408 0.7834 0.0000 (  2686 PWs)   bands (ev):

   -15.4453 -13.2343 -10.9424  -2.8906  -1.8538  -0.8910   8.1696   9.2680

          k =-0.1408 0.7854 0.0000 (  2682 PWs)   bands (ev):

   -15.4566 -13.2226 -10.9370  -2.9168  -1.8269  -0.8877   8.1696   9.2282

          k =-0.1388 0.7054 0.0000 (  2686 PWs)   bands (ev):

   -15.4567 -13.2267 -10.9246  -2.9159  -1.8250  -0.9216   8.1832   9.2204

          k =-0.1388 0.7074 0.0000 (  2688 PWs)   bands (ev):

   -15.4445 -13.2385 -10.9295  -2.8899  -1.8525  -0.9237   8.1833   9.2604

          k =-0.1388 0.7094 0.0000 (  2688 PWs)   bands (ev):

   -15.4325 -13.2498 -10.9337  -2.8629  -1.8789  -0.9256   8.1834   9.3004

          k =-0.1388 0.7114 0.0000 (  2688 PWs)   bands (ev):

   -15.4211 -13.2603 -10.9383  -2.8365  -1.9060  -0.9275   8.1834   9.3402

          k =-0.1388 0.7134 0.0000 (  2688 PWs)   bands (ev):

   -15.4102 -13.2707 -10.9421  -2.8097  -1.9324  -0.9292   8.1834   9.3799

          k =-0.1388 0.7154 0.0000 (  2686 PWs)   bands (ev):

   -15.3998 -13.2804 -10.9452  -2.7818  -1.9587  -0.9307   8.1834   9.4196

          k =-0.1388 0.7174 0.0000 (  2686 PWs)   bands (ev):

   -15.3901 -13.2897 -10.9485  -2.7550  -1.9851  -0.9322   8.1833   9.4589

          k =-0.1388 0.7194 0.0000 (  2688 PWs)   bands (ev):

   -15.3811 -13.2985 -10.9517  -2.7283  -2.0115  -0.9344   8.1832   9.4979

          k =-0.1388 0.7214 0.0000 (  2688 PWs)   bands (ev):

   -15.3725 -13.3067 -10.9545  -2.7017  -2.0378  -0.9357   8.1831   9.5368

          k =-0.1388 0.7234 0.0000 (  2690 PWs)   bands (ev):

   -15.3648 -13.3144 -10.9573  -2.6757  -2.0645  -0.9370   8.1830   9.5752

          k =-0.1388 0.7254 0.0000 (  2690 PWs)   bands (ev):

   -15.3575 -13.3214 -10.9600  -2.6484  -2.0907  -0.9382   8.1828   9.6131

          k =-0.1388 0.7274 0.0000 (  2696 PWs)   bands (ev):

   -15.3517 -13.3279 -10.9632  -2.6224  -2.1191  -0.9404   8.1827   9.6502

          k =-0.1388 0.7294 0.0000 (  2696 PWs)   bands (ev):

   -15.3457 -13.3337 -10.9651  -2.5964  -2.1449  -0.9413   8.1826   9.6867

          k =-0.1388 0.7314 0.0000 (  2696 PWs)   bands (ev):

   -15.3403 -13.3387 -10.9668  -2.5708  -2.1703  -0.9421   8.1825   9.7221

          k =-0.1388 0.7334 0.0000 (  2696 PWs)   bands (ev):

   -15.3357 -13.3432 -10.9683  -2.5455  -2.1954  -0.9428   8.1824   9.7561

          k =-0.1388 0.7354 0.0000 (  2696 PWs)   bands (ev):

   -15.3323 -13.3469 -10.9696  -2.5219  -2.2177  -0.9435   8.1823   9.7879

          k =-0.1388 0.7374 0.0000 (  2696 PWs)   bands (ev):

   -15.3291 -13.3500 -10.9706  -2.4984  -2.2411  -0.9439   8.1822   9.8172

          k =-0.1388 0.7394 0.0000 (  2696 PWs)   bands (ev):

   -15.3265 -13.3525 -10.9714  -2.4765  -2.2628  -0.9443   8.1821   9.8426

          k =-0.1388 0.7414 0.0000 (  2698 PWs)   bands (ev):

   -15.3251 -13.3542 -10.9724  -2.4577  -2.2817  -0.9451   8.1821   9.8625

          k =-0.1388 0.7434 0.0000 (  2700 PWs)   bands (ev):

   -15.3244 -13.3553 -10.9728  -2.4442  -2.2954  -0.9463   8.1820   9.8752

          k =-0.1388 0.7454 0.0000 (  2700 PWs)   bands (ev):

   -15.3240 -13.3556 -10.9729  -2.4391  -2.3005  -0.9464   8.1820   9.8798

          k =-0.1388 0.7474 0.0000 (  2700 PWs)   bands (ev):

   -15.3244 -13.3553 -10.9728  -2.4442  -2.2954  -0.9463   8.1820   9.8752

          k =-0.1388 0.7494 0.0000 (  2698 PWs)   bands (ev):

   -15.3251 -13.3542 -10.9724  -2.4577  -2.2817  -0.9451   8.1821   9.8625

          k =-0.1388 0.7514 0.0000 (  2696 PWs)   bands (ev):

   -15.3265 -13.3525 -10.9714  -2.4765  -2.2628  -0.9443   8.1821   9.8426

          k =-0.1388 0.7534 0.0000 (  2696 PWs)   bands (ev):

   -15.3291 -13.3500 -10.9706  -2.4984  -2.2411  -0.9439   8.1822   9.8172

          k =-0.1388 0.7554 0.0000 (  2696 PWs)   bands (ev):

   -15.3323 -13.3469 -10.9696  -2.5219  -2.2177  -0.9435   8.1823   9.7879

          k =-0.1388 0.7574 0.0000 (  2696 PWs)   bands (ev):

   -15.3357 -13.3432 -10.9683  -2.5455  -2.1954  -0.9428   8.1824   9.7561

          k =-0.1388 0.7594 0.0000 (  2696 PWs)   bands (ev):

   -15.3403 -13.3387 -10.9668  -2.5708  -2.1703  -0.9421   8.1825   9.7221

          k =-0.1388 0.7614 0.0000 (  2696 PWs)   bands (ev):

   -15.3457 -13.3337 -10.9651  -2.5964  -2.1449  -0.9413   8.1826   9.6867

          k =-0.1388 0.7634 0.0000 (  2696 PWs)   bands (ev):

   -15.3517 -13.3279 -10.9632  -2.6224  -2.1191  -0.9404   8.1827   9.6501

          k =-0.1388 0.7654 0.0000 (  2690 PWs)   bands (ev):

   -15.3575 -13.3214 -10.9600  -2.6484  -2.0906  -0.9382   8.1828   9.6131

          k =-0.1388 0.7674 0.0000 (  2690 PWs)   bands (ev):

   -15.3648 -13.3144 -10.9573  -2.6757  -2.0645  -0.9370   8.1830   9.5751

          k =-0.1388 0.7694 0.0000 (  2688 PWs)   bands (ev):

   -15.3725 -13.3067 -10.9545  -2.7017  -2.0378  -0.9357   8.1831   9.5367

          k =-0.1388 0.7714 0.0000 (  2688 PWs)   bands (ev):

   -15.3811 -13.2985 -10.9517  -2.7283  -2.0115  -0.9344   8.1832   9.4979

          k =-0.1388 0.7734 0.0000 (  2686 PWs)   bands (ev):

   -15.3901 -13.2897 -10.9485  -2.7550  -1.9851  -0.9322   8.1833   9.4589

          k =-0.1388 0.7754 0.0000 (  2686 PWs)   bands (ev):

   -15.3999 -13.2804 -10.9452  -2.7818  -1.9587  -0.9307   8.1834   9.4196

          k =-0.1388 0.7774 0.0000 (  2688 PWs)   bands (ev):

   -15.4102 -13.2707 -10.9421  -2.8097  -1.9324  -0.9292   8.1834   9.3799

          k =-0.1388 0.7794 0.0000 (  2688 PWs)   bands (ev):

   -15.4211 -13.2603 -10.9383  -2.8365  -1.9060  -0.9275   8.1834   9.3402

          k =-0.1388 0.7814 0.0000 (  2688 PWs)   bands (ev):

   -15.4325 -13.2498 -10.9337  -2.8629  -1.8789  -0.9256   8.1834   9.3003

          k =-0.1388 0.7834 0.0000 (  2688 PWs)   bands (ev):

   -15.4445 -13.2385 -10.9295  -2.8899  -1.8524  -0.9237   8.1833   9.2604

          k =-0.1388 0.7854 0.0000 (  2686 PWs)   bands (ev):

   -15.4567 -13.2267 -10.9246  -2.9159  -1.8249  -0.9216   8.1832   9.2204

          k =-0.1368 0.7054 0.0000 (  2690 PWs)   bands (ev):

   -15.4563 -13.2313 -10.9107  -2.9157  -1.8238  -0.9551   8.1967   9.2128

          k =-0.1368 0.7074 0.0000 (  2686 PWs)   bands (ev):

   -15.4432 -13.2423 -10.9150  -2.8885  -1.8503  -0.9561   8.1970   9.2529

          k =-0.1368 0.7094 0.0000 (  2686 PWs)   bands (ev):

   -15.4311 -13.2538 -10.9191  -2.8614  -1.8769  -0.9580   8.1972   9.2929

          k =-0.1368 0.7114 0.0000 (  2686 PWs)   bands (ev):

   -15.4196 -13.2648 -10.9231  -2.8344  -1.9035  -0.9598   8.1974   9.3328

          k =-0.1368 0.7134 0.0000 (  2688 PWs)   bands (ev):

   -15.4087 -13.2753 -10.9274  -2.8079  -1.9307  -0.9625   8.1974   9.3725

          k =-0.1368 0.7154 0.0000 (  2688 PWs)   bands (ev):

   -15.3983 -13.2853 -10.9309  -2.7809  -1.9573  -0.9641   8.1975   9.4121

          k =-0.1368 0.7174 0.0000 (  2686 PWs)   bands (ev):

   -15.3884 -13.2946 -10.9337  -2.7529  -1.9838  -0.9654   8.1976   9.4516

          k =-0.1368 0.7194 0.0000 (  2686 PWs)   bands (ev):

   -15.3791 -13.3035 -10.9368  -2.7260  -2.0103  -0.9668   8.1976   9.4908

          k =-0.1368 0.7214 0.0000 (  2686 PWs)   bands (ev):

   -15.3704 -13.3118 -10.9396  -2.6992  -2.0369  -0.9681   8.1976   9.5297

          k =-0.1368 0.7234 0.0000 (  2690 PWs)   bands (ev):

   -15.3628 -13.3197 -10.9424  -2.6730  -2.0639  -0.9702   8.1975   9.5680

          k =-0.1368 0.7254 0.0000 (  2690 PWs)   bands (ev):

   -15.3555 -13.3268 -10.9450  -2.6454  -2.0903  -0.9714   8.1975   9.6060

          k =-0.1368 0.7274 0.0000 (  2696 PWs)   bands (ev):

   -15.3496 -13.3335 -10.9482  -2.6191  -2.1191  -0.9736   8.1974   9.6431

          k =-0.1368 0.7294 0.0000 (  2696 PWs)   bands (ev):

   -15.3436 -13.3393 -10.9501  -2.5928  -2.1452  -0.9745   8.1973   9.6797

          k =-0.1368 0.7314 0.0000 (  2696 PWs)   bands (ev):

   -15.3382 -13.3445 -10.9517  -2.5667  -2.1711  -0.9753   8.1972   9.7152

          k =-0.1368 0.7334 0.0000 (  2698 PWs)   bands (ev):

   -15.3343 -13.3492 -10.9532  -2.5419  -2.1968  -0.9761   8.1972   9.7490

          k =-0.1368 0.7354 0.0000 (  2698 PWs)   bands (ev):

   -15.3303 -13.3531 -10.9544  -2.5167  -2.2219  -0.9767   8.1971   9.7811

          k =-0.1368 0.7374 0.0000 (  2696 PWs)   bands (ev):

   -15.3268 -13.3559 -10.9554  -2.4923  -2.2438  -0.9772   8.1971   9.8105

          k =-0.1368 0.7394 0.0000 (  2698 PWs)   bands (ev):

   -15.3246 -13.3584 -10.9566  -2.4694  -2.2667  -0.9781   8.1970   9.8357

          k =-0.1368 0.7414 0.0000 (  2698 PWs)   bands (ev):

   -15.3228 -13.3602 -10.9572  -2.4492  -2.2869  -0.9784   8.1970   9.8559

          k =-0.1368 0.7434 0.0000 (  2698 PWs)   bands (ev):

   -15.3217 -13.3612 -10.9575  -2.4342  -2.3019  -0.9786   8.1970   9.8690

          k =-0.1368 0.7454 0.0000 (  2700 PWs)   bands (ev):

   -15.3217 -13.3616 -10.9577  -2.4283  -2.3079  -0.9796   8.1970   9.8733

          k =-0.1368 0.7474 0.0000 (  2698 PWs)   bands (ev):

   -15.3217 -13.3612 -10.9575  -2.4342  -2.3019  -0.9786   8.1970   9.8690

          k =-0.1368 0.7494 0.0000 (  2698 PWs)   bands (ev):

   -15.3228 -13.3602 -10.9572  -2.4492  -2.2869  -0.9784   8.1970   9.8559

          k =-0.1368 0.7514 0.0000 (  2698 PWs)   bands (ev):

   -15.3246 -13.3584 -10.9566  -2.4694  -2.2667  -0.9781   8.1970   9.8357

          k =-0.1368 0.7534 0.0000 (  2696 PWs)   bands (ev):

   -15.3268 -13.3559 -10.9554  -2.4923  -2.2438  -0.9772   8.1971   9.8104

          k =-0.1368 0.7554 0.0000 (  2698 PWs)   bands (ev):

   -15.3303 -13.3531 -10.9544  -2.5167  -2.2218  -0.9767   8.1971   9.7811

          k =-0.1368 0.7574 0.0000 (  2698 PWs)   bands (ev):

   -15.3343 -13.3492 -10.9532  -2.5419  -2.1968  -0.9761   8.1972   9.7490

          k =-0.1368 0.7594 0.0000 (  2696 PWs)   bands (ev):

   -15.3382 -13.3445 -10.9517  -2.5667  -2.1711  -0.9753   8.1973   9.7151

          k =-0.1368 0.7614 0.0000 (  2696 PWs)   bands (ev):

   -15.3436 -13.3393 -10.9501  -2.5928  -2.1452  -0.9745   8.1973   9.6796

          k =-0.1368 0.7634 0.0000 (  2696 PWs)   bands (ev):

   -15.3496 -13.3335 -10.9482  -2.6191  -2.1190  -0.9736   8.1974   9.6431

          k =-0.1368 0.7654 0.0000 (  2690 PWs)   bands (ev):

   -15.3555 -13.3268 -10.9450  -2.6454  -2.0903  -0.9714   8.1975   9.6060

          k =-0.1368 0.7674 0.0000 (  2690 PWs)   bands (ev):

   -15.3628 -13.3197 -10.9424  -2.6730  -2.0639  -0.9702   8.1975   9.5680

          k =-0.1368 0.7694 0.0000 (  2686 PWs)   bands (ev):

   -15.3704 -13.3118 -10.9396  -2.6992  -2.0368  -0.9681   8.1976   9.5296

          k =-0.1368 0.7714 0.0000 (  2686 PWs)   bands (ev):

   -15.3791 -13.3035 -10.9368  -2.7261  -2.0103  -0.9668   8.1976   9.4908

          k =-0.1368 0.7734 0.0000 (  2686 PWs)   bands (ev):

   -15.3884 -13.2946 -10.9337  -2.7530  -1.9838  -0.9654   8.1976   9.4516

          k =-0.1368 0.7754 0.0000 (  2688 PWs)   bands (ev):

   -15.3983 -13.2853 -10.9309  -2.7810  -1.9573  -0.9641   8.1975   9.4121

          k =-0.1368 0.7774 0.0000 (  2688 PWs)   bands (ev):

   -15.4087 -13.2753 -10.9274  -2.8079  -1.9307  -0.9625   8.1975   9.3725

          k =-0.1368 0.7794 0.0000 (  2686 PWs)   bands (ev):

   -15.4196 -13.2648 -10.9231  -2.8344  -1.9035  -0.9598   8.1974   9.3327

          k =-0.1368 0.7814 0.0000 (  2686 PWs)   bands (ev):

   -15.4311 -13.2538 -10.9191  -2.8614  -1.8769  -0.9580   8.1972   9.2929

          k =-0.1368 0.7834 0.0000 (  2686 PWs)   bands (ev):

   -15.4432 -13.2423 -10.9150  -2.8885  -1.8502  -0.9561   8.1970   9.2529

          k =-0.1368 0.7854 0.0000 (  2690 PWs)   bands (ev):

   -15.4563 -13.2313 -10.9107  -2.9157  -1.8238  -0.9551   8.1967   9.2128

          k =-0.1348 0.7054 0.0000 (  2688 PWs)   bands (ev):

   -15.4552 -13.2349 -10.8963  -2.9146  -1.8214  -0.9872   8.2103   9.2054

          k =-0.1348 0.7074 0.0000 (  2688 PWs)   bands (ev):

   -15.4425 -13.2470 -10.9006  -2.8874  -1.8481  -0.9892   8.2108   9.2454

          k =-0.1348 0.7094 0.0000 (  2686 PWs)   bands (ev):

   -15.4299 -13.2580 -10.9046  -2.8602  -1.8747  -0.9909   8.2111   9.2855

          k =-0.1348 0.7114 0.0000 (  2686 PWs)   bands (ev):

   -15.4182 -13.2692 -10.9085  -2.8330  -1.9015  -0.9927   8.2114   9.3254

          k =-0.1348 0.7134 0.0000 (  2686 PWs)   bands (ev):

   -15.4071 -13.2798 -10.9121  -2.8058  -1.9282  -0.9945   8.2116   9.3652

          k =-0.1348 0.7154 0.0000 (  2686 PWs)   bands (ev):

   -15.3966 -13.2899 -10.9155  -2.7787  -1.9550  -0.9961   8.2118   9.4049

          k =-0.1348 0.7174 0.0000 (  2688 PWs)   bands (ev):

   -15.3868 -13.2996 -10.9194  -2.7522  -1.9824  -0.9985   8.2119   9.4443

          k =-0.1348 0.7194 0.0000 (  2686 PWs)   bands (ev):

   -15.3774 -13.3085 -10.9219  -2.7240  -2.0090  -0.9997   8.2120   9.4836

          k =-0.1348 0.7214 0.0000 (  2686 PWs)   bands (ev):

   -15.3687 -13.3169 -10.9247  -2.6970  -2.0357  -1.0010   8.2121   9.5225

          k =-0.1348 0.7234 0.0000 (  2686 PWs)   bands (ev):

   -15.3608 -13.3246 -10.9274  -2.6694  -2.0628  -1.0017   8.2121   9.5611

          k =-0.1348 0.7254 0.0000 (  2690 PWs)   bands (ev):

   -15.3538 -13.3321 -10.9305  -2.6427  -2.0896  -1.0036   8.2121   9.5990

          k =-0.1348 0.7274 0.0000 (  2696 PWs)   bands (ev):

   -15.3477 -13.3389 -10.9331  -2.6162  -2.1187  -1.0066   8.2121   9.6361

          k =-0.1348 0.7294 0.0000 (  2696 PWs)   bands (ev):

   -15.3416 -13.3448 -10.9350  -2.5895  -2.1451  -1.0075   8.2121   9.6727

          k =-0.1348 0.7314 0.0000 (  2698 PWs)   bands (ev):

   -15.3369 -13.3503 -10.9366  -2.5640  -2.1715  -1.0084   8.2120   9.7081

          k =-0.1348 0.7334 0.0000 (  2698 PWs)   bands (ev):

   -15.3322 -13.3549 -10.9381  -2.5378  -2.1976  -1.0091   8.2120   9.7422

          k =-0.1348 0.7354 0.0000 (  2698 PWs)   bands (ev):

   -15.3282 -13.3588 -10.9393  -2.5120  -2.2232  -1.0096   8.2120   9.7744

          k =-0.1348 0.7374 0.0000 (  2696 PWs)   bands (ev):

   -15.3246 -13.3617 -10.9402  -2.4869  -2.2459  -1.0101   8.2120   9.8038

          k =-0.1348 0.7394 0.0000 (  2698 PWs)   bands (ev):

   -15.3224 -13.3643 -10.9414  -2.4630  -2.2699  -1.0111   8.2120   9.8291

          k =-0.1348 0.7414 0.0000 (  2698 PWs)   bands (ev):

   -15.3206 -13.3660 -10.9420  -2.4413  -2.2915  -1.0113   8.2120   9.8494

          k =-0.1348 0.7434 0.0000 (  2698 PWs)   bands (ev):

   -15.3195 -13.3671 -10.9423  -2.4245  -2.3083  -1.0115   8.2120   9.8625

          k =-0.1348 0.7454 0.0000 (  2700 PWs)   bands (ev):

   -15.3195 -13.3675 -10.9425  -2.4178  -2.3152  -1.0126   8.2120   9.8668

          k =-0.1348 0.7474 0.0000 (  2698 PWs)   bands (ev):

   -15.3195 -13.3671 -10.9423  -2.4245  -2.3083  -1.0115   8.2120   9.8625

          k =-0.1348 0.7494 0.0000 (  2698 PWs)   bands (ev):

   -15.3206 -13.3660 -10.9420  -2.4413  -2.2915  -1.0113   8.2120   9.8494

          k =-0.1348 0.7514 0.0000 (  2698 PWs)   bands (ev):

   -15.3224 -13.3643 -10.9414  -2.4630  -2.2699  -1.0111   8.2120   9.8291

          k =-0.1348 0.7534 0.0000 (  2696 PWs)   bands (ev):

   -15.3246 -13.3617 -10.9402  -2.4869  -2.2459  -1.0101   8.2120   9.8038

          k =-0.1348 0.7554 0.0000 (  2698 PWs)   bands (ev):

   -15.3282 -13.3588 -10.9393  -2.5120  -2.2232  -1.0096   8.2120   9.7744

          k =-0.1348 0.7574 0.0000 (  2698 PWs)   bands (ev):

   -15.3322 -13.3549 -10.9381  -2.5378  -2.1976  -1.0091   8.2120   9.7422

          k =-0.1348 0.7594 0.0000 (  2698 PWs)   bands (ev):

   -15.3369 -13.3503 -10.9366  -2.5640  -2.1715  -1.0084   8.2120   9.7081

          k =-0.1348 0.7614 0.0000 (  2696 PWs)   bands (ev):

   -15.3416 -13.3448 -10.9350  -2.5895  -2.1451  -1.0075   8.2121   9.6727

          k =-0.1348 0.7634 0.0000 (  2696 PWs)   bands (ev):

   -15.3477 -13.3389 -10.9331  -2.6162  -2.1187  -1.0066   8.2121   9.6361

          k =-0.1348 0.7654 0.0000 (  2690 PWs)   bands (ev):

   -15.3538 -13.3321 -10.9305  -2.6427  -2.0896  -1.0036   8.2121   9.5989

          k =-0.1348 0.7674 0.0000 (  2686 PWs)   bands (ev):

   -15.3608 -13.3246 -10.9273  -2.6694  -2.0628  -1.0017   8.2121   9.5610

          k =-0.1348 0.7694 0.0000 (  2686 PWs)   bands (ev):

   -15.3687 -13.3169 -10.9247  -2.6970  -2.0357  -1.0010   8.2121   9.5225

          k =-0.1348 0.7714 0.0000 (  2686 PWs)   bands (ev):

   -15.3774 -13.3085 -10.9219  -2.7240  -2.0090  -0.9997   8.2120   9.4836

          k =-0.1348 0.7734 0.0000 (  2688 PWs)   bands (ev):

   -15.3868 -13.2996 -10.9194  -2.7522  -1.9823  -0.9985   8.2119   9.4443

          k =-0.1348 0.7754 0.0000 (  2686 PWs)   bands (ev):

   -15.3966 -13.2899 -10.9155  -2.7787  -1.9550  -0.9961   8.2118   9.4048

          k =-0.1348 0.7774 0.0000 (  2686 PWs)   bands (ev):

   -15.4071 -13.2798 -10.9121  -2.8058  -1.9282  -0.9945   8.2116   9.3652

          k =-0.1348 0.7794 0.0000 (  2686 PWs)   bands (ev):

   -15.4182 -13.2692 -10.9085  -2.8330  -1.9015  -0.9927   8.2114   9.3254

          k =-0.1348 0.7814 0.0000 (  2686 PWs)   bands (ev):

   -15.4299 -13.2580 -10.9046  -2.8602  -1.8747  -0.9909   8.2111   9.2855

          k =-0.1348 0.7834 0.0000 (  2688 PWs)   bands (ev):

   -15.4425 -13.2470 -10.9006  -2.8874  -1.8481  -0.9892   8.2108   9.2454

          k =-0.1348 0.7854 0.0000 (  2688 PWs)   bands (ev):

   -15.4552 -13.2349 -10.8963  -2.9146  -1.8214  -0.9872   8.2103   9.2053

          k =-0.1328 0.7054 0.0000 (  2688 PWs)   bands (ev):

   -15.4542 -13.2388 -10.8820  -2.9138  -1.8188  -1.0198   8.2240   9.1980

          k =-0.1328 0.7074 0.0000 (  2688 PWs)   bands (ev):

   -15.4414 -13.2510 -10.8862  -2.8864  -1.8457  -1.0218   8.2245   9.2381

          k =-0.1328 0.7094 0.0000 (  2688 PWs)   bands (ev):

   -15.4292 -13.2628 -10.8902  -2.8591  -1.8726  -1.0238   8.2250   9.2782

          k =-0.1328 0.7114 0.0000 (  2686 PWs)   bands (ev):

   -15.4169 -13.2736 -10.8939  -2.8318  -1.8993  -1.0254   8.2254   9.3182

          k =-0.1328 0.7134 0.0000 (  2686 PWs)   bands (ev):

   -15.4058 -13.2844 -10.8974  -2.8045  -1.9262  -1.0271   8.2258   9.3580

          k =-0.1328 0.7154 0.0000 (  2686 PWs)   bands (ev):

   -15.3951 -13.2946 -10.9008  -2.7773  -1.9531  -1.0287   8.2261   9.3977

          k =-0.1328 0.7174 0.0000 (  2686 PWs)   bands (ev):

   -15.3851 -13.3043 -10.9039  -2.7500  -1.9800  -1.0302   8.2263   9.4372

          k =-0.1328 0.7194 0.0000 (  2686 PWs)   bands (ev):

   -15.3757 -13.3134 -10.9068  -2.7228  -2.0070  -1.0316   8.2265   9.4764

          k =-0.1328 0.7214 0.0000 (  2686 PWs)   bands (ev):

   -15.3672 -13.3219 -10.9100  -2.6944  -2.0348  -1.0331   8.2266   9.5155

          k =-0.1328 0.7234 0.0000 (  2688 PWs)   bands (ev):

   -15.3593 -13.3299 -10.9132  -2.6674  -2.0618  -1.0343   8.2267   9.5540

          k =-0.1328 0.7254 0.0000 (  2688 PWs)   bands (ev):

   -15.3518 -13.3372 -10.9155  -2.6403  -2.0886  -1.0354   8.2268   9.5921

          k =-0.1328 0.7274 0.0000 (  2692 PWs)   bands (ev):

   -15.3455 -13.3440 -10.9177  -2.6134  -2.1177  -1.0377   8.2269   9.6294

          k =-0.1328 0.7294 0.0000 (  2696 PWs)   bands (ev):

   -15.3396 -13.3503 -10.9200  -2.5867  -2.1447  -1.0401   8.2269   9.6659

          k =-0.1328 0.7314 0.0000 (  2698 PWs)   bands (ev):

   -15.3350 -13.3559 -10.9216  -2.5609  -2.1714  -1.0410   8.2269   9.7013

          k =-0.1328 0.7334 0.0000 (  2698 PWs)   bands (ev):

   -15.3302 -13.3605 -10.9230  -2.5343  -2.1979  -1.0417   8.2269   9.7355

          k =-0.1328 0.7354 0.0000 (  2698 PWs)   bands (ev):

   -15.3261 -13.3645 -10.9241  -2.5079  -2.2241  -1.0423   8.2269   9.7677

          k =-0.1328 0.7374 0.0000 (  2700 PWs)   bands (ev):

   -15.3231 -13.3677 -10.9255  -2.4821  -2.2499  -1.0433   8.2270   9.7970

          k =-0.1328 0.7394 0.0000 (  2698 PWs)   bands (ev):

   -15.3203 -13.3700 -10.9263  -2.4572  -2.2725  -1.0437   8.2270   9.8226

          k =-0.1328 0.7414 0.0000 (  2698 PWs)   bands (ev):

   -15.3184 -13.3718 -10.9268  -2.4341  -2.2955  -1.0440   8.2270   9.8429

          k =-0.1328 0.7434 0.0000 (  2698 PWs)   bands (ev):

   -15.3173 -13.3729 -10.9271  -2.4154  -2.3142  -1.0441   8.2270   9.8562

          k =-0.1328 0.7454 0.0000 (  2700 PWs)   bands (ev):

   -15.3174 -13.3733 -10.9273  -2.4074  -2.3224  -1.0452   8.2270   9.8604

          k =-0.1328 0.7474 0.0000 (  2698 PWs)   bands (ev):

   -15.3173 -13.3729 -10.9271  -2.4154  -2.3142  -1.0441   8.2270   9.8562

          k =-0.1328 0.7494 0.0000 (  2698 PWs)   bands (ev):

   -15.3184 -13.3718 -10.9268  -2.4341  -2.2955  -1.0440   8.2270   9.8429

          k =-0.1328 0.7514 0.0000 (  2698 PWs)   bands (ev):

   -15.3203 -13.3700 -10.9263  -2.4572  -2.2725  -1.0437   8.2270   9.8226

          k =-0.1328 0.7534 0.0000 (  2700 PWs)   bands (ev):

   -15.3231 -13.3677 -10.9255  -2.4821  -2.2499  -1.0433   8.2270   9.7970

          k =-0.1328 0.7554 0.0000 (  2698 PWs)   bands (ev):

   -15.3261 -13.3645 -10.9241  -2.5080  -2.2241  -1.0423   8.2269   9.7677

          k =-0.1328 0.7574 0.0000 (  2698 PWs)   bands (ev):

   -15.3302 -13.3605 -10.9230  -2.5343  -2.1979  -1.0417   8.2269   9.7355

          k =-0.1328 0.7594 0.0000 (  2698 PWs)   bands (ev):

   -15.3350 -13.3559 -10.9216  -2.5609  -2.1714  -1.0410   8.2269   9.7013

          k =-0.1328 0.7614 0.0000 (  2696 PWs)   bands (ev):

   -15.3396 -13.3503 -10.9200  -2.5867  -2.1447  -1.0401   8.2269   9.6659

          k =-0.1328 0.7634 0.0000 (  2692 PWs)   bands (ev):

   -15.3455 -13.3440 -10.9177  -2.6134  -2.1177  -1.0377   8.2269   9.6294

          k =-0.1328 0.7654 0.0000 (  2688 PWs)   bands (ev):

   -15.3518 -13.3372 -10.9155  -2.6403  -2.0886  -1.0354   8.2268   9.5921

          k =-0.1328 0.7674 0.0000 (  2688 PWs)   bands (ev):

   -15.3593 -13.3299 -10.9132  -2.6674  -2.0618  -1.0343   8.2267   9.5540

          k =-0.1328 0.7694 0.0000 (  2686 PWs)   bands (ev):

   -15.3672 -13.3219 -10.9099  -2.6944  -2.0348  -1.0331   8.2266   9.5155

          k =-0.1328 0.7714 0.0000 (  2686 PWs)   bands (ev):

   -15.3757 -13.3134 -10.9068  -2.7228  -2.0070  -1.0316   8.2265   9.4764

          k =-0.1328 0.7734 0.0000 (  2686 PWs)   bands (ev):

   -15.3851 -13.3043 -10.9039  -2.7500  -1.9800  -1.0302   8.2263   9.4371

          k =-0.1328 0.7754 0.0000 (  2686 PWs)   bands (ev):

   -15.3951 -13.2946 -10.9008  -2.7773  -1.9531  -1.0287   8.2261   9.3977

          k =-0.1328 0.7774 0.0000 (  2686 PWs)   bands (ev):

   -15.4058 -13.2844 -10.8974  -2.8045  -1.9262  -1.0271   8.2258   9.3580

          k =-0.1328 0.7794 0.0000 (  2686 PWs)   bands (ev):

   -15.4169 -13.2736 -10.8939  -2.8318  -1.8993  -1.0254   8.2254   9.3182

          k =-0.1328 0.7814 0.0000 (  2688 PWs)   bands (ev):

   -15.4292 -13.2628 -10.8902  -2.8591  -1.8726  -1.0238   8.2250   9.2781

          k =-0.1328 0.7834 0.0000 (  2688 PWs)   bands (ev):

   -15.4414 -13.2510 -10.8862  -2.8865  -1.8457  -1.0218   8.2245   9.2381

          k =-0.1328 0.7854 0.0000 (  2688 PWs)   bands (ev):

   -15.4542 -13.2388 -10.8820  -2.9138  -1.8188  -1.0198   8.2240   9.1980

          k =-0.1308 0.7054 0.0000 (  2688 PWs)   bands (ev):

   -15.4532 -13.2426 -10.8676  -2.9131  -1.8161  -1.0521   8.2376   9.1908

          k =-0.1308 0.7074 0.0000 (  2688 PWs)   bands (ev):

   -15.4404 -13.2550 -10.8718  -2.8857  -1.8431  -1.0541   8.2383   9.2309

          k =-0.1308 0.7094 0.0000 (  2688 PWs)   bands (ev):

   -15.4280 -13.2670 -10.8757  -2.8582  -1.8701  -1.0561   8.2390   9.2710

          k =-0.1308 0.7114 0.0000 (  2688 PWs)   bands (ev):

   -15.4162 -13.2785 -10.8794  -2.8308  -1.8972  -1.0579   8.2395   9.3110

          k =-0.1308 0.7134 0.0000 (  2686 PWs)   bands (ev):

   -15.4044 -13.2888 -10.8828  -2.8034  -1.9240  -1.0594   8.2400   9.3509

          k =-0.1308 0.7154 0.0000 (  2686 PWs)   bands (ev):

   -15.3937 -13.2992 -10.8861  -2.7760  -1.9511  -1.0610   8.2404   9.3906

          k =-0.1308 0.7174 0.0000 (  2686 PWs)   bands (ev):

   -15.3836 -13.3091 -10.8891  -2.7486  -1.9781  -1.0625   8.2407   9.4301

          k =-0.1308 0.7194 0.0000 (  2684 PWs)   bands (ev):

   -15.3741 -13.3181 -10.8920  -2.7201  -2.0051  -1.0633   8.2411   9.4695

          k =-0.1308 0.7214 0.0000 (  2688 PWs)   bands (ev):

   -15.3658 -13.3270 -10.8956  -2.6933  -2.0329  -1.0647   8.2412   9.5084

          k =-0.1308 0.7234 0.0000 (  2686 PWs)   bands (ev):

   -15.3575 -13.3350 -10.8976  -2.6650  -2.0598  -1.0657   8.2415   9.5471

          k =-0.1308 0.7254 0.0000 (  2688 PWs)   bands (ev):

   -15.3501 -13.3424 -10.9005  -2.6383  -2.0874  -1.0677   8.2416   9.5853

          k =-0.1308 0.7274 0.0000 (  2690 PWs)   bands (ev):

   -15.3436 -13.3492 -10.9027  -2.6111  -2.1149  -1.0695   8.2417   9.6227

          k =-0.1308 0.7294 0.0000 (  2696 PWs)   bands (ev):

   -15.3384 -13.3558 -10.9048  -2.5852  -2.1440  -1.0717   8.2417   9.6591

          k =-0.1308 0.7314 0.0000 (  2696 PWs)   bands (ev):

   -15.3329 -13.3612 -10.9064  -2.5581  -2.1709  -1.0725   8.2418   9.6948

          k =-0.1308 0.7334 0.0000 (  2698 PWs)   bands (ev):

   -15.3282 -13.3661 -10.9079  -2.5312  -2.1978  -1.0740   8.2419   9.7289

          k =-0.1308 0.7354 0.0000 (  2698 PWs)   bands (ev):

   -15.3241 -13.3701 -10.9090  -2.5044  -2.2244  -1.0746   8.2419   9.7612

          k =-0.1308 0.7374 0.0000 (  2700 PWs)   bands (ev):

   -15.3211 -13.3734 -10.9104  -2.4780  -2.2509  -1.0757   8.2420   9.7905

          k =-0.1308 0.7394 0.0000 (  2700 PWs)   bands (ev):

   -15.3185 -13.3760 -10.9111  -2.4522  -2.2766  -1.0760   8.2420   9.8162

          k =-0.1308 0.7414 0.0000 (  2698 PWs)   bands (ev):

   -15.3164 -13.3775 -10.9117  -2.4277  -2.2988  -1.0763   8.2421   9.8366

          k =-0.1308 0.7434 0.0000 (  2698 PWs)   bands (ev):

   -15.3153 -13.3786 -10.9120  -2.4068  -2.3196  -1.0764   8.2421   9.8499

          k =-0.1308 0.7454 0.0000 (  2696 PWs)   bands (ev):

   -15.3145 -13.3789 -10.9120  -2.3970  -2.3292  -1.0754   8.2421   9.8548

          k =-0.1308 0.7474 0.0000 (  2698 PWs)   bands (ev):

   -15.3153 -13.3786 -10.9120  -2.4068  -2.3196  -1.0764   8.2421   9.8498

          k =-0.1308 0.7494 0.0000 (  2698 PWs)   bands (ev):

   -15.3164 -13.3775 -10.9117  -2.4277  -2.2988  -1.0763   8.2421   9.8366

          k =-0.1308 0.7514 0.0000 (  2700 PWs)   bands (ev):

   -15.3185 -13.3760 -10.9111  -2.4522  -2.2766  -1.0760   8.2420   9.8162

          k =-0.1308 0.7534 0.0000 (  2700 PWs)   bands (ev):

   -15.3211 -13.3734 -10.9104  -2.4780  -2.2509  -1.0757   8.2420   9.7905

          k =-0.1308 0.7554 0.0000 (  2698 PWs)   bands (ev):

   -15.3241 -13.3701 -10.9090  -2.5044  -2.2244  -1.0746   8.2419   9.7612

          k =-0.1308 0.7574 0.0000 (  2698 PWs)   bands (ev):

   -15.3282 -13.3661 -10.9079  -2.5312  -2.1978  -1.0740   8.2419   9.7289

          k =-0.1308 0.7594 0.0000 (  2696 PWs)   bands (ev):

   -15.3329 -13.3612 -10.9064  -2.5581  -2.1709  -1.0725   8.2418   9.6948

          k =-0.1308 0.7614 0.0000 (  2696 PWs)   bands (ev):

   -15.3384 -13.3558 -10.9048  -2.5852  -2.1440  -1.0717   8.2417   9.6591

          k =-0.1308 0.7634 0.0000 (  2690 PWs)   bands (ev):

   -15.3436 -13.3492 -10.9027  -2.6111  -2.1149  -1.0695   8.2417   9.6226

          k =-0.1308 0.7654 0.0000 (  2688 PWs)   bands (ev):

   -15.3501 -13.3424 -10.9005  -2.6383  -2.0874  -1.0677   8.2416   9.5853

          k =-0.1308 0.7674 0.0000 (  2686 PWs)   bands (ev):

   -15.3575 -13.3350 -10.8976  -2.6650  -2.0598  -1.0657   8.2415   9.5471

          k =-0.1308 0.7694 0.0000 (  2688 PWs)   bands (ev):

   -15.3658 -13.3270 -10.8956  -2.6933  -2.0329  -1.0647   8.2412   9.5084

          k =-0.1308 0.7714 0.0000 (  2684 PWs)   bands (ev):

   -15.3741 -13.3181 -10.8920  -2.7201  -2.0051  -1.0633   8.2411   9.4695

          k =-0.1308 0.7734 0.0000 (  2686 PWs)   bands (ev):

   -15.3836 -13.3091 -10.8891  -2.7486  -1.9781  -1.0625   8.2407   9.4301

          k =-0.1308 0.7754 0.0000 (  2686 PWs)   bands (ev):

   -15.3937 -13.2992 -10.8861  -2.7760  -1.9511  -1.0610   8.2404   9.3906

          k =-0.1308 0.7774 0.0000 (  2686 PWs)   bands (ev):

   -15.4044 -13.2888 -10.8828  -2.8034  -1.9240  -1.0594   8.2400   9.3509

          k =-0.1308 0.7794 0.0000 (  2688 PWs)   bands (ev):

   -15.4162 -13.2785 -10.8794  -2.8308  -1.8972  -1.0579   8.2395   9.3110

          k =-0.1308 0.7814 0.0000 (  2688 PWs)   bands (ev):

   -15.4280 -13.2670 -10.8757  -2.8582  -1.8701  -1.0561   8.2390   9.2710

          k =-0.1308 0.7834 0.0000 (  2688 PWs)   bands (ev):

   -15.4404 -13.2550 -10.8717  -2.8857  -1.8431  -1.0541   8.2383   9.2309

          k =-0.1308 0.7854 0.0000 (  2688 PWs)   bands (ev):

   -15.4532 -13.2426 -10.8676  -2.9131  -1.8161  -1.0521   8.2376   9.1908

          k =-0.1288 0.7054 0.0000 (  2688 PWs)   bands (ev):

   -15.4523 -13.2464 -10.8533  -2.9125  -1.8134  -1.0840   8.2513   9.1836

          k =-0.1288 0.7074 0.0000 (  2688 PWs)   bands (ev):

   -15.4394 -13.2590 -10.8573  -2.8850  -1.8405  -1.0861   8.2521   9.2238

          k =-0.1288 0.7094 0.0000 (  2688 PWs)   bands (ev):

   -15.4270 -13.2711 -10.8612  -2.8575  -1.8676  -1.0880   8.2529   9.2639

          k =-0.1288 0.7114 0.0000 (  2688 PWs)   bands (ev):

   -15.4151 -13.2827 -10.8648  -2.8300  -1.8947  -1.0899   8.2536   9.3039

          k =-0.1288 0.7134 0.0000 (  2688 PWs)   bands (ev):

   -15.4037 -13.2938 -10.8683  -2.8025  -1.9219  -1.0916   8.2542   9.3438

          k =-0.1288 0.7154 0.0000 (  2688 PWs)   bands (ev):

   -15.3930 -13.3043 -10.8715  -2.7750  -1.9491  -1.0932   8.2547   9.3836

          k =-0.1288 0.7174 0.0000 (  2684 PWs)   bands (ev):

   -15.3822 -13.3135 -10.8744  -2.7463  -1.9760  -1.0939   8.2552   9.4233

          k =-0.1288 0.7194 0.0000 (  2684 PWs)   bands (ev):

   -15.3726 -13.3229 -10.8772  -2.7188  -2.0032  -1.0953   8.2556   9.4626

          k =-0.1288 0.7214 0.0000 (  2688 PWs)   bands (ev):

   -15.3642 -13.3319 -10.8807  -2.6919  -2.0311  -1.0967   8.2558   9.5016

          k =-0.1288 0.7234 0.0000 (  2688 PWs)   bands (ev):

   -15.3559 -13.3401 -10.8831  -2.6645  -2.0583  -1.0979   8.2561   9.5402

          k =-0.1288 0.7254 0.0000 (  2686 PWs)   bands (ev):

   -15.3483 -13.3475 -10.8849  -2.6360  -2.0854  -1.0988   8.2564   9.5786

          k =-0.1288 0.7274 0.0000 (  2690 PWs)   bands (ev):

   -15.3418 -13.3544 -10.8877  -2.6092  -2.1136  -1.1015   8.2565   9.6160

          k =-0.1288 0.7294 0.0000 (  2694 PWs)   bands (ev):

   -15.3365 -13.3609 -10.8895  -2.5829  -2.1427  -1.1030   8.2566   9.6525

          k =-0.1288 0.7314 0.0000 (  2696 PWs)   bands (ev):

   -15.3311 -13.3666 -10.8914  -2.5558  -2.1701  -1.1045   8.2568   9.6882

          k =-0.1288 0.7334 0.0000 (  2696 PWs)   bands (ev):

   -15.3262 -13.3713 -10.8927  -2.5286  -2.1972  -1.1052   8.2569   9.7225

          k =-0.1288 0.7354 0.0000 (  2698 PWs)   bands (ev):

   -15.3222 -13.3756 -10.8940  -2.5014  -2.2243  -1.1065   8.2570   9.7547

          k =-0.1288 0.7374 0.0000 (  2700 PWs)   bands (ev):

   -15.3192 -13.3789 -10.8953  -2.4745  -2.2512  -1.1076   8.2570   9.7841

          k =-0.1288 0.7394 0.0000 (  2700 PWs)   bands (ev):

   -15.3165 -13.3816 -10.8960  -2.4479  -2.2777  -1.1080   8.2571   9.8099

          k =-0.1288 0.7414 0.0000 (  2700 PWs)   bands (ev):

   -15.3146 -13.3834 -10.8966  -2.4222  -2.3034  -1.1083   8.2571   9.8303

          k =-0.1288 0.7434 0.0000 (  2698 PWs)   bands (ev):

   -15.3133 -13.3843 -10.8969  -2.3991  -2.3242  -1.1084   8.2572   9.8436

          k =-0.1288 0.7454 0.0000 (  2696 PWs)   bands (ev):

   -15.3125 -13.3846 -10.8969  -2.3869  -2.3362  -1.1074   8.2572   9.8486

          k =-0.1288 0.7474 0.0000 (  2698 PWs)   bands (ev):

   -15.3133 -13.3843 -10.8969  -2.3991  -2.3242  -1.1084   8.2572   9.8436

          k =-0.1288 0.7494 0.0000 (  2700 PWs)   bands (ev):

   -15.3146 -13.3834 -10.8966  -2.4222  -2.3034  -1.1083   8.2571   9.8303

          k =-0.1288 0.7514 0.0000 (  2700 PWs)   bands (ev):

   -15.3165 -13.3816 -10.8960  -2.4479  -2.2777  -1.1080   8.2571   9.8098

          k =-0.1288 0.7534 0.0000 (  2700 PWs)   bands (ev):

   -15.3192 -13.3789 -10.8953  -2.4745  -2.2512  -1.1076   8.2570   9.7841

          k =-0.1288 0.7554 0.0000 (  2698 PWs)   bands (ev):

   -15.3222 -13.3756 -10.8940  -2.5014  -2.2243  -1.1065   8.2570   9.7547

          k =-0.1288 0.7574 0.0000 (  2696 PWs)   bands (ev):

   -15.3262 -13.3713 -10.8927  -2.5286  -2.1972  -1.1052   8.2569   9.7225

          k =-0.1288 0.7594 0.0000 (  2696 PWs)   bands (ev):

   -15.3311 -13.3666 -10.8914  -2.5558  -2.1701  -1.1045   8.2568   9.6882

          k =-0.1288 0.7614 0.0000 (  2694 PWs)   bands (ev):

   -15.3365 -13.3609 -10.8895  -2.5829  -2.1427  -1.1030   8.2566   9.6525

          k =-0.1288 0.7634 0.0000 (  2690 PWs)   bands (ev):

   -15.3418 -13.3544 -10.8877  -2.6092  -2.1136  -1.1015   8.2565   9.6159

          k =-0.1288 0.7654 0.0000 (  2686 PWs)   bands (ev):

   -15.3483 -13.3475 -10.8849  -2.6360  -2.0854  -1.0988   8.2564   9.5785

          k =-0.1288 0.7674 0.0000 (  2688 PWs)   bands (ev):

   -15.3559 -13.3401 -10.8831  -2.6645  -2.0583  -1.0979   8.2561   9.5402

          k =-0.1288 0.7694 0.0000 (  2688 PWs)   bands (ev):

   -15.3642 -13.3319 -10.8807  -2.6919  -2.0311  -1.0967   8.2558   9.5015

          k =-0.1288 0.7714 0.0000 (  2684 PWs)   bands (ev):

   -15.3726 -13.3229 -10.8772  -2.7188  -2.0032  -1.0953   8.2556   9.4626

          k =-0.1288 0.7734 0.0000 (  2684 PWs)   bands (ev):

   -15.3822 -13.3135 -10.8744  -2.7463  -1.9760  -1.0939   8.2552   9.4232

          k =-0.1288 0.7754 0.0000 (  2688 PWs)   bands (ev):

   -15.3930 -13.3043 -10.8715  -2.7750  -1.9491  -1.0932   8.2547   9.3836

          k =-0.1288 0.7774 0.0000 (  2688 PWs)   bands (ev):

   -15.4038 -13.2938 -10.8682  -2.8025  -1.9219  -1.0916   8.2542   9.3438

          k =-0.1288 0.7794 0.0000 (  2688 PWs)   bands (ev):

   -15.4151 -13.2827 -10.8648  -2.8300  -1.8947  -1.0899   8.2536   9.3039

          k =-0.1288 0.7814 0.0000 (  2688 PWs)   bands (ev):

   -15.4270 -13.2711 -10.8612  -2.8575  -1.8676  -1.0880   8.2529   9.2639

          k =-0.1288 0.7834 0.0000 (  2688 PWs)   bands (ev):

   -15.4394 -13.2590 -10.8573  -2.8850  -1.8405  -1.0861   8.2521   9.2238

          k =-0.1288 0.7854 0.0000 (  2688 PWs)   bands (ev):

   -15.4523 -13.2464 -10.8533  -2.9125  -1.8134  -1.0840   8.2513   9.1836

          k =-0.1268 0.7054 0.0000 (  2688 PWs)   bands (ev):

   -15.4515 -13.2501 -10.8389  -2.9121  -1.8105  -1.1157   8.2649   9.1766

          k =-0.1268 0.7074 0.0000 (  2688 PWs)   bands (ev):

   -15.4384 -13.2629 -10.8429  -2.8845  -1.8377  -1.1177   8.2660   9.2168

          k =-0.1268 0.7094 0.0000 (  2688 PWs)   bands (ev):

   -15.4259 -13.2752 -10.8467  -2.8569  -1.8649  -1.1197   8.2669   9.2570

          k =-0.1268 0.7114 0.0000 (  2688 PWs)   bands (ev):

   -15.4140 -13.2869 -10.8503  -2.8293  -1.8922  -1.1215   8.2677   9.2970

          k =-0.1268 0.7134 0.0000 (  2688 PWs)   bands (ev):

   -15.4026 -13.2981 -10.8536  -2.8017  -1.9195  -1.1232   8.2684   9.3369

          k =-0.1268 0.7154 0.0000 (  2686 PWs)   bands (ev):

   -15.3917 -13.3086 -10.8568  -2.7730  -1.9467  -1.1242   8.2691   9.3768

          k =-0.1268 0.7174 0.0000 (  2686 PWs)   bands (ev):

   -15.3814 -13.3187 -10.8598  -2.7454  -1.9740  -1.1258   8.2696   9.4164

          k =-0.1268 0.7194 0.0000 (  2686 PWs)   bands (ev):

   -15.3715 -13.3277 -10.8632  -2.7179  -2.0012  -1.1269   8.2701   9.4558

          k =-0.1268 0.7214 0.0000 (  2688 PWs)   bands (ev):

   -15.3628 -13.3368 -10.8659  -2.6907  -2.0291  -1.1284   8.2705   9.4948

          k =-0.1268 0.7234 0.0000 (  2688 PWs)   bands (ev):

   -15.3544 -13.3450 -10.8682  -2.6632  -2.0565  -1.1296   8.2708   9.5335

          k =-0.1268 0.7254 0.0000 (  2688 PWs)   bands (ev):

   -15.3467 -13.3526 -10.8704  -2.6356  -2.0838  -1.1307   8.2711   9.5718

          k =-0.1268 0.7274 0.0000 (  2690 PWs)   bands (ev):

   -15.3409 -13.3597 -10.8721  -2.6080  -2.1116  -1.1324   8.2714   9.6092

          k =-0.1268 0.7294 0.0000 (  2692 PWs)   bands (ev):

   -15.3347 -13.3661 -10.8738  -2.5806  -2.1408  -1.1338   8.2716   9.6459

          k =-0.1268 0.7314 0.0000 (  2694 PWs)   bands (ev):

   -15.3292 -13.3717 -10.8761  -2.5537  -2.1687  -1.1354   8.2717   9.6817

          k =-0.1268 0.7334 0.0000 (  2696 PWs)   bands (ev):

   -15.3244 -13.3767 -10.8777  -2.5264  -2.1963  -1.1369   8.2719   9.7161

          k =-0.1268 0.7354 0.0000 (  2698 PWs)   bands (ev):

   -15.3206 -13.3808 -10.8792  -2.4990  -2.2237  -1.1381   8.2720   9.7483

          k =-0.1268 0.7374 0.0000 (  2698 PWs)   bands (ev):

   -15.3172 -13.3842 -10.8802  -2.4717  -2.2509  -1.1385   8.2721   9.7779

          k =-0.1268 0.7394 0.0000 (  2700 PWs)   bands (ev):

   -15.3146 -13.3871 -10.8810  -2.4446  -2.2780  -1.1397   8.2722   9.8036

          k =-0.1268 0.7414 0.0000 (  2700 PWs)   bands (ev):

   -15.3127 -13.3889 -10.8815  -2.4178  -2.3047  -1.1399   8.2722   9.8241

          k =-0.1268 0.7434 0.0000 (  2698 PWs)   bands (ev):

   -15.3114 -13.3898 -10.8818  -2.3925  -2.3277  -1.1401   8.2723   9.8375

          k =-0.1268 0.7454 0.0000 (  2696 PWs)   bands (ev):

   -15.3106 -13.3901 -10.8818  -2.3770  -2.3430  -1.1391   8.2723   9.8425

          k =-0.1268 0.7474 0.0000 (  2698 PWs)   bands (ev):

   -15.3114 -13.3898 -10.8818  -2.3925  -2.3277  -1.1401   8.2723   9.8375

          k =-0.1268 0.7494 0.0000 (  2700 PWs)   bands (ev):

   -15.3127 -13.3889 -10.8815  -2.4178  -2.3047  -1.1399   8.2722   9.8241

          k =-0.1268 0.7514 0.0000 (  2700 PWs)   bands (ev):

   -15.3146 -13.3871 -10.8810  -2.4446  -2.2780  -1.1397   8.2722   9.8036

          k =-0.1268 0.7534 0.0000 (  2698 PWs)   bands (ev):

   -15.3172 -13.3842 -10.8802  -2.4717  -2.2509  -1.1385   8.2721   9.7779

          k =-0.1268 0.7554 0.0000 (  2698 PWs)   bands (ev):

   -15.3206 -13.3808 -10.8792  -2.4990  -2.2237  -1.1381   8.2720   9.7483

          k =-0.1268 0.7574 0.0000 (  2696 PWs)   bands (ev):

   -15.3244 -13.3767 -10.8777  -2.5264  -2.1963  -1.1369   8.2719   9.7160

          k =-0.1268 0.7594 0.0000 (  2694 PWs)   bands (ev):

   -15.3292 -13.3717 -10.8761  -2.5537  -2.1687  -1.1354   8.2717   9.6817

          k =-0.1268 0.7614 0.0000 (  2692 PWs)   bands (ev):

   -15.3347 -13.3661 -10.8738  -2.5806  -2.1408  -1.1338   8.2716   9.6459

          k =-0.1268 0.7634 0.0000 (  2690 PWs)   bands (ev):

   -15.3409 -13.3597 -10.8721  -2.6080  -2.1116  -1.1324   8.2714   9.6092

          k =-0.1268 0.7654 0.0000 (  2688 PWs)   bands (ev):

   -15.3467 -13.3526 -10.8704  -2.6356  -2.0838  -1.1307   8.2711   9.5718

          k =-0.1268 0.7674 0.0000 (  2688 PWs)   bands (ev):

   -15.3544 -13.3450 -10.8682  -2.6632  -2.0564  -1.1296   8.2708   9.5335

          k =-0.1268 0.7694 0.0000 (  2688 PWs)   bands (ev):

   -15.3628 -13.3368 -10.8659  -2.6908  -2.0291  -1.1284   8.2705   9.4948

          k =-0.1268 0.7714 0.0000 (  2686 PWs)   bands (ev):

   -15.3715 -13.3277 -10.8632  -2.7179  -2.0012  -1.1269   8.2701   9.4557

          k =-0.1268 0.7734 0.0000 (  2686 PWs)   bands (ev):

   -15.3814 -13.3187 -10.8598  -2.7454  -1.9740  -1.1258   8.2696   9.4163

          k =-0.1268 0.7754 0.0000 (  2686 PWs)   bands (ev):

   -15.3917 -13.3086 -10.8568  -2.7730  -1.9467  -1.1242   8.2691   9.3767

          k =-0.1268 0.7774 0.0000 (  2688 PWs)   bands (ev):

   -15.4026 -13.2981 -10.8536  -2.8017  -1.9195  -1.1232   8.2684   9.3369

          k =-0.1268 0.7794 0.0000 (  2688 PWs)   bands (ev):

   -15.4140 -13.2869 -10.8503  -2.8293  -1.8922  -1.1215   8.2677   9.2970

          k =-0.1268 0.7814 0.0000 (  2688 PWs)   bands (ev):

   -15.4260 -13.2752 -10.8467  -2.8569  -1.8649  -1.1197   8.2669   9.2569

          k =-0.1268 0.7834 0.0000 (  2688 PWs)   bands (ev):

   -15.4385 -13.2629 -10.8429  -2.8845  -1.8377  -1.1177   8.2660   9.2168

          k =-0.1268 0.7854 0.0000 (  2688 PWs)   bands (ev):

   -15.4515 -13.2501 -10.8389  -2.9121  -1.8105  -1.1157   8.2649   9.1766

          k =-0.1248 0.7054 0.0000 (  2692 PWs)   bands (ev):

   -15.4511 -13.2542 -10.8254  -2.9120  -1.8079  -1.1477   8.2786   9.1695

          k =-0.1248 0.7074 0.0000 (  2690 PWs)   bands (ev):

   -15.4377 -13.2670 -10.8289  -2.8842  -1.8352  -1.1491   8.2798   9.2099

          k =-0.1248 0.7094 0.0000 (  2690 PWs)   bands (ev):

   -15.4252 -13.2795 -10.8326  -2.8565  -1.8626  -1.1511   8.2808   9.2501

          k =-0.1248 0.7114 0.0000 (  2688 PWs)   bands (ev):

   -15.4129 -13.2911 -10.8358  -2.8288  -1.8895  -1.1528   8.2818   9.2902

          k =-0.1248 0.7134 0.0000 (  2686 PWs)   bands (ev):

   -15.4014 -13.3022 -10.8391  -2.8000  -1.9168  -1.1539   8.2826   9.3302

          k =-0.1248 0.7154 0.0000 (  2686 PWs)   bands (ev):

   -15.3905 -13.3130 -10.8422  -2.7723  -1.9442  -1.1556   8.2834   9.3700

          k =-0.1248 0.7174 0.0000 (  2688 PWs)   bands (ev):

   -15.3805 -13.3233 -10.8459  -2.7447  -1.9718  -1.1571   8.2840   9.4096

          k =-0.1248 0.7194 0.0000 (  2690 PWs)   bands (ev):

   -15.3710 -13.3331 -10.8487  -2.7175  -1.9997  -1.1586   8.2846   9.4490

          k =-0.1248 0.7214 0.0000 (  2688 PWs)   bands (ev):

   -15.3613 -13.3415 -10.8511  -2.6898  -2.0270  -1.1597   8.2851   9.4882

          k =-0.1248 0.7234 0.0000 (  2688 PWs)   bands (ev):

   -15.3529 -13.3499 -10.8534  -2.6621  -2.0544  -1.1609   8.2855   9.5269

          k =-0.1248 0.7254 0.0000 (  2688 PWs)   bands (ev):

   -15.3451 -13.3576 -10.8555  -2.6345  -2.0819  -1.1620   8.2859   9.5652

          k =-0.1248 0.7274 0.0000 (  2692 PWs)   bands (ev):

   -15.3393 -13.3649 -10.8576  -2.6079  -2.1099  -1.1640   8.2862   9.6025

          k =-0.1248 0.7294 0.0000 (  2690 PWs)   bands (ev):

   -15.3329 -13.3711 -10.8589  -2.5791  -2.1373  -1.1647   8.2866   9.6396

          k =-0.1248 0.7314 0.0000 (  2692 PWs)   bands (ev):

   -15.3273 -13.3769 -10.8604  -2.5516  -2.1666  -1.1659   8.2868   9.6753

          k =-0.1248 0.7334 0.0000 (  2694 PWs)   bands (ev):

   -15.3225 -13.3820 -10.8620  -2.5242  -2.1943  -1.1673   8.2870   9.7097

          k =-0.1248 0.7354 0.0000 (  2698 PWs)   bands (ev):

   -15.3188 -13.3862 -10.8642  -2.4971  -2.2225  -1.1694   8.2871   9.7420

          k =-0.1248 0.7374 0.0000 (  2698 PWs)   bands (ev):

   -15.3154 -13.3896 -10.8651  -2.4696  -2.2500  -1.1699   8.2872   9.7717

          k =-0.1248 0.7394 0.0000 (  2698 PWs)   bands (ev):

   -15.3127 -13.3923 -10.8658  -2.4420  -2.2775  -1.1702   8.2873   9.7976

          k =-0.1248 0.7414 0.0000 (  2700 PWs)   bands (ev):

   -15.3109 -13.3944 -10.8664  -2.4146  -2.3049  -1.1713   8.2874   9.8180

          k =-0.1248 0.7434 0.0000 (  2698 PWs)   bands (ev):

   -15.3093 -13.3955 -10.8667  -2.3874  -2.3318  -1.1704   8.2874   9.8318

          k =-0.1248 0.7454 0.0000 (  2696 PWs)   bands (ev):

   -15.3087 -13.3956 -10.8668  -2.3672  -2.3498  -1.1704   8.2875   9.8365

          k =-0.1248 0.7474 0.0000 (  2698 PWs)   bands (ev):

   -15.3093 -13.3955 -10.8667  -2.3874  -2.3318  -1.1704   8.2874   9.8318

          k =-0.1248 0.7494 0.0000 (  2700 PWs)   bands (ev):

   -15.3109 -13.3944 -10.8664  -2.4146  -2.3049  -1.1713   8.2874   9.8180

          k =-0.1248 0.7514 0.0000 (  2698 PWs)   bands (ev):

   -15.3127 -13.3923 -10.8658  -2.4420  -2.2774  -1.1702   8.2873   9.7976

          k =-0.1248 0.7534 0.0000 (  2698 PWs)   bands (ev):

   -15.3154 -13.3896 -10.8651  -2.4696  -2.2500  -1.1699   8.2872   9.7717

          k =-0.1248 0.7554 0.0000 (  2698 PWs)   bands (ev):

   -15.3188 -13.3862 -10.8642  -2.4971  -2.2225  -1.1694   8.2871   9.7420

          k =-0.1248 0.7574 0.0000 (  2694 PWs)   bands (ev):

   -15.3225 -13.3820 -10.8620  -2.5242  -2.1943  -1.1673   8.2870   9.7097

          k =-0.1248 0.7594 0.0000 (  2692 PWs)   bands (ev):

   -15.3273 -13.3769 -10.8604  -2.5516  -2.1666  -1.1659   8.2868   9.6753

          k =-0.1248 0.7614 0.0000 (  2690 PWs)   bands (ev):

   -15.3329 -13.3711 -10.8589  -2.5791  -2.1372  -1.1647   8.2866   9.6395

          k =-0.1248 0.7634 0.0000 (  2692 PWs)   bands (ev):

   -15.3393 -13.3649 -10.8576  -2.6079  -2.1098  -1.1640   8.2862   9.6025

          k =-0.1248 0.7654 0.0000 (  2688 PWs)   bands (ev):

   -15.3451 -13.3576 -10.8555  -2.6345  -2.0819  -1.1620   8.2859   9.5652

          k =-0.1248 0.7674 0.0000 (  2688 PWs)   bands (ev):

   -15.3529 -13.3499 -10.8534  -2.6621  -2.0544  -1.1609   8.2855   9.5269

          k =-0.1248 0.7694 0.0000 (  2688 PWs)   bands (ev):

   -15.3613 -13.3415 -10.8511  -2.6898  -2.0270  -1.1597   8.2851   9.4881

          k =-0.1248 0.7714 0.0000 (  2690 PWs)   bands (ev):

   -15.3710 -13.3331 -10.8487  -2.7175  -1.9997  -1.1586   8.2846   9.4489

          k =-0.1248 0.7734 0.0000 (  2688 PWs)   bands (ev):

   -15.3805 -13.3233 -10.8459  -2.7447  -1.9717  -1.1571   8.2840   9.4096

          k =-0.1248 0.7754 0.0000 (  2686 PWs)   bands (ev):

   -15.3905 -13.3130 -10.8422  -2.7723  -1.9442  -1.1556   8.2834   9.3700

          k =-0.1248 0.7774 0.0000 (  2686 PWs)   bands (ev):

   -15.4014 -13.3022 -10.8391  -2.8000  -1.9168  -1.1539   8.2826   9.3301

          k =-0.1248 0.7794 0.0000 (  2688 PWs)   bands (ev):

   -15.4129 -13.2911 -10.8358  -2.8288  -1.8895  -1.1528   8.2818   9.2901

          k =-0.1248 0.7814 0.0000 (  2690 PWs)   bands (ev):

   -15.4252 -13.2795 -10.8326  -2.8565  -1.8626  -1.1511   8.2808   9.2501

          k =-0.1248 0.7834 0.0000 (  2690 PWs)   bands (ev):

   -15.4377 -13.2670 -10.8289  -2.8842  -1.8352  -1.1491   8.2798   9.2099

          k =-0.1248 0.7854 0.0000 (  2692 PWs)   bands (ev):

   -15.4511 -13.2542 -10.8254  -2.9120  -1.8079  -1.1477   8.2786   9.1694

          k =-0.1228 0.7054 0.0000 (  2692 PWs)   bands (ev):

   -15.4504 -13.2578 -10.8111  -2.9118  -1.8049  -1.1787   8.2922   9.1626

          k =-0.1228 0.7074 0.0000 (  2690 PWs)   bands (ev):

   -15.4369 -13.2708 -10.8145  -2.8840  -1.8323  -1.1801   8.2936   9.2031

          k =-0.1228 0.7094 0.0000 (  2690 PWs)   bands (ev):

   -15.4243 -13.2834 -10.8182  -2.8562  -1.8597  -1.1820   8.2948   9.2433

          k =-0.1228 0.7114 0.0000 (  2688 PWs)   bands (ev):

   -15.4121 -13.2952 -10.8216  -2.8273  -1.8871  -1.1832   8.2959   9.2835

          k =-0.1228 0.7134 0.0000 (  2688 PWs)   bands (ev):

   -15.4005 -13.3067 -10.8249  -2.7995  -1.9145  -1.1850   8.2968   9.3235

          k =-0.1228 0.7154 0.0000 (  2688 PWs)   bands (ev):

   -15.3895 -13.3177 -10.8279  -2.7718  -1.9420  -1.1866   8.2977   9.3633

          k =-0.1228 0.7174 0.0000 (  2690 PWs)   bands (ev):

   -15.3795 -13.3281 -10.8316  -2.7442  -1.9696  -1.1882   8.2985   9.4029

          k =-0.1228 0.7194 0.0000 (  2690 PWs)   bands (ev):

   -15.3697 -13.3377 -10.8340  -2.7168  -1.9973  -1.1896   8.2991   9.4424

          k =-0.1228 0.7214 0.0000 (  2690 PWs)   bands (ev):

   -15.3606 -13.3468 -10.8365  -2.6891  -2.0249  -1.1910   8.2997   9.4815

          k =-0.1228 0.7234 0.0000 (  2688 PWs)   bands (ev):

   -15.3515 -13.3547 -10.8386  -2.6613  -2.0522  -1.1919   8.3003   9.5204

          k =-0.1228 0.7254 0.0000 (  2690 PWs)   bands (ev):

   -15.3445 -13.3627 -10.8407  -2.6346  -2.0798  -1.1932   8.3007   9.5586

          k =-0.1228 0.7274 0.0000 (  2692 PWs)   bands (ev):

   -15.3378 -13.3698 -10.8427  -2.6069  -2.1078  -1.1950   8.3011   9.5961

          k =-0.1228 0.7294 0.0000 (  2692 PWs)   bands (ev):

   -15.3314 -13.3763 -10.8444  -2.5792  -2.1354  -1.1959   8.3015   9.6331

          k =-0.1228 0.7314 0.0000 (  2692 PWs)   bands (ev):

   -15.3257 -13.3820 -10.8455  -2.5505  -2.1647  -1.1969   8.3018   9.6690

          k =-0.1228 0.7334 0.0000 (  2694 PWs)   bands (ev):

   -15.3211 -13.3870 -10.8471  -2.5228  -2.1924  -1.1982   8.3020   9.7033

          k =-0.1228 0.7354 0.0000 (  2696 PWs)   bands (ev):

   -15.3170 -13.3914 -10.8486  -2.4952  -2.2203  -1.1995   8.3022   9.7358

          k =-0.1228 0.7374 0.0000 (  2698 PWs)   bands (ev):

   -15.3137 -13.3949 -10.8502  -2.4681  -2.2485  -1.2009   8.3023   9.7656

          k =-0.1228 0.7394 0.0000 (  2698 PWs)   bands (ev):

   -15.3109 -13.3976 -10.8509  -2.4403  -2.2761  -1.2012   8.3024   9.7915

          k =-0.1228 0.7414 0.0000 (  2698 PWs)   bands (ev):

   -15.3090 -13.3995 -10.8514  -2.4127  -2.3038  -1.2015   8.3025   9.8121

          k =-0.1228 0.7434 0.0000 (  2696 PWs)   bands (ev):

   -15.3074 -13.4006 -10.8516  -2.3848  -2.3314  -1.2006   8.3026   9.8259

          k =-0.1228 0.7454 0.0000 (  2700 PWs)   bands (ev):

   -15.3074 -13.4015 -10.8518  -2.3597  -2.3588  -1.2014   8.3025   9.8305

          k =-0.1228 0.7474 0.0000 (  2696 PWs)   bands (ev):

   -15.3074 -13.4006 -10.8516  -2.3848  -2.3314  -1.2006   8.3026   9.8259

          k =-0.1228 0.7494 0.0000 (  2698 PWs)   bands (ev):

   -15.3090 -13.3995 -10.8514  -2.4127  -2.3038  -1.2015   8.3025   9.8121

          k =-0.1228 0.7514 0.0000 (  2698 PWs)   bands (ev):

   -15.3109 -13.3976 -10.8509  -2.4404  -2.2761  -1.2012   8.3024   9.7915

          k =-0.1228 0.7534 0.0000 (  2698 PWs)   bands (ev):

   -15.3137 -13.3949 -10.8502  -2.4681  -2.2485  -1.2009   8.3023   9.7656

          k =-0.1228 0.7554 0.0000 (  2696 PWs)   bands (ev):

   -15.3170 -13.3914 -10.8486  -2.4952  -2.2202  -1.1995   8.3022   9.7358

          k =-0.1228 0.7574 0.0000 (  2694 PWs)   bands (ev):

   -15.3211 -13.3870 -10.8471  -2.5228  -2.1924  -1.1982   8.3020   9.7033

          k =-0.1228 0.7594 0.0000 (  2692 PWs)   bands (ev):

   -15.3257 -13.3820 -10.8455  -2.5505  -2.1647  -1.1969   8.3018   9.6690

          k =-0.1228 0.7614 0.0000 (  2692 PWs)   bands (ev):

   -15.3314 -13.3763 -10.8444  -2.5792  -2.1354  -1.1959   8.3015   9.6330

          k =-0.1228 0.7634 0.0000 (  2692 PWs)   bands (ev):

   -15.3378 -13.3698 -10.8427  -2.6069  -2.1078  -1.1950   8.3011   9.5961

          k =-0.1228 0.7654 0.0000 (  2690 PWs)   bands (ev):

   -15.3445 -13.3627 -10.8407  -2.6346  -2.0798  -1.1932   8.3007   9.5585

          k =-0.1228 0.7674 0.0000 (  2688 PWs)   bands (ev):

   -15.3515 -13.3547 -10.8386  -2.6613  -2.0522  -1.1919   8.3003   9.5204

          k =-0.1228 0.7694 0.0000 (  2690 PWs)   bands (ev):

   -15.3606 -13.3468 -10.8365  -2.6891  -2.0248  -1.1909   8.2997   9.4815

          k =-0.1228 0.7714 0.0000 (  2690 PWs)   bands (ev):

   -15.3697 -13.3377 -10.8340  -2.7168  -1.9973  -1.1896   8.2991   9.4424

          k =-0.1228 0.7734 0.0000 (  2690 PWs)   bands (ev):

   -15.3795 -13.3281 -10.8315  -2.7442  -1.9696  -1.1882   8.2985   9.4029

          k =-0.1228 0.7754 0.0000 (  2688 PWs)   bands (ev):

   -15.3895 -13.3177 -10.8279  -2.7718  -1.9420  -1.1866   8.2977   9.3633

          k =-0.1228 0.7774 0.0000 (  2688 PWs)   bands (ev):

   -15.4005 -13.3067 -10.8249  -2.7996  -1.9145  -1.1850   8.2969   9.3234

          k =-0.1228 0.7794 0.0000 (  2688 PWs)   bands (ev):

   -15.4121 -13.2952 -10.8216  -2.8273  -1.8871  -1.1832   8.2959   9.2834

          k =-0.1228 0.7814 0.0000 (  2690 PWs)   bands (ev):

   -15.4243 -13.2834 -10.8182  -2.8562  -1.8597  -1.1820   8.2948   9.2433

          k =-0.1228 0.7834 0.0000 (  2690 PWs)   bands (ev):

   -15.4369 -13.2708 -10.8145  -2.8840  -1.8323  -1.1801   8.2936   9.2031

          k =-0.1228 0.7854 0.0000 (  2692 PWs)   bands (ev):

   -15.4504 -13.2578 -10.8111  -2.9119  -1.8049  -1.1787   8.2922   9.1626

          k =-0.1208 0.7054 0.0000 (  2694 PWs)   bands (ev):

   -15.4499 -13.2614 -10.7976  -2.9127  -1.8030  -1.2093   8.3058   9.1559

          k =-0.1208 0.7074 0.0000 (  2694 PWs)   bands (ev):

   -15.4367 -13.2747 -10.8014  -2.8849  -1.8304  -1.2113   8.3072   9.1962

          k =-0.1208 0.7094 0.0000 (  2690 PWs)   bands (ev):

   -15.4236 -13.2871 -10.8046  -2.8558  -1.8579  -1.2120   8.3086   9.2367

          k =-0.1208 0.7114 0.0000 (  2690 PWs)   bands (ev):

   -15.4114 -13.2993 -10.8079  -2.8280  -1.8853  -1.2139   8.3099   9.2768

          k =-0.1208 0.7134 0.0000 (  2690 PWs)   bands (ev):

   -15.3998 -13.3109 -10.8111  -2.8002  -1.9129  -1.2156   8.3109   9.3169

          k =-0.1208 0.7154 0.0000 (  2692 PWs)   bands (ev):

   -15.3890 -13.3221 -10.8149  -2.7725  -1.9406  -1.2173   8.3119   9.3567

          k =-0.1208 0.7174 0.0000 (  2692 PWs)   bands (ev):

   -15.3785 -13.3325 -10.8177  -2.7447  -1.9681  -1.2188   8.3128   9.3964

          k =-0.1208 0.7194 0.0000 (  2694 PWs)   bands (ev):

   -15.3690 -13.3425 -10.8205  -2.7173  -1.9963  -1.2204   8.3135   9.4359

          k =-0.1208 0.7214 0.0000 (  2694 PWs)   bands (ev):

   -15.3598 -13.3517 -10.8229  -2.6895  -2.0238  -1.2217   8.3143   9.4751

          k =-0.1208 0.7234 0.0000 (  2696 PWs)   bands (ev):

   -15.3521 -13.3604 -10.8251  -2.6627  -2.0515  -1.2230   8.3148   9.5137

          k =-0.1208 0.7254 0.0000 (  2692 PWs)   bands (ev):

   -15.3434 -13.3675 -10.8267  -2.6349  -2.0785  -1.2238   8.3154   9.5522

          k =-0.1208 0.7274 0.0000 (  2694 PWs)   bands (ev):

   -15.3366 -13.3748 -10.8287  -2.6072  -2.1066  -1.2256   8.3159   9.5898

          k =-0.1208 0.7294 0.0000 (  2694 PWs)   bands (ev):

   -15.3301 -13.3813 -10.8303  -2.5794  -2.1342  -1.2265   8.3163   9.6268

          k =-0.1208 0.7314 0.0000 (  2696 PWs)   bands (ev):

   -15.3245 -13.3871 -10.8318  -2.5518  -2.1637  -1.2278   8.3167   9.6627

          k =-0.1208 0.7334 0.0000 (  2696 PWs)   bands (ev):

   -15.3198 -13.3921 -10.8330  -2.5229  -2.1914  -1.2289   8.3170   9.6971

          k =-0.1208 0.7354 0.0000 (  2696 PWs)   bands (ev):

   -15.3155 -13.3964 -10.8341  -2.4951  -2.2190  -1.2295   8.3172   9.7297

          k =-0.1208 0.7374 0.0000 (  2698 PWs)   bands (ev):

   -15.3122 -13.4001 -10.8353  -2.4676  -2.2469  -1.2306   8.3174   9.7596

          k =-0.1208 0.7394 0.0000 (  2698 PWs)   bands (ev):

   -15.3094 -13.4028 -10.8360  -2.4399  -2.2745  -1.2310   8.3176   9.7856

          k =-0.1208 0.7414 0.0000 (  2698 PWs)   bands (ev):

   -15.3072 -13.4047 -10.8371  -2.4126  -2.3027  -1.2311   8.3176   9.8065

          k =-0.1208 0.7434 0.0000 (  2698 PWs)   bands (ev):

   -15.3061 -13.4059 -10.8373  -2.3875  -2.3300  -1.2305   8.3176   9.8201

          k =-0.1208 0.7454 0.0000 (  2698 PWs)   bands (ev):

   -15.3058 -13.4063 -10.8374  -2.3662  -2.3513  -1.2306   8.3176   9.8248

          k =-0.1208 0.7474 0.0000 (  2698 PWs)   bands (ev):

   -15.3061 -13.4059 -10.8373  -2.3875  -2.3300  -1.2305   8.3176   9.8201

          k =-0.1208 0.7494 0.0000 (  2698 PWs)   bands (ev):

   -15.3072 -13.4047 -10.8371  -2.4126  -2.3027  -1.2311   8.3176   9.8065

          k =-0.1208 0.7514 0.0000 (  2698 PWs)   bands (ev):

   -15.3094 -13.4028 -10.8360  -2.4399  -2.2745  -1.2310   8.3176   9.7856

          k =-0.1208 0.7534 0.0000 (  2698 PWs)   bands (ev):

   -15.3122 -13.4001 -10.8353  -2.4676  -2.2469  -1.2306   8.3174   9.7595

          k =-0.1208 0.7554 0.0000 (  2696 PWs)   bands (ev):

   -15.3155 -13.3964 -10.8341  -2.4952  -2.2190  -1.2295   8.3172   9.7297

          k =-0.1208 0.7574 0.0000 (  2696 PWs)   bands (ev):

   -15.3198 -13.3921 -10.8330  -2.5229  -2.1914  -1.2289   8.3170   9.6971

          k =-0.1208 0.7594 0.0000 (  2696 PWs)   bands (ev):

   -15.3245 -13.3871 -10.8317  -2.5518  -2.1637  -1.2278   8.3167   9.6626

          k =-0.1208 0.7614 0.0000 (  2694 PWs)   bands (ev):

   -15.3301 -13.3813 -10.8303  -2.5794  -2.1342  -1.2265   8.3163   9.6268

          k =-0.1208 0.7634 0.0000 (  2694 PWs)   bands (ev):

   -15.3366 -13.3748 -10.8287  -2.6072  -2.1066  -1.2256   8.3159   9.5898

          k =-0.1208 0.7654 0.0000 (  2692 PWs)   bands (ev):

   -15.3434 -13.3675 -10.8267  -2.6349  -2.0785  -1.2238   8.3154   9.5522

          k =-0.1208 0.7674 0.0000 (  2696 PWs)   bands (ev):

   -15.3521 -13.3604 -10.8251  -2.6628  -2.0515  -1.2230   8.3148   9.5137

          k =-0.1208 0.7694 0.0000 (  2694 PWs)   bands (ev):

   -15.3598 -13.3517 -10.8229  -2.6895  -2.0238  -1.2217   8.3143   9.4750

          k =-0.1208 0.7714 0.0000 (  2694 PWs)   bands (ev):

   -15.3690 -13.3425 -10.8205  -2.7173  -1.9963  -1.2204   8.3135   9.4358

          k =-0.1208 0.7734 0.0000 (  2692 PWs)   bands (ev):

   -15.3786 -13.3325 -10.8177  -2.7447  -1.9681  -1.2188   8.3128   9.3964

          k =-0.1208 0.7754 0.0000 (  2692 PWs)   bands (ev):

   -15.3890 -13.3221 -10.8149  -2.7725  -1.9405  -1.2173   8.3119   9.3567

          k =-0.1208 0.7774 0.0000 (  2690 PWs)   bands (ev):

   -15.3998 -13.3109 -10.8111  -2.8002  -1.9129  -1.2156   8.3109   9.3168

          k =-0.1208 0.7794 0.0000 (  2690 PWs)   bands (ev):

   -15.4114 -13.2993 -10.8079  -2.8280  -1.8853  -1.2139   8.3099   9.2768

          k =-0.1208 0.7814 0.0000 (  2690 PWs)   bands (ev):

   -15.4236 -13.2871 -10.8046  -2.8558  -1.8578  -1.2120   8.3086   9.2367

          k =-0.1208 0.7834 0.0000 (  2694 PWs)   bands (ev):

   -15.4367 -13.2747 -10.8014  -2.8849  -1.8304  -1.2113   8.3072   9.1962

          k =-0.1208 0.7854 0.0000 (  2694 PWs)   bands (ev):

   -15.4499 -13.2614 -10.7976  -2.9127  -1.8030  -1.2093   8.3058   9.1559

          k =-0.1188 0.7054 0.0000 (  2692 PWs)   bands (ev):

   -15.4484 -13.2647 -10.7830  -2.9125  -1.7999  -1.2395   8.3194   9.1496

          k =-0.1188 0.7074 0.0000 (  2692 PWs)   bands (ev):

   -15.4359 -13.2781 -10.7871  -2.8837  -1.8273  -1.2410   8.3211   9.1897

          k =-0.1188 0.7094 0.0000 (  2690 PWs)   bands (ev):

   -15.4228 -13.2909 -10.7902  -2.8557  -1.8549  -1.2423   8.3226   9.2301

          k =-0.1188 0.7114 0.0000 (  2690 PWs)   bands (ev):

   -15.4105 -13.3032 -10.7936  -2.8279  -1.8824  -1.2442   8.3239   9.2703

          k =-0.1188 0.7134 0.0000 (  2692 PWs)   bands (ev):

   -15.3991 -13.3151 -10.7975  -2.8002  -1.9102  -1.2459   8.3251   9.3103

          k =-0.1188 0.7154 0.0000 (  2692 PWs)   bands (ev):

   -15.3880 -13.3263 -10.8004  -2.7723  -1.9378  -1.2476   8.3262   9.3503

          k =-0.1188 0.7174 0.0000 (  2692 PWs)   bands (ev):

   -15.3774 -13.3369 -10.8032  -2.7445  -1.9654  -1.2491   8.3272   9.3900

          k =-0.1188 0.7194 0.0000 (  2694 PWs)   bands (ev):

   -15.3678 -13.3469 -10.8059  -2.7170  -1.9936  -1.2507   8.3281   9.4295

          k =-0.1188 0.7214 0.0000 (  2694 PWs)   bands (ev):

   -15.3585 -13.3562 -10.8083  -2.6892  -2.0213  -1.2520   8.3289   9.4687

          k =-0.1188 0.7234 0.0000 (  2696 PWs)   bands (ev):

   -15.3508 -13.3651 -10.8105  -2.6624  -2.0489  -1.2533   8.3295   9.5074

          k =-0.1188 0.7254 0.0000 (  2696 PWs)   bands (ev):

   -15.3429 -13.3730 -10.8124  -2.6345  -2.0766  -1.2544   8.3302   9.5458

          k =-0.1188 0.7274 0.0000 (  2696 PWs)   bands (ev):

   -15.3354 -13.3798 -10.8143  -2.6067  -2.1045  -1.2560   8.3307   9.5836

          k =-0.1188 0.7294 0.0000 (  2696 PWs)   bands (ev):

   -15.3289 -13.3864 -10.8159  -2.5789  -2.1322  -1.2569   8.3312   9.6206

          k =-0.1188 0.7314 0.0000 (  2700 PWs)   bands (ev):

   -15.3236 -13.3923 -10.8177  -2.5513  -2.1617  -1.2588   8.3316   9.6563

          k =-0.1188 0.7334 0.0000 (  2698 PWs)   bands (ev):

   -15.3183 -13.3972 -10.8186  -2.5236  -2.1890  -1.2594   8.3320   9.6909

          k =-0.1188 0.7354 0.0000 (  2696 PWs)   bands (ev):

   -15.3140 -13.4015 -10.8192  -2.4947  -2.2165  -1.2598   8.3323   9.7237

          k =-0.1188 0.7374 0.0000 (  2698 PWs)   bands (ev):

   -15.3106 -13.4052 -10.8204  -2.4672  -2.2444  -1.2610   8.3325   9.7536

          k =-0.1188 0.7394 0.0000 (  2698 PWs)   bands (ev):

   -15.3078 -13.4080 -10.8211  -2.4398  -2.2718  -1.2613   8.3327   9.7797

          k =-0.1188 0.7414 0.0000 (  2696 PWs)   bands (ev):

   -15.3056 -13.4099 -10.8214  -2.4146  -2.2989  -1.2598   8.3328   9.8008

          k =-0.1188 0.7434 0.0000 (  2696 PWs)   bands (ev):

   -15.3044 -13.4111 -10.8217  -2.3888  -2.3247  -1.2599   8.3328   9.8143

          k =-0.1188 0.7454 0.0000 (  2698 PWs)   bands (ev):

   -15.3041 -13.4115 -10.8226  -2.3727  -2.3420  -1.2609   8.3328   9.8191

          k =-0.1188 0.7474 0.0000 (  2696 PWs)   bands (ev):

   -15.3044 -13.4111 -10.8217  -2.3888  -2.3247  -1.2599   8.3328   9.8143

          k =-0.1188 0.7494 0.0000 (  2696 PWs)   bands (ev):

   -15.3056 -13.4099 -10.8214  -2.4146  -2.2989  -1.2598   8.3328   9.8008

          k =-0.1188 0.7514 0.0000 (  2698 PWs)   bands (ev):

   -15.3078 -13.4080 -10.8211  -2.4398  -2.2718  -1.2613   8.3327   9.7797

          k =-0.1188 0.7534 0.0000 (  2698 PWs)   bands (ev):

   -15.3106 -13.4052 -10.8204  -2.4673  -2.2443  -1.2610   8.3325   9.7536

          k =-0.1188 0.7554 0.0000 (  2696 PWs)   bands (ev):

   -15.3140 -13.4015 -10.8192  -2.4947  -2.2165  -1.2598   8.3323   9.7237

          k =-0.1188 0.7574 0.0000 (  2698 PWs)   bands (ev):

   -15.3183 -13.3972 -10.8186  -2.5236  -2.1890  -1.2594   8.3320   9.6909

          k =-0.1188 0.7594 0.0000 (  2700 PWs)   bands (ev):

   -15.3236 -13.3923 -10.8177  -2.5513  -2.1617  -1.2588   8.3316   9.6563

          k =-0.1188 0.7614 0.0000 (  2696 PWs)   bands (ev):

   -15.3289 -13.3864 -10.8159  -2.5790  -2.1321  -1.2569   8.3312   9.6206

          k =-0.1188 0.7634 0.0000 (  2696 PWs)   bands (ev):

   -15.3354 -13.3798 -10.8143  -2.6068  -2.1045  -1.2560   8.3307   9.5835

          k =-0.1188 0.7654 0.0000 (  2696 PWs)   bands (ev):

   -15.3429 -13.3730 -10.8124  -2.6345  -2.0766  -1.2544   8.3302   9.5458

          k =-0.1188 0.7674 0.0000 (  2696 PWs)   bands (ev):

   -15.3508 -13.3651 -10.8105  -2.6624  -2.0489  -1.2533   8.3295   9.5074

          k =-0.1188 0.7694 0.0000 (  2694 PWs)   bands (ev):

   -15.3585 -13.3562 -10.8083  -2.6892  -2.0212  -1.2520   8.3289   9.4687

          k =-0.1188 0.7714 0.0000 (  2694 PWs)   bands (ev):

   -15.3678 -13.3469 -10.8059  -2.7170  -1.9936  -1.2507   8.3281   9.4295

          k =-0.1188 0.7734 0.0000 (  2692 PWs)   bands (ev):

   -15.3775 -13.3369 -10.8032  -2.7445  -1.9654  -1.2491   8.3272   9.3900

          k =-0.1188 0.7754 0.0000 (  2692 PWs)   bands (ev):

   -15.3880 -13.3263 -10.8004  -2.7723  -1.9378  -1.2476   8.3262   9.3502

          k =-0.1188 0.7774 0.0000 (  2692 PWs)   bands (ev):

   -15.3991 -13.3151 -10.7975  -2.8002  -1.9102  -1.2459   8.3251   9.3103

          k =-0.1188 0.7794 0.0000 (  2690 PWs)   bands (ev):

   -15.4105 -13.3032 -10.7936  -2.8279  -1.8824  -1.2442   8.3239   9.2703

          k =-0.1188 0.7814 0.0000 (  2690 PWs)   bands (ev):

   -15.4228 -13.2909 -10.7902  -2.8558  -1.8549  -1.2423   8.3226   9.2301

          k =-0.1188 0.7834 0.0000 (  2692 PWs)   bands (ev):

   -15.4359 -13.2781 -10.7871  -2.8838  -1.8273  -1.2410   8.3211   9.1897

          k =-0.1188 0.7854 0.0000 (  2692 PWs)   bands (ev):

   -15.4484 -13.2647 -10.7830  -2.9125  -1.7998  -1.2395   8.3194   9.1496

          k =-0.1168 0.7054 0.0000 (  2688 PWs)   bands (ev):

   -15.4476 -13.2679 -10.7687  -2.9115  -1.7966  -1.2681   8.3330   9.1432

          k =-0.1168 0.7074 0.0000 (  2690 PWs)   bands (ev):

   -15.4344 -13.2815 -10.7725  -2.8836  -1.8242  -1.2709   8.3348   9.1835

          k =-0.1168 0.7094 0.0000 (  2690 PWs)   bands (ev):

   -15.4221 -13.2947 -10.7760  -2.8558  -1.8518  -1.2722   8.3364   9.2237

          k =-0.1168 0.7114 0.0000 (  2690 PWs)   bands (ev):

   -15.4097 -13.3071 -10.7793  -2.8279  -1.8794  -1.2741   8.3379   9.2639

          k =-0.1168 0.7134 0.0000 (  2692 PWs)   bands (ev):

   -15.3982 -13.3191 -10.7831  -2.8001  -1.9073  -1.2758   8.3393   9.3039

          k =-0.1168 0.7154 0.0000 (  2692 PWs)   bands (ev):

   -15.3870 -13.3304 -10.7860  -2.7722  -1.9349  -1.2775   8.3405   9.3439

          k =-0.1168 0.7174 0.0000 (  2694 PWs)   bands (ev):

   -15.3767 -13.3413 -10.7889  -2.7447  -1.9632  -1.2792   8.3416   9.3836

          k =-0.1168 0.7194 0.0000 (  2694 PWs)   bands (ev):

   -15.3667 -13.3513 -10.7914  -2.7169  -1.9908  -1.2806   8.3426   9.4232

          k =-0.1168 0.7214 0.0000 (  2696 PWs)   bands (ev):

   -15.3582 -13.3609 -10.7937  -2.6900  -2.0186  -1.2820   8.3434   9.4623

          k =-0.1168 0.7234 0.0000 (  2696 PWs)   bands (ev):

   -15.3496 -13.3697 -10.7959  -2.6622  -2.0462  -1.2833   8.3442   9.5012

          k =-0.1168 0.7254 0.0000 (  2696 PWs)   bands (ev):

   -15.3416 -13.3777 -10.7978  -2.6343  -2.0739  -1.2844   8.3449   9.5397

          k =-0.1168 0.7274 0.0000 (  2698 PWs)   bands (ev):

   -15.3347 -13.3851 -10.7997  -2.6066  -2.1020  -1.2862   8.3456   9.5773

          k =-0.1168 0.7294 0.0000 (  2696 PWs)   bands (ev):

   -15.3275 -13.3912 -10.8012  -2.5787  -2.1295  -1.2869   8.3461   9.6145

          k =-0.1168 0.7314 0.0000 (  2698 PWs)   bands (ev):

   -15.3221 -13.3971 -10.8030  -2.5510  -2.1572  -1.2883   8.3466   9.6504

          k =-0.1168 0.7334 0.0000 (  2700 PWs)   bands (ev):

   -15.3171 -13.4024 -10.8042  -2.5235  -2.1866  -1.2894   8.3470   9.6849

          k =-0.1168 0.7354 0.0000 (  2700 PWs)   bands (ev):

   -15.3128 -13.4067 -10.8052  -2.4959  -2.2141  -1.2900   8.3474   9.7176

          k =-0.1168 0.7374 0.0000 (  2696 PWs)   bands (ev):

   -15.3091 -13.4100 -10.8056  -2.4673  -2.2414  -1.2895   8.3476   9.7478

          k =-0.1168 0.7394 0.0000 (  2696 PWs)   bands (ev):

   -15.3062 -13.4128 -10.8062  -2.4403  -2.2684  -1.2905   8.3478   9.7740

          k =-0.1168 0.7414 0.0000 (  2696 PWs)   bands (ev):

   -15.3040 -13.4150 -10.8066  -2.4159  -2.2947  -1.2898   8.3479   9.7950

          k =-0.1168 0.7434 0.0000 (  2694 PWs)   bands (ev):

   -15.3027 -13.4162 -10.8062  -2.3917  -2.3178  -1.2891   8.3481   9.8086

          k =-0.1168 0.7454 0.0000 (  2694 PWs)   bands (ev):

   -15.3023 -13.4166 -10.8062  -2.3790  -2.3305  -1.2891   8.3481   9.8134

          k =-0.1168 0.7474 0.0000 (  2694 PWs)   bands (ev):

   -15.3027 -13.4162 -10.8062  -2.3917  -2.3178  -1.2891   8.3481   9.8086

          k =-0.1168 0.7494 0.0000 (  2696 PWs)   bands (ev):

   -15.3040 -13.4150 -10.8066  -2.4159  -2.2947  -1.2898   8.3479   9.7950

          k =-0.1168 0.7514 0.0000 (  2696 PWs)   bands (ev):

   -15.3062 -13.4128 -10.8062  -2.4403  -2.2684  -1.2905   8.3478   9.7739

          k =-0.1168 0.7534 0.0000 (  2696 PWs)   bands (ev):

   -15.3091 -13.4100 -10.8056  -2.4673  -2.2414  -1.2895   8.3476   9.7478

          k =-0.1168 0.7554 0.0000 (  2700 PWs)   bands (ev):

   -15.3128 -13.4067 -10.8052  -2.4959  -2.2140  -1.2900   8.3474   9.7176

          k =-0.1168 0.7574 0.0000 (  2700 PWs)   bands (ev):

   -15.3171 -13.4024 -10.8042  -2.5235  -2.1866  -1.2894   8.3470   9.6849

          k =-0.1168 0.7594 0.0000 (  2698 PWs)   bands (ev):

   -15.3221 -13.3971 -10.8030  -2.5510  -2.1572  -1.2883   8.3466   9.6504

          k =-0.1168 0.7614 0.0000 (  2696 PWs)   bands (ev):

   -15.3275 -13.3912 -10.8012  -2.5788  -2.1295  -1.2869   8.3461   9.6145

          k =-0.1168 0.7634 0.0000 (  2698 PWs)   bands (ev):

   -15.3347 -13.3851 -10.7997  -2.6066  -2.1020  -1.2862   8.3456   9.5773

          k =-0.1168 0.7654 0.0000 (  2696 PWs)   bands (ev):

   -15.3416 -13.3777 -10.7978  -2.6343  -2.0739  -1.2844   8.3449   9.5396

          k =-0.1168 0.7674 0.0000 (  2696 PWs)   bands (ev):

   -15.3496 -13.3697 -10.7959  -2.6622  -2.0462  -1.2833   8.3442   9.5012

          k =-0.1168 0.7694 0.0000 (  2696 PWs)   bands (ev):

   -15.3582 -13.3609 -10.7937  -2.6900  -2.0185  -1.2820   8.3434   9.4623

          k =-0.1168 0.7714 0.0000 (  2694 PWs)   bands (ev):

   -15.3667 -13.3513 -10.7914  -2.7169  -1.9908  -1.2806   8.3426   9.4232

          k =-0.1168 0.7734 0.0000 (  2694 PWs)   bands (ev):

   -15.3767 -13.3413 -10.7889  -2.7447  -1.9632  -1.2792   8.3416   9.3836

          k =-0.1168 0.7754 0.0000 (  2692 PWs)   bands (ev):

   -15.3870 -13.3304 -10.7860  -2.7723  -1.9349  -1.2775   8.3405   9.3439

          k =-0.1168 0.7774 0.0000 (  2692 PWs)   bands (ev):

   -15.3982 -13.3191 -10.7831  -2.8001  -1.9072  -1.2758   8.3393   9.3039

          k =-0.1168 0.7794 0.0000 (  2690 PWs)   bands (ev):

   -15.4097 -13.3071 -10.7793  -2.8279  -1.8794  -1.2741   8.3379   9.2639

          k =-0.1168 0.7814 0.0000 (  2690 PWs)   bands (ev):

   -15.4221 -13.2947 -10.7760  -2.8558  -1.8518  -1.2722   8.3364   9.2237

          k =-0.1168 0.7834 0.0000 (  2690 PWs)   bands (ev):

   -15.4344 -13.2815 -10.7725  -2.8836  -1.8242  -1.2709   8.3348   9.1835

          k =-0.1168 0.7854 0.0000 (  2688 PWs)   bands (ev):

   -15.4476 -13.2679 -10.7687  -2.9115  -1.7966  -1.2681   8.3330   9.1432

          k =-0.1148 0.7054 0.0000 (  2688 PWs)   bands (ev):

   -15.4471 -13.2713 -10.7546  -2.9117  -1.7934  -1.2977   8.3466   9.1369

          k =-0.1148 0.7074 0.0000 (  2688 PWs)   bands (ev):

   -15.4336 -13.2849 -10.7582  -2.8838  -1.8210  -1.2997   8.3485   9.1772

          k =-0.1148 0.7094 0.0000 (  2688 PWs)   bands (ev):

   -15.4206 -13.2981 -10.7616  -2.8559  -1.8487  -1.3017   8.3503   9.2175

          k =-0.1148 0.7114 0.0000 (  2692 PWs)   bands (ev):

   -15.4093 -13.3111 -10.7658  -2.8282  -1.8766  -1.3036   8.3519   9.2575

          k =-0.1148 0.7134 0.0000 (  2692 PWs)   bands (ev):

   -15.3974 -13.3231 -10.7688  -2.8002  -1.9042  -1.3054   8.3534   9.2977

          k =-0.1148 0.7154 0.0000 (  2692 PWs)   bands (ev):

   -15.3861 -13.3345 -10.7717  -2.7723  -1.9319  -1.3071   8.3548   9.3376

          k =-0.1148 0.7174 0.0000 (  2694 PWs)   bands (ev):

   -15.3757 -13.3455 -10.7745  -2.7448  -1.9603  -1.3087   8.3559   9.3774

          k =-0.1148 0.7194 0.0000 (  2694 PWs)   bands (ev):

   -15.3656 -13.3556 -10.7770  -2.7169  -1.9880  -1.3102   8.3571   9.4170

          k =-0.1148 0.7214 0.0000 (  2696 PWs)   bands (ev):

   -15.3571 -13.3653 -10.7793  -2.6900  -2.0157  -1.3116   8.3580   9.4561

          k =-0.1148 0.7234 0.0000 (  2696 PWs)   bands (ev):

   -15.3484 -13.3742 -10.7814  -2.6622  -2.0434  -1.3128   8.3589   9.4951

          k =-0.1148 0.7254 0.0000 (  2696 PWs)   bands (ev):

   -15.3403 -13.3823 -10.7833  -2.6343  -2.0711  -1.3140   8.3597   9.5336

          k =-0.1148 0.7274 0.0000 (  2698 PWs)   bands (ev):

   -15.3334 -13.3898 -10.7852  -2.6066  -2.0992  -1.3158   8.3604   9.5713

          k =-0.1148 0.7294 0.0000 (  2698 PWs)   bands (ev):

   -15.3268 -13.3964 -10.7867  -2.5788  -2.1268  -1.3167   8.3610   9.6084

          k =-0.1148 0.7314 0.0000 (  2698 PWs)   bands (ev):

   -15.3207 -13.4020 -10.7883  -2.5511  -2.1543  -1.3179   8.3616   9.6445

          k =-0.1148 0.7334 0.0000 (  2698 PWs)   bands (ev):

   -15.3156 -13.4070 -10.7894  -2.5237  -2.1835  -1.3183   8.3620   9.6791

          k =-0.1148 0.7354 0.0000 (  2698 PWs)   bands (ev):

   -15.3112 -13.4114 -10.7904  -2.4963  -2.2108  -1.3189   8.3624   9.7119

          k =-0.1148 0.7374 0.0000 (  2698 PWs)   bands (ev):

   -15.3076 -13.4150 -10.7912  -2.4692  -2.2379  -1.3193   8.3627   9.7419

          k =-0.1148 0.7394 0.0000 (  2698 PWs)   bands (ev):

   -15.3048 -13.4182 -10.7918  -2.4435  -2.2647  -1.3192   8.3629   9.7685

          k =-0.1148 0.7414 0.0000 (  2696 PWs)   bands (ev):

   -15.3027 -13.4201 -10.7915  -2.4178  -2.2893  -1.3186   8.3631   9.7893

          k =-0.1148 0.7434 0.0000 (  2696 PWs)   bands (ev):

   -15.3015 -13.4214 -10.7918  -2.3959  -2.3112  -1.3188   8.3632   9.8030

          k =-0.1148 0.7454 0.0000 (  2694 PWs)   bands (ev):

   -15.3008 -13.4216 -10.7915  -2.3852  -2.3215  -1.3187   8.3633   9.8078

          k =-0.1148 0.7474 0.0000 (  2696 PWs)   bands (ev):

   -15.3015 -13.4214 -10.7918  -2.3959  -2.3112  -1.3188   8.3632   9.8030

          k =-0.1148 0.7494 0.0000 (  2696 PWs)   bands (ev):

   -15.3027 -13.4201 -10.7915  -2.4178  -2.2893  -1.3186   8.3631   9.7893

          k =-0.1148 0.7514 0.0000 (  2698 PWs)   bands (ev):

   -15.3048 -13.4182 -10.7918  -2.4435  -2.2647  -1.3192   8.3629   9.7685

          k =-0.1148 0.7534 0.0000 (  2698 PWs)   bands (ev):

   -15.3076 -13.4150 -10.7912  -2.4692  -2.2379  -1.3193   8.3627   9.7419

          k =-0.1148 0.7554 0.0000 (  2698 PWs)   bands (ev):

   -15.3112 -13.4114 -10.7904  -2.4963  -2.2108  -1.3189   8.3624   9.7118

          k =-0.1148 0.7574 0.0000 (  2698 PWs)   bands (ev):

   -15.3156 -13.4070 -10.7894  -2.5237  -2.1835  -1.3183   8.3620   9.6791

          k =-0.1148 0.7594 0.0000 (  2698 PWs)   bands (ev):

   -15.3207 -13.4020 -10.7883  -2.5511  -2.1543  -1.3179   8.3616   9.6444

          k =-0.1148 0.7614 0.0000 (  2698 PWs)   bands (ev):

   -15.3268 -13.3964 -10.7867  -2.5788  -2.1268  -1.3167   8.3610   9.6084

          k =-0.1148 0.7634 0.0000 (  2698 PWs)   bands (ev):

   -15.3334 -13.3897 -10.7851  -2.6066  -2.0992  -1.3158   8.3604   9.5713

          k =-0.1148 0.7654 0.0000 (  2696 PWs)   bands (ev):

   -15.3403 -13.3823 -10.7833  -2.6343  -2.0711  -1.3140   8.3597   9.5336

          k =-0.1148 0.7674 0.0000 (  2696 PWs)   bands (ev):

   -15.3484 -13.3742 -10.7814  -2.6622  -2.0434  -1.3128   8.3589   9.4951

          k =-0.1148 0.7694 0.0000 (  2696 PWs)   bands (ev):

   -15.3571 -13.3653 -10.7793  -2.6901  -2.0157  -1.3116   8.3580   9.4561

          k =-0.1148 0.7714 0.0000 (  2694 PWs)   bands (ev):

   -15.3656 -13.3556 -10.7770  -2.7169  -1.9880  -1.3102   8.3571   9.4170

          k =-0.1148 0.7734 0.0000 (  2694 PWs)   bands (ev):

   -15.3757 -13.3454 -10.7745  -2.7448  -1.9603  -1.3087   8.3559   9.3774

          k =-0.1148 0.7754 0.0000 (  2692 PWs)   bands (ev):

   -15.3861 -13.3345 -10.7717  -2.7723  -1.9319  -1.3071   8.3548   9.3376

          k =-0.1148 0.7774 0.0000 (  2692 PWs)   bands (ev):

   -15.3974 -13.3231 -10.7688  -2.8003  -1.9042  -1.3054   8.3534   9.2976

          k =-0.1148 0.7794 0.0000 (  2692 PWs)   bands (ev):

   -15.4093 -13.3111 -10.7658  -2.8282  -1.8766  -1.3036   8.3519   9.2575

          k =-0.1148 0.7814 0.0000 (  2688 PWs)   bands (ev):

   -15.4206 -13.2981 -10.7616  -2.8559  -1.8487  -1.3017   8.3503   9.2175

          k =-0.1148 0.7834 0.0000 (  2688 PWs)   bands (ev):

   -15.4336 -13.2849 -10.7582  -2.8838  -1.8210  -1.2997   8.3485   9.1772

          k =-0.1148 0.7854 0.0000 (  2688 PWs)   bands (ev):

   -15.4471 -13.2713 -10.7546  -2.9117  -1.7934  -1.2977   8.3466   9.1368

          k =-0.1128 0.7054 0.0000 (  2688 PWs)   bands (ev):

   -15.4466 -13.2747 -10.7406  -2.9121  -1.7901  -1.3269   8.3601   9.1306

          k =-0.1128 0.7074 0.0000 (  2688 PWs)   bands (ev):

   -15.4330 -13.2885 -10.7441  -2.8841  -1.8178  -1.3289   8.3622   9.1710

          k =-0.1128 0.7094 0.0000 (  2690 PWs)   bands (ev):

   -15.4202 -13.3018 -10.7483  -2.8563  -1.8457  -1.3309   8.3641   9.2113

          k =-0.1128 0.7114 0.0000 (  2688 PWs)   bands (ev):

   -15.4075 -13.3144 -10.7511  -2.8281  -1.8734  -1.3321   8.3659   9.2517

          k =-0.1128 0.7134 0.0000 (  2692 PWs)   bands (ev):

   -15.3966 -13.3270 -10.7546  -2.8005  -1.9012  -1.3346   8.3675   9.2915

          k =-0.1128 0.7154 0.0000 (  2692 PWs)   bands (ev):

   -15.3852 -13.3385 -10.7574  -2.7725  -1.9289  -1.3363   8.3690   9.3315

          k =-0.1128 0.7174 0.0000 (  2694 PWs)   bands (ev):

   -15.3747 -13.3496 -10.7602  -2.7450  -1.9573  -1.3379   8.3703   9.3713

          k =-0.1128 0.7194 0.0000 (  2696 PWs)   bands (ev):

   -15.3655 -13.3600 -10.7626  -2.7181  -1.9850  -1.3395   8.3714   9.4107

          k =-0.1128 0.7214 0.0000 (  2696 PWs)   bands (ev):

   -15.3560 -13.3697 -10.7649  -2.6902  -2.0127  -1.3408   8.3725   9.4501

          k =-0.1128 0.7234 0.0000 (  2696 PWs)   bands (ev):

   -15.3473 -13.3786 -10.7669  -2.6624  -2.0404  -1.3421   8.3735   9.4891

          k =-0.1128 0.7254 0.0000 (  2696 PWs)   bands (ev):

   -15.3392 -13.3868 -10.7688  -2.6345  -2.0681  -1.3432   8.3744   9.5276

          k =-0.1128 0.7274 0.0000 (  2698 PWs)   bands (ev):

   -15.3322 -13.3943 -10.7706  -2.6068  -2.0962  -1.3450   8.3752   9.5654

          k =-0.1128 0.7294 0.0000 (  2700 PWs)   bands (ev):

   -15.3260 -13.4011 -10.7725  -2.5791  -2.1239  -1.3465   8.3759   9.6024

          k =-0.1128 0.7314 0.0000 (  2698 PWs)   bands (ev):

   -15.3200 -13.4069 -10.7738  -2.5515  -2.1513  -1.3466   8.3765   9.6386

          k =-0.1128 0.7334 0.0000 (  2700 PWs)   bands (ev):

   -15.3149 -13.4122 -10.7749  -2.5243  -2.1804  -1.3477   8.3770   9.6732

          k =-0.1128 0.7354 0.0000 (  2698 PWs)   bands (ev):

   -15.3098 -13.4162 -10.7758  -2.4971  -2.2073  -1.3481   8.3774   9.7061

          k =-0.1128 0.7374 0.0000 (  2698 PWs)   bands (ev):

   -15.3064 -13.4201 -10.7758  -2.4721  -2.2333  -1.3477   8.3778   9.7362

          k =-0.1128 0.7394 0.0000 (  2698 PWs)   bands (ev):

   -15.3035 -13.4230 -10.7768  -2.4464  -2.2592  -1.3472   8.3781   9.7627

          k =-0.1128 0.7414 0.0000 (  2698 PWs)   bands (ev):

   -15.3015 -13.4252 -10.7773  -2.4209  -2.2838  -1.3479   8.3783   9.7838

          k =-0.1128 0.7434 0.0000 (  2698 PWs)   bands (ev):

   -15.3003 -13.4265 -10.7775  -2.4008  -2.3039  -1.3481   8.3784   9.7974

          k =-0.1128 0.7454 0.0000 (  2698 PWs)   bands (ev):

   -15.2999 -13.4269 -10.7776  -2.3919  -2.3128  -1.3481   8.3784   9.8022

          k =-0.1128 0.7474 0.0000 (  2698 PWs)   bands (ev):

   -15.3003 -13.4265 -10.7775  -2.4008  -2.3039  -1.3481   8.3784   9.7974

          k =-0.1128 0.7494 0.0000 (  2698 PWs)   bands (ev):

   -15.3015 -13.4252 -10.7773  -2.4209  -2.2838  -1.3479   8.3783   9.7838

          k =-0.1128 0.7514 0.0000 (  2698 PWs)   bands (ev):

   -15.3035 -13.4230 -10.7768  -2.4464  -2.2592  -1.3472   8.3781   9.7627

          k =-0.1128 0.7534 0.0000 (  2698 PWs)   bands (ev):

   -15.3064 -13.4201 -10.7758  -2.4721  -2.2333  -1.3477   8.3778   9.7362

          k =-0.1128 0.7554 0.0000 (  2698 PWs)   bands (ev):

   -15.3098 -13.4162 -10.7758  -2.4971  -2.2073  -1.3481   8.3774   9.7061

          k =-0.1128 0.7574 0.0000 (  2700 PWs)   bands (ev):

   -15.3149 -13.4122 -10.7749  -2.5243  -2.1804  -1.3477   8.3770   9.6732

          k =-0.1128 0.7594 0.0000 (  2698 PWs)   bands (ev):

   -15.3200 -13.4069 -10.7738  -2.5515  -2.1513  -1.3466   8.3765   9.6386

          k =-0.1128 0.7614 0.0000 (  2700 PWs)   bands (ev):

   -15.3260 -13.4011 -10.7725  -2.5791  -2.1238  -1.3465   8.3759   9.6024

          k =-0.1128 0.7634 0.0000 (  2698 PWs)   bands (ev):

   -15.3322 -13.3943 -10.7706  -2.6068  -2.0962  -1.3450   8.3752   9.5654

          k =-0.1128 0.7654 0.0000 (  2696 PWs)   bands (ev):

   -15.3392 -13.3868 -10.7688  -2.6345  -2.0681  -1.3432   8.3744   9.5276

          k =-0.1128 0.7674 0.0000 (  2696 PWs)   bands (ev):

   -15.3473 -13.3786 -10.7669  -2.6624  -2.0404  -1.3421   8.3735   9.4891

          k =-0.1128 0.7694 0.0000 (  2696 PWs)   bands (ev):

   -15.3560 -13.3697 -10.7649  -2.6902  -2.0127  -1.3408   8.3725   9.4501

          k =-0.1128 0.7714 0.0000 (  2696 PWs)   bands (ev):

   -15.3655 -13.3600 -10.7626  -2.7181  -1.9850  -1.3395   8.3714   9.4107

          k =-0.1128 0.7734 0.0000 (  2694 PWs)   bands (ev):

   -15.3747 -13.3496 -10.7602  -2.7450  -1.9573  -1.3379   8.3703   9.3713

          k =-0.1128 0.7754 0.0000 (  2692 PWs)   bands (ev):

   -15.3852 -13.3385 -10.7574  -2.7725  -1.9289  -1.3363   8.3690   9.3315

          k =-0.1128 0.7774 0.0000 (  2692 PWs)   bands (ev):

   -15.3966 -13.3270 -10.7546  -2.8005  -1.9012  -1.3346   8.3675   9.2915

          k =-0.1128 0.7794 0.0000 (  2688 PWs)   bands (ev):

   -15.4075 -13.3144 -10.7511  -2.8282  -1.8734  -1.3321   8.3659   9.2517

          k =-0.1128 0.7814 0.0000 (  2690 PWs)   bands (ev):

   -15.4203 -13.3018 -10.7483  -2.8563  -1.8457  -1.3309   8.3641   9.2112

          k =-0.1128 0.7834 0.0000 (  2688 PWs)   bands (ev):

   -15.4330 -13.2885 -10.7441  -2.8841  -1.8178  -1.3289   8.3622   9.1709

          k =-0.1128 0.7854 0.0000 (  2688 PWs)   bands (ev):

   -15.4466 -13.2747 -10.7406  -2.9121  -1.7901  -1.3269   8.3601   9.1305

          k =-0.1108 0.7054 0.0000 (  2688 PWs)   bands (ev):

   -15.4461 -13.2780 -10.7267  -2.9125  -1.7868  -1.3557   8.3735   9.1244

          k =-0.1108 0.7074 0.0000 (  2688 PWs)   bands (ev):

   -15.4325 -13.2919 -10.7302  -2.8845  -1.8145  -1.3578   8.3758   9.1648

          k =-0.1108 0.7094 0.0000 (  2690 PWs)   bands (ev):

   -15.4196 -13.3054 -10.7342  -2.8566  -1.8425  -1.3598   8.3779   9.2051

          k =-0.1108 0.7114 0.0000 (  2690 PWs)   bands (ev):

   -15.4071 -13.3182 -10.7373  -2.8287  -1.8702  -1.3616   8.3798   9.2454

          k =-0.1108 0.7134 0.0000 (  2688 PWs)   bands (ev):

   -15.3948 -13.3304 -10.7399  -2.8005  -1.8980  -1.3627   8.3816   9.2858

          k =-0.1108 0.7154 0.0000 (  2690 PWs)   bands (ev):

   -15.3842 -13.3424 -10.7431  -2.7729  -1.9257  -1.3644   8.3832   9.3256

          k =-0.1108 0.7174 0.0000 (  2694 PWs)   bands (ev):

   -15.3738 -13.3536 -10.7459  -2.7453  -1.9542  -1.3668   8.3846   9.3653

          k =-0.1108 0.7194 0.0000 (  2696 PWs)   bands (ev):

   -15.3646 -13.3642 -10.7483  -2.7184  -1.9819  -1.3683   8.3858   9.4048

          k =-0.1108 0.7214 0.0000 (  2696 PWs)   bands (ev):

   -15.3550 -13.3739 -10.7505  -2.6905  -2.0097  -1.3697   8.3871   9.4441

          k =-0.1108 0.7234 0.0000 (  2696 PWs)   bands (ev):

   -15.3462 -13.3829 -10.7526  -2.6627  -2.0373  -1.3709   8.3882   9.4832

          k =-0.1108 0.7254 0.0000 (  2696 PWs)   bands (ev):

   -15.3380 -13.3913 -10.7544  -2.6349  -2.0650  -1.3720   8.3891   9.5217

          k =-0.1108 0.7274 0.0000 (  2698 PWs)   bands (ev):

   -15.3312 -13.3986 -10.7563  -2.6083  -2.0947  -1.3732   8.3898   9.5596

          k =-0.1108 0.7294 0.0000 (  2700 PWs)   bands (ev):

   -15.3249 -13.4055 -10.7581  -2.5807  -2.1223  -1.3748   8.3906   9.5966

          k =-0.1108 0.7314 0.0000 (  2700 PWs)   bands (ev):

   -15.3189 -13.4115 -10.7594  -2.5532  -2.1497  -1.3756   8.3912   9.6328

          k =-0.1108 0.7334 0.0000 (  2700 PWs)   bands (ev):

   -15.3140 -13.4169 -10.7602  -2.5258  -2.1762  -1.3755   8.3919   9.6676

          k =-0.1108 0.7354 0.0000 (  2702 PWs)   bands (ev):

   -15.3097 -13.4215 -10.7611  -2.4991  -2.2048  -1.3766   8.3923   9.7004

          k =-0.1108 0.7374 0.0000 (  2702 PWs)   bands (ev):

   -15.3056 -13.4250 -10.7618  -2.4749  -2.2310  -1.3768   8.3927   9.7306

          k =-0.1108 0.7394 0.0000 (  2700 PWs)   bands (ev):

   -15.3023 -13.4278 -10.7624  -2.4493  -2.2564  -1.3762   8.3930   9.7572

          k =-0.1108 0.7414 0.0000 (  2700 PWs)   bands (ev):

   -15.3003 -13.4299 -10.7628  -2.4258  -2.2798  -1.3764   8.3932   9.7782

          k =-0.1108 0.7434 0.0000 (  2700 PWs)   bands (ev):

   -15.2991 -13.4313 -10.7631  -2.4059  -2.2989  -1.3771   8.3933   9.7920

          k =-0.1108 0.7454 0.0000 (  2700 PWs)   bands (ev):

   -15.2987 -13.4317 -10.7632  -2.3979  -2.3069  -1.3771   8.3933   9.7968

          k =-0.1108 0.7474 0.0000 (  2700 PWs)   bands (ev):

   -15.2991 -13.4313 -10.7631  -2.4059  -2.2989  -1.3771   8.3933   9.7920

          k =-0.1108 0.7494 0.0000 (  2700 PWs)   bands (ev):

   -15.3003 -13.4299 -10.7628  -2.4258  -2.2798  -1.3764   8.3932   9.7782

          k =-0.1108 0.7514 0.0000 (  2700 PWs)   bands (ev):

   -15.3023 -13.4278 -10.7624  -2.4493  -2.2564  -1.3762   8.3930   9.7572

          k =-0.1108 0.7534 0.0000 (  2702 PWs)   bands (ev):

   -15.3056 -13.4250 -10.7618  -2.4749  -2.2310  -1.3768   8.3927   9.7306

          k =-0.1108 0.7554 0.0000 (  2702 PWs)   bands (ev):

   -15.3097 -13.4215 -10.7611  -2.4991  -2.2048  -1.3766   8.3923   9.7004

          k =-0.1108 0.7574 0.0000 (  2700 PWs)   bands (ev):

   -15.3140 -13.4169 -10.7602  -2.5258  -2.1762  -1.3755   8.3919   9.6676

          k =-0.1108 0.7594 0.0000 (  2700 PWs)   bands (ev):

   -15.3189 -13.4115 -10.7594  -2.5532  -2.1497  -1.3756   8.3912   9.6328

          k =-0.1108 0.7614 0.0000 (  2700 PWs)   bands (ev):

   -15.3249 -13.4055 -10.7581  -2.5807  -2.1223  -1.3748   8.3906   9.5966

          k =-0.1108 0.7634 0.0000 (  2698 PWs)   bands (ev):

   -15.3312 -13.3986 -10.7563  -2.6083  -2.0947  -1.3732   8.3898   9.5596

          k =-0.1108 0.7654 0.0000 (  2696 PWs)   bands (ev):

   -15.3380 -13.3913 -10.7544  -2.6349  -2.0650  -1.3720   8.3891   9.5217

          k =-0.1108 0.7674 0.0000 (  2696 PWs)   bands (ev):

   -15.3462 -13.3829 -10.7526  -2.6627  -2.0373  -1.3709   8.3882   9.4831

          k =-0.1108 0.7694 0.0000 (  2696 PWs)   bands (ev):

   -15.3550 -13.3739 -10.7505  -2.6905  -2.0096  -1.3697   8.3871   9.4441

          k =-0.1108 0.7714 0.0000 (  2696 PWs)   bands (ev):

   -15.3646 -13.3642 -10.7483  -2.7184  -1.9819  -1.3683   8.3858   9.4047

          k =-0.1108 0.7734 0.0000 (  2694 PWs)   bands (ev):

   -15.3738 -13.3536 -10.7459  -2.7453  -1.9542  -1.3668   8.3846   9.3653

          k =-0.1108 0.7754 0.0000 (  2690 PWs)   bands (ev):

   -15.3842 -13.3424 -10.7431  -2.7729  -1.9257  -1.3644   8.3832   9.3255

          k =-0.1108 0.7774 0.0000 (  2688 PWs)   bands (ev):

   -15.3948 -13.3304 -10.7399  -2.8005  -1.8980  -1.3627   8.3816   9.2858

          k =-0.1108 0.7794 0.0000 (  2690 PWs)   bands (ev):

   -15.4071 -13.3182 -10.7373  -2.8287  -1.8702  -1.3616   8.3798   9.2454

          k =-0.1108 0.7814 0.0000 (  2690 PWs)   bands (ev):

   -15.4196 -13.3054 -10.7342  -2.8567  -1.8425  -1.3598   8.3779   9.2051

          k =-0.1108 0.7834 0.0000 (  2688 PWs)   bands (ev):

   -15.4325 -13.2919 -10.7301  -2.8845  -1.8145  -1.3578   8.3758   9.1648

          k =-0.1108 0.7854 0.0000 (  2688 PWs)   bands (ev):

   -15.4461 -13.2780 -10.7267  -2.9125  -1.7868  -1.3557   8.3735   9.1244

          k =-0.1088 0.7054 0.0000 (  2690 PWs)   bands (ev):

   -15.4459 -13.2813 -10.7130  -2.9142  -1.7851  -1.3843   8.3867   9.1183

          k =-0.1088 0.7074 0.0000 (  2692 PWs)   bands (ev):

   -15.4325 -13.2954 -10.7172  -2.8863  -1.8131  -1.3864   8.3891   9.1587

          k =-0.1088 0.7094 0.0000 (  2692 PWs)   bands (ev):

   -15.4193 -13.3090 -10.7204  -2.8583  -1.8409  -1.3883   8.3914   9.1991

          k =-0.1088 0.7114 0.0000 (  2692 PWs)   bands (ev):

   -15.4066 -13.3219 -10.7235  -2.8303  -1.8687  -1.3902   8.3935   9.2394

          k =-0.1088 0.7134 0.0000 (  2690 PWs)   bands (ev):

   -15.3943 -13.3342 -10.7260  -2.8021  -1.8965  -1.3913   8.3954   9.2798

          k =-0.1088 0.7154 0.0000 (  2692 PWs)   bands (ev):

   -15.3831 -13.3461 -10.7288  -2.7745  -1.9249  -1.3931   8.3971   9.3199

          k =-0.1088 0.7174 0.0000 (  2696 PWs)   bands (ev):

   -15.3739 -13.3577 -10.7318  -2.7479  -1.9527  -1.3948   8.3986   9.3593

          k =-0.1088 0.7194 0.0000 (  2696 PWs)   bands (ev):

   -15.3637 -13.3682 -10.7341  -2.7200  -1.9804  -1.3962   8.4000   9.3990

          k =-0.1088 0.7214 0.0000 (  2698 PWs)   bands (ev):

   -15.3543 -13.3781 -10.7365  -2.6921  -2.0082  -1.3983   8.4013   9.4383

          k =-0.1088 0.7234 0.0000 (  2696 PWs)   bands (ev):

   -15.3453 -13.3870 -10.7383  -2.6642  -2.0359  -1.3988   8.4025   9.4774

          k =-0.1088 0.7254 0.0000 (  2698 PWs)   bands (ev):

   -15.3374 -13.3955 -10.7405  -2.6368  -2.0635  -1.4000   8.4036   9.5160

          k =-0.1088 0.7274 0.0000 (  2702 PWs)   bands (ev):

   -15.3308 -13.4032 -10.7427  -2.6093  -2.0916  -1.4024   8.4045   9.5537

          k =-0.1088 0.7294 0.0000 (  2700 PWs)   bands (ev):

   -15.3240 -13.4100 -10.7433  -2.5813  -2.1183  -1.4025   8.4055   9.5909

          k =-0.1088 0.7314 0.0000 (  2700 PWs)   bands (ev):

   -15.3180 -13.4162 -10.7446  -2.5539  -2.1455  -1.4033   8.4062   9.6272

          k =-0.1088 0.7334 0.0000 (  2700 PWs)   bands (ev):

   -15.3127 -13.4215 -10.7458  -2.5268  -2.1725  -1.4040   8.4068   9.6620

          k =-0.1088 0.7354 0.0000 (  2704 PWs)   bands (ev):

   -15.3087 -13.4264 -10.7468  -2.5027  -2.2008  -1.4051   8.4072   9.6948

          k =-0.1088 0.7374 0.0000 (  2702 PWs)   bands (ev):

   -15.3046 -13.4300 -10.7475  -2.4766  -2.2267  -1.4045   8.4077   9.7253

          k =-0.1088 0.7394 0.0000 (  2700 PWs)   bands (ev):

   -15.3010 -13.4326 -10.7480  -2.4518  -2.2512  -1.4047   8.4080   9.7518

          k =-0.1088 0.7414 0.0000 (  2700 PWs)   bands (ev):

   -15.2990 -13.4347 -10.7484  -2.4293  -2.2736  -1.4050   8.4082   9.7728

          k =-0.1088 0.7434 0.0000 (  2702 PWs)   bands (ev):

   -15.2979 -13.4361 -10.7490  -2.4119  -2.2914  -1.4058   8.4083   9.7865

          k =-0.1088 0.7454 0.0000 (  2704 PWs)   bands (ev):

   -15.2975 -13.4366 -10.7495  -2.4056  -2.2990  -1.4061   8.4084   9.7912

          k =-0.1088 0.7474 0.0000 (  2702 PWs)   bands (ev):

   -15.2979 -13.4361 -10.7490  -2.4120  -2.2914  -1.4058   8.4083   9.7865

          k =-0.1088 0.7494 0.0000 (  2700 PWs)   bands (ev):

   -15.2990 -13.4347 -10.7484  -2.4293  -2.2736  -1.4050   8.4082   9.7728

          k =-0.1088 0.7514 0.0000 (  2700 PWs)   bands (ev):

   -15.3010 -13.4326 -10.7480  -2.4518  -2.2512  -1.4047   8.4080   9.7518

          k =-0.1088 0.7534 0.0000 (  2702 PWs)   bands (ev):

   -15.3046 -13.4300 -10.7475  -2.4766  -2.2267  -1.4045   8.4077   9.7253

          k =-0.1088 0.7554 0.0000 (  2704 PWs)   bands (ev):

   -15.3087 -13.4264 -10.7467  -2.5027  -2.2008  -1.4051   8.4072   9.6948

          k =-0.1088 0.7574 0.0000 (  2700 PWs)   bands (ev):

   -15.3127 -13.4215 -10.7458  -2.5268  -2.1725  -1.4040   8.4068   9.6620

          k =-0.1088 0.7594 0.0000 (  2700 PWs)   bands (ev):

   -15.3180 -13.4162 -10.7446  -2.5539  -2.1455  -1.4033   8.4062   9.6272

          k =-0.1088 0.7614 0.0000 (  2700 PWs)   bands (ev):

   -15.3240 -13.4100 -10.7433  -2.5813  -2.1183  -1.4025   8.4055   9.5909

          k =-0.1088 0.7634 0.0000 (  2702 PWs)   bands (ev):

   -15.3308 -13.4032 -10.7427  -2.6093  -2.0916  -1.4024   8.4045   9.5537

          k =-0.1088 0.7654 0.0000 (  2698 PWs)   bands (ev):

   -15.3375 -13.3955 -10.7405  -2.6369  -2.0635  -1.4000   8.4036   9.5160

          k =-0.1088 0.7674 0.0000 (  2696 PWs)   bands (ev):

   -15.3453 -13.3870 -10.7383  -2.6643  -2.0359  -1.3988   8.4025   9.4774

          k =-0.1088 0.7694 0.0000 (  2698 PWs)   bands (ev):

   -15.3543 -13.3781 -10.7365  -2.6921  -2.0082  -1.3983   8.4013   9.4383

          k =-0.1088 0.7714 0.0000 (  2696 PWs)   bands (ev):

   -15.3637 -13.3682 -10.7341  -2.7200  -1.9804  -1.3962   8.4000   9.3990

          k =-0.1088 0.7734 0.0000 (  2696 PWs)   bands (ev):

   -15.3739 -13.3577 -10.7318  -2.7479  -1.9527  -1.3948   8.3986   9.3593

          k =-0.1088 0.7754 0.0000 (  2692 PWs)   bands (ev):

   -15.3831 -13.3461 -10.7288  -2.7745  -1.9249  -1.3931   8.3971   9.3199

          k =-0.1088 0.7774 0.0000 (  2690 PWs)   bands (ev):

   -15.3943 -13.3342 -10.7260  -2.8021  -1.8964  -1.3913   8.3954   9.2798

          k =-0.1088 0.7794 0.0000 (  2692 PWs)   bands (ev):

   -15.4066 -13.3219 -10.7234  -2.8303  -1.8687  -1.3902   8.3935   9.2394

          k =-0.1088 0.7814 0.0000 (  2692 PWs)   bands (ev):

   -15.4193 -13.3090 -10.7204  -2.8583  -1.8409  -1.3883   8.3914   9.1991

          k =-0.1088 0.7834 0.0000 (  2692 PWs)   bands (ev):

   -15.4325 -13.2954 -10.7172  -2.8863  -1.8131  -1.3864   8.3891   9.1587

          k =-0.1088 0.7854 0.0000 (  2690 PWs)   bands (ev):

   -15.4459 -13.2813 -10.7130  -2.9142  -1.7851  -1.3843   8.3867   9.1183

          k =-0.1068 0.7054 0.0000 (  2692 PWs)   bands (ev):

   -15.4458 -13.2846 -10.7000  -2.9149  -1.7820  -1.4123   8.4000   9.1123

          k =-0.1068 0.7074 0.0000 (  2692 PWs)   bands (ev):

   -15.4320 -13.2988 -10.7034  -2.8868  -1.8098  -1.4144   8.4026   9.1528

          k =-0.1068 0.7094 0.0000 (  2692 PWs)   bands (ev):

   -15.4188 -13.3124 -10.7065  -2.8588  -1.8376  -1.4164   8.4050   9.1932

          k =-0.1068 0.7114 0.0000 (  2692 PWs)   bands (ev):

   -15.4060 -13.3255 -10.7095  -2.8308  -1.8654  -1.4183   8.4072   9.2335

          k =-0.1068 0.7134 0.0000 (  2690 PWs)   bands (ev):

   -15.3936 -13.3379 -10.7120  -2.8026  -1.8932  -1.4194   8.4093   9.2740

          k =-0.1068 0.7154 0.0000 (  2694 PWs)   bands (ev):

   -15.3832 -13.3500 -10.7148  -2.7761  -1.9217  -1.4213   8.4110   9.3139

          k =-0.1068 0.7174 0.0000 (  2694 PWs)   bands (ev):

   -15.3723 -13.3613 -10.7173  -2.7481  -1.9495  -1.4229   8.4128   9.3538

          k =-0.1068 0.7194 0.0000 (  2696 PWs)   bands (ev):

   -15.3624 -13.3719 -10.7200  -2.7206  -1.9772  -1.4244   8.4143   9.3935

          k =-0.1068 0.7214 0.0000 (  2696 PWs)   bands (ev):

   -15.3535 -13.3819 -10.7225  -2.6930  -2.0049  -1.4250   8.4157   9.4327

          k =-0.1068 0.7234 0.0000 (  2698 PWs)   bands (ev):

   -15.3447 -13.3913 -10.7246  -2.6652  -2.0326  -1.4269   8.4170   9.4717

          k =-0.1068 0.7254 0.0000 (  2698 PWs)   bands (ev):

   -15.3364 -13.3998 -10.7264  -2.6375  -2.0602  -1.4280   8.4182   9.5103

          k =-0.1068 0.7274 0.0000 (  2700 PWs)   bands (ev):

   -15.3297 -13.4075 -10.7276  -2.6096  -2.0875  -1.4297   8.4193   9.5481

          k =-0.1068 0.7294 0.0000 (  2700 PWs)   bands (ev):

   -15.3229 -13.4144 -10.7291  -2.5822  -2.1148  -1.4306   8.4202   9.5854

          k =-0.1068 0.7314 0.0000 (  2700 PWs)   bands (ev):

   -15.3168 -13.4207 -10.7304  -2.5550  -2.1419  -1.4314   8.4210   9.6216

          k =-0.1068 0.7334 0.0000 (  2702 PWs)   bands (ev):

   -15.3118 -13.4263 -10.7315  -2.5304  -2.1687  -1.4321   8.4216   9.6565

          k =-0.1068 0.7354 0.0000 (  2704 PWs)   bands (ev):

   -15.3074 -13.4309 -10.7324  -2.5044  -2.1965  -1.4332   8.4221   9.6893

          k =-0.1068 0.7374 0.0000 (  2702 PWs)   bands (ev):

   -15.3034 -13.4346 -10.7332  -2.4787  -2.2220  -1.4326   8.4226   9.7199

          k =-0.1068 0.7394 0.0000 (  2702 PWs)   bands (ev):

   -15.3005 -13.4376 -10.7338  -2.4546  -2.2460  -1.4330   8.4230   9.7463

          k =-0.1068 0.7414 0.0000 (  2700 PWs)   bands (ev):

   -15.2977 -13.4393 -10.7341  -2.4332  -2.2672  -1.4331   8.4232   9.7675

          k =-0.1068 0.7434 0.0000 (  2702 PWs)   bands (ev):

   -15.2965 -13.4407 -10.7347  -2.4176  -2.2839  -1.4334   8.4234   9.7812

          k =-0.1068 0.7454 0.0000 (  2704 PWs)   bands (ev):

   -15.2962 -13.4413 -10.7351  -2.4114  -2.2906  -1.4342   8.4234   9.7860

          k =-0.1068 0.7474 0.0000 (  2702 PWs)   bands (ev):

   -15.2965 -13.4407 -10.7347  -2.4176  -2.2839  -1.4334   8.4234   9.7812

          k =-0.1068 0.7494 0.0000 (  2700 PWs)   bands (ev):

   -15.2977 -13.4393 -10.7341  -2.4332  -2.2672  -1.4331   8.4232   9.7675

          k =-0.1068 0.7514 0.0000 (  2702 PWs)   bands (ev):

   -15.3005 -13.4376 -10.7338  -2.4546  -2.2460  -1.4330   8.4230   9.7463

          k =-0.1068 0.7534 0.0000 (  2702 PWs)   bands (ev):

   -15.3034 -13.4346 -10.7332  -2.4787  -2.2220  -1.4326   8.4226   9.7199

          k =-0.1068 0.7554 0.0000 (  2704 PWs)   bands (ev):

   -15.3074 -13.4309 -10.7324  -2.5044  -2.1965  -1.4332   8.4221   9.6893

          k =-0.1068 0.7574 0.0000 (  2702 PWs)   bands (ev):

   -15.3118 -13.4263 -10.7315  -2.5304  -2.1687  -1.4321   8.4216   9.6565

          k =-0.1068 0.7594 0.0000 (  2700 PWs)   bands (ev):

   -15.3168 -13.4206 -10.7304  -2.5550  -2.1419  -1.4314   8.4210   9.6216

          k =-0.1068 0.7614 0.0000 (  2700 PWs)   bands (ev):

   -15.3229 -13.4144 -10.7291  -2.5822  -2.1148  -1.4306   8.4202   9.5853

          k =-0.1068 0.7634 0.0000 (  2700 PWs)   bands (ev):

   -15.3297 -13.4075 -10.7276  -2.6096  -2.0875  -1.4297   8.4193   9.5480

          k =-0.1068 0.7654 0.0000 (  2698 PWs)   bands (ev):

   -15.3364 -13.3998 -10.7264  -2.6375  -2.0602  -1.4280   8.4182   9.5103

          k =-0.1068 0.7674 0.0000 (  2698 PWs)   bands (ev):

   -15.3447 -13.3913 -10.7246  -2.6652  -2.0326  -1.4269   8.4170   9.4716

          k =-0.1068 0.7694 0.0000 (  2696 PWs)   bands (ev):

   -15.3535 -13.3819 -10.7225  -2.6930  -2.0049  -1.4250   8.4157   9.4327

          k =-0.1068 0.7714 0.0000 (  2696 PWs)   bands (ev):

   -15.3624 -13.3719 -10.7200  -2.7206  -1.9772  -1.4244   8.4143   9.3935

          k =-0.1068 0.7734 0.0000 (  2694 PWs)   bands (ev):

   -15.3723 -13.3613 -10.7173  -2.7481  -1.9495  -1.4229   8.4128   9.3538

          k =-0.1068 0.7754 0.0000 (  2694 PWs)   bands (ev):

   -15.3832 -13.3500 -10.7148  -2.7761  -1.9217  -1.4213   8.4110   9.3138

          k =-0.1068 0.7774 0.0000 (  2690 PWs)   bands (ev):

   -15.3936 -13.3379 -10.7120  -2.8027  -1.8932  -1.4194   8.4093   9.2739

          k =-0.1068 0.7794 0.0000 (  2692 PWs)   bands (ev):

   -15.4060 -13.3255 -10.7095  -2.8308  -1.8654  -1.4183   8.4072   9.2335

          k =-0.1068 0.7814 0.0000 (  2692 PWs)   bands (ev):

   -15.4188 -13.3124 -10.7065  -2.8588  -1.8376  -1.4164   8.4050   9.1932

          k =-0.1068 0.7834 0.0000 (  2692 PWs)   bands (ev):

   -15.4320 -13.2988 -10.7034  -2.8869  -1.8098  -1.4144   8.4026   9.1527

          k =-0.1068 0.7854 0.0000 (  2692 PWs)   bands (ev):

   -15.4458 -13.2846 -10.7000  -2.9149  -1.7820  -1.4123   8.4000   9.1123

          k =-0.1048 0.7054 0.0000 (  2692 PWs)   bands (ev):

   -15.4455 -13.2878 -10.6863  -2.9155  -1.7786  -1.4400   8.4132   9.1064

          k =-0.1048 0.7074 0.0000 (  2692 PWs)   bands (ev):

   -15.4316 -13.3021 -10.6896  -2.8875  -1.8065  -1.4421   8.4160   9.1469

          k =-0.1048 0.7094 0.0000 (  2692 PWs)   bands (ev):

   -15.4183 -13.3159 -10.6928  -2.8594  -1.8343  -1.4441   8.4186   9.1874

          k =-0.1048 0.7114 0.0000 (  2692 PWs)   bands (ev):

   -15.4055 -13.3290 -10.6957  -2.8314  -1.8621  -1.4460   8.4210   9.2277

          k =-0.1048 0.7134 0.0000 (  2694 PWs)   bands (ev):

   -15.3937 -13.3417 -10.6989  -2.8038  -1.8900  -1.4478   8.4231   9.2680

          k =-0.1048 0.7154 0.0000 (  2696 PWs)   bands (ev):

   -15.3829 -13.3539 -10.7013  -2.7771  -1.9185  -1.4491   8.4250   9.3081

          k =-0.1048 0.7174 0.0000 (  2694 PWs)   bands (ev):

   -15.3719 -13.3649 -10.7037  -2.7491  -1.9462  -1.4499   8.4269   9.3481

          k =-0.1048 0.7194 0.0000 (  2694 PWs)   bands (ev):

   -15.3615 -13.3756 -10.7059  -2.7212  -1.9740  -1.4513   8.4286   9.3878

          k =-0.1048 0.7214 0.0000 (  2694 PWs)   bands (ev):

   -15.3518 -13.3856 -10.7080  -2.6934  -2.0016  -1.4527   8.4301   9.4273

          k =-0.1048 0.7234 0.0000 (  2694 PWs)   bands (ev):

   -15.3435 -13.3952 -10.7096  -2.6655  -2.0286  -1.4531   8.4316   9.4662

          k =-0.1048 0.7254 0.0000 (  2694 PWs)   bands (ev):

   -15.3352 -13.4038 -10.7113  -2.6379  -2.0561  -1.4542   8.4328   9.5049

          k =-0.1048 0.7274 0.0000 (  2700 PWs)   bands (ev):

   -15.3286 -13.4117 -10.7135  -2.6105  -2.0840  -1.4574   8.4339   9.5425

          k =-0.1048 0.7294 0.0000 (  2700 PWs)   bands (ev):

   -15.3218 -13.4188 -10.7150  -2.5832  -2.1112  -1.4584   8.4349   9.5799

          k =-0.1048 0.7314 0.0000 (  2702 PWs)   bands (ev):

   -15.3160 -13.4252 -10.7162  -2.5585  -2.1381  -1.4592   8.4357   9.6161

          k =-0.1048 0.7334 0.0000 (  2702 PWs)   bands (ev):

   -15.3107 -13.4307 -10.7173  -2.5319  -2.1646  -1.4599   8.4364   9.6511

          k =-0.1048 0.7354 0.0000 (  2702 PWs)   bands (ev):

   -15.3062 -13.4354 -10.7182  -2.5059  -2.1906  -1.4605   8.4370   9.6841

          k =-0.1048 0.7374 0.0000 (  2702 PWs)   bands (ev):

   -15.3022 -13.4392 -10.7190  -2.4810  -2.2171  -1.4604   8.4375   9.7146

          k =-0.1048 0.7394 0.0000 (  2702 PWs)   bands (ev):

   -15.2993 -13.4422 -10.7196  -2.4577  -2.2404  -1.4607   8.4379   9.7411

          k =-0.1048 0.7414 0.0000 (  2704 PWs)   bands (ev):

   -15.2973 -13.4443 -10.7203  -2.4377  -2.2615  -1.4612   8.4382   9.7621

          k =-0.1048 0.7434 0.0000 (  2702 PWs)   bands (ev):

   -15.2953 -13.4453 -10.7204  -2.4228  -2.2763  -1.4612   8.4383   9.7760

          k =-0.1048 0.7454 0.0000 (  2700 PWs)   bands (ev):

   -15.2947 -13.4455 -10.7201  -2.4171  -2.2815  -1.4606   8.4384   9.7809

          k =-0.1048 0.7474 0.0000 (  2702 PWs)   bands (ev):

   -15.2953 -13.4453 -10.7204  -2.4228  -2.2763  -1.4612   8.4383   9.7760

          k =-0.1048 0.7494 0.0000 (  2704 PWs)   bands (ev):

   -15.2973 -13.4443 -10.7203  -2.4377  -2.2615  -1.4612   8.4382   9.7620

          k =-0.1048 0.7514 0.0000 (  2702 PWs)   bands (ev):

   -15.2993 -13.4422 -10.7196  -2.4577  -2.2404  -1.4607   8.4379   9.7411

          k =-0.1048 0.7534 0.0000 (  2702 PWs)   bands (ev):

   -15.3022 -13.4392 -10.7190  -2.4811  -2.2170  -1.4604   8.4375   9.7146

          k =-0.1048 0.7554 0.0000 (  2702 PWs)   bands (ev):

   -15.3062 -13.4354 -10.7182  -2.5059  -2.1906  -1.4605   8.4370   9.6841

          k =-0.1048 0.7574 0.0000 (  2702 PWs)   bands (ev):

   -15.3107 -13.4307 -10.7173  -2.5319  -2.1646  -1.4599   8.4364   9.6511

          k =-0.1048 0.7594 0.0000 (  2702 PWs)   bands (ev):

   -15.3160 -13.4252 -10.7162  -2.5585  -2.1381  -1.4592   8.4357   9.6161

          k =-0.1048 0.7614 0.0000 (  2700 PWs)   bands (ev):

   -15.3218 -13.4188 -10.7150  -2.5832  -2.1111  -1.4584   8.4349   9.5798

          k =-0.1048 0.7634 0.0000 (  2700 PWs)   bands (ev):

   -15.3286 -13.4117 -10.7135  -2.6105  -2.0840  -1.4574   8.4339   9.5425

          k =-0.1048 0.7654 0.0000 (  2694 PWs)   bands (ev):

   -15.3352 -13.4038 -10.7113  -2.6379  -2.0560  -1.4542   8.4328   9.5048

          k =-0.1048 0.7674 0.0000 (  2694 PWs)   bands (ev):

   -15.3435 -13.3952 -10.7096  -2.6655  -2.0285  -1.4531   8.4316   9.4661

          k =-0.1048 0.7694 0.0000 (  2694 PWs)   bands (ev):

   -15.3518 -13.3856 -10.7080  -2.6934  -2.0016  -1.4527   8.4301   9.4273

          k =-0.1048 0.7714 0.0000 (  2694 PWs)   bands (ev):

   -15.3615 -13.3756 -10.7059  -2.7212  -1.9740  -1.4513   8.4286   9.3878

          k =-0.1048 0.7734 0.0000 (  2694 PWs)   bands (ev):

   -15.3719 -13.3649 -10.7036  -2.7491  -1.9462  -1.4499   8.4269   9.3481

          k =-0.1048 0.7754 0.0000 (  2696 PWs)   bands (ev):

   -15.3829 -13.3538 -10.7013  -2.7771  -1.9185  -1.4491   8.4250   9.3081

          k =-0.1048 0.7774 0.0000 (  2694 PWs)   bands (ev):

   -15.3937 -13.3417 -10.6989  -2.8038  -1.8900  -1.4478   8.4231   9.2679

          k =-0.1048 0.7794 0.0000 (  2692 PWs)   bands (ev):

   -15.4055 -13.3290 -10.6957  -2.8314  -1.8621  -1.4460   8.4210   9.2277

          k =-0.1048 0.7814 0.0000 (  2692 PWs)   bands (ev):

   -15.4183 -13.3158 -10.6928  -2.8595  -1.8343  -1.4441   8.4186   9.1873

          k =-0.1048 0.7834 0.0000 (  2692 PWs)   bands (ev):

   -15.4316 -13.3021 -10.6896  -2.8875  -1.8065  -1.4421   8.4160   9.1469

          k =-0.1048 0.7854 0.0000 (  2692 PWs)   bands (ev):

   -15.4455 -13.2878 -10.6863  -2.9155  -1.7786  -1.4400   8.4132   9.1064

          k =-0.1028 0.7054 0.0000 (  2694 PWs)   bands (ev):

   -15.4456 -13.2910 -10.6732  -2.9166  -1.7752  -1.4673   8.4263   9.1007

          k =-0.1028 0.7074 0.0000 (  2694 PWs)   bands (ev):

   -15.4316 -13.3054 -10.6764  -2.8885  -1.8031  -1.4694   8.4293   9.1412

          k =-0.1028 0.7094 0.0000 (  2694 PWs)   bands (ev):

   -15.4182 -13.3193 -10.6795  -2.8605  -1.8310  -1.4714   8.4320   9.1816

          k =-0.1028 0.7114 0.0000 (  2694 PWs)   bands (ev):

   -15.4054 -13.3326 -10.6824  -2.8325  -1.8588  -1.4733   8.4346   9.2220

          k =-0.1028 0.7134 0.0000 (  2694 PWs)   bands (ev):

   -15.3940 -13.3451 -10.6850  -2.8055  -1.8867  -1.4745   8.4368   9.2622

          k =-0.1028 0.7154 0.0000 (  2694 PWs)   bands (ev):

   -15.3822 -13.3573 -10.6874  -2.7777  -1.9152  -1.4756   8.4389   9.3025

          k =-0.1028 0.7174 0.0000 (  2694 PWs)   bands (ev):

   -15.3712 -13.3687 -10.6898  -2.7498  -1.9429  -1.4772   8.4409   9.3425

          k =-0.1028 0.7194 0.0000 (  2692 PWs)   bands (ev):

   -15.3607 -13.3794 -10.6912  -2.7215  -1.9699  -1.4778   8.4428   9.3823

          k =-0.1028 0.7214 0.0000 (  2692 PWs)   bands (ev):

   -15.3509 -13.3895 -10.6933  -2.6937  -1.9976  -1.4792   8.4445   9.4218

          k =-0.1028 0.7234 0.0000 (  2692 PWs)   bands (ev):

   -15.3418 -13.3989 -10.6952  -2.6661  -2.0251  -1.4804   8.4460   9.4610

          k =-0.1028 0.7254 0.0000 (  2696 PWs)   bands (ev):

   -15.3347 -13.4079 -10.6977  -2.6389  -2.0527  -1.4822   8.4473   9.4992

          k =-0.1028 0.7274 0.0000 (  2698 PWs)   bands (ev):

   -15.3275 -13.4158 -10.6994  -2.6116  -2.0803  -1.4841   8.4485   9.5372

          k =-0.1028 0.7294 0.0000 (  2700 PWs)   bands (ev):

   -15.3208 -13.4231 -10.7009  -2.5844  -2.1074  -1.4857   8.4495   9.5745

          k =-0.1028 0.7314 0.0000 (  2702 PWs)   bands (ev):

   -15.3150 -13.4296 -10.7022  -2.5599  -2.1342  -1.4865   8.4504   9.6108

          k =-0.1028 0.7334 0.0000 (  2702 PWs)   bands (ev):

   -15.3096 -13.4351 -10.7033  -2.5336  -2.1604  -1.4872   8.4512   9.6458

          k =-0.1028 0.7354 0.0000 (  2700 PWs)   bands (ev):

   -15.3047 -13.4397 -10.7042  -2.5077  -2.1860  -1.4868   8.4518   9.6791

          k =-0.1028 0.7374 0.0000 (  2702 PWs)   bands (ev):

   -15.3010 -13.4436 -10.7049  -2.4836  -2.2120  -1.4877   8.4523   9.7094

          k =-0.1028 0.7394 0.0000 (  2704 PWs)   bands (ev):

   -15.2982 -13.4467 -10.7058  -2.4613  -2.2354  -1.4883   8.4527   9.7358

          k =-0.1028 0.7414 0.0000 (  2704 PWs)   bands (ev):

   -15.2961 -13.4488 -10.7062  -2.4419  -2.2549  -1.4886   8.4530   9.7569

          k =-0.1028 0.7434 0.0000 (  2704 PWs)   bands (ev):

   -15.2949 -13.4501 -10.7065  -2.4280  -2.2687  -1.4887   8.4532   9.7708

          k =-0.1028 0.7454 0.0000 (  2700 PWs)   bands (ev):

   -15.2935 -13.4500 -10.7060  -2.4227  -2.2734  -1.4879   8.4533   9.7758

          k =-0.1028 0.7474 0.0000 (  2704 PWs)   bands (ev):

   -15.2949 -13.4501 -10.7065  -2.4280  -2.2687  -1.4887   8.4532   9.7708

          k =-0.1028 0.7494 0.0000 (  2704 PWs)   bands (ev):

   -15.2961 -13.4488 -10.7062  -2.4419  -2.2549  -1.4886   8.4530   9.7569

          k =-0.1028 0.7514 0.0000 (  2704 PWs)   bands (ev):

   -15.2982 -13.4467 -10.7058  -2.4613  -2.2354  -1.4883   8.4527   9.7358

          k =-0.1028 0.7534 0.0000 (  2702 PWs)   bands (ev):

   -15.3010 -13.4436 -10.7049  -2.4836  -2.2120  -1.4877   8.4523   9.7094

          k =-0.1028 0.7554 0.0000 (  2700 PWs)   bands (ev):

   -15.3047 -13.4397 -10.7042  -2.5077  -2.1860  -1.4868   8.4518   9.6791

          k =-0.1028 0.7574 0.0000 (  2702 PWs)   bands (ev):

   -15.3096 -13.4351 -10.7033  -2.5336  -2.1604  -1.4872   8.4512   9.6458

          k =-0.1028 0.7594 0.0000 (  2702 PWs)   bands (ev):

   -15.3150 -13.4296 -10.7022  -2.5599  -2.1341  -1.4865   8.4504   9.6108

          k =-0.1028 0.7614 0.0000 (  2700 PWs)   bands (ev):

   -15.3208 -13.4231 -10.7009  -2.5845  -2.1074  -1.4857   8.4495   9.5744

          k =-0.1028 0.7634 0.0000 (  2698 PWs)   bands (ev):

   -15.3275 -13.4158 -10.6994  -2.6116  -2.0803  -1.4841   8.4485   9.5372

          k =-0.1028 0.7654 0.0000 (  2696 PWs)   bands (ev):

   -15.3347 -13.4079 -10.6977  -2.6389  -2.0527  -1.4822   8.4473   9.4992

          k =-0.1028 0.7674 0.0000 (  2692 PWs)   bands (ev):

   -15.3418 -13.3989 -10.6952  -2.6661  -2.0251  -1.4804   8.4460   9.4609

          k =-0.1028 0.7694 0.0000 (  2692 PWs)   bands (ev):

   -15.3509 -13.3895 -10.6933  -2.6937  -1.9976  -1.4792   8.4445   9.4218

          k =-0.1028 0.7714 0.0000 (  2692 PWs)   bands (ev):

   -15.3607 -13.3794 -10.6912  -2.7215  -1.9699  -1.4778   8.4428   9.3823

          k =-0.1028 0.7734 0.0000 (  2694 PWs)   bands (ev):

   -15.3712 -13.3687 -10.6898  -2.7498  -1.9429  -1.4772   8.4409   9.3425

          k =-0.1028 0.7754 0.0000 (  2694 PWs)   bands (ev):

   -15.3823 -13.3573 -10.6874  -2.7777  -1.9152  -1.4756   8.4389   9.3025

          k =-0.1028 0.7774 0.0000 (  2694 PWs)   bands (ev):

   -15.3940 -13.3451 -10.6850  -2.8055  -1.8867  -1.4745   8.4368   9.2621

          k =-0.1028 0.7794 0.0000 (  2694 PWs)   bands (ev):

   -15.4054 -13.3326 -10.6824  -2.8325  -1.8588  -1.4733   8.4346   9.2220

          k =-0.1028 0.7814 0.0000 (  2694 PWs)   bands (ev):

   -15.4182 -13.3193 -10.6795  -2.8605  -1.8310  -1.4714   8.4320   9.1816

          k =-0.1028 0.7834 0.0000 (  2694 PWs)   bands (ev):

   -15.4316 -13.3054 -10.6764  -2.8886  -1.8031  -1.4694   8.4293   9.1412

          k =-0.1028 0.7854 0.0000 (  2694 PWs)   bands (ev):

   -15.4456 -13.2909 -10.6732  -2.9166  -1.7752  -1.4673   8.4263   9.1006

          k =-0.1008 0.7054 0.0000 (  2694 PWs)   bands (ev):

   -15.4453 -13.2940 -10.6597  -2.9174  -1.7719  -1.4942   8.4393   9.0950

          k =-0.1008 0.7074 0.0000 (  2694 PWs)   bands (ev):

   -15.4313 -13.3086 -10.6629  -2.8893  -1.7998  -1.4963   8.4425   9.1356

          k =-0.1008 0.7094 0.0000 (  2694 PWs)   bands (ev):

   -15.4178 -13.3226 -10.6659  -2.8613  -1.8276  -1.4983   8.4454   9.1760

          k =-0.1008 0.7114 0.0000 (  2692 PWs)   bands (ev):

   -15.4048 -13.3357 -10.6687  -2.8332  -1.8555  -1.4995   8.4481   9.2165

          k =-0.1008 0.7134 0.0000 (  2696 PWs)   bands (ev):

   -15.3937 -13.3488 -10.6715  -2.8066  -1.8840  -1.5015   8.4505   9.2566

          k =-0.1008 0.7154 0.0000 (  2694 PWs)   bands (ev):

   -15.3818 -13.3609 -10.6732  -2.7782  -1.9111  -1.5024   8.4529   9.2967

          k =-0.1008 0.7174 0.0000 (  2692 PWs)   bands (ev):

   -15.3704 -13.3724 -10.6753  -2.7502  -1.9389  -1.5033   8.4550   9.3370

          k =-0.1008 0.7194 0.0000 (  2692 PWs)   bands (ev):

   -15.3599 -13.3832 -10.6775  -2.7224  -1.9666  -1.5048   8.4569   9.3768

          k =-0.1008 0.7214 0.0000 (  2692 PWs)   bands (ev):

   -15.3501 -13.3934 -10.6795  -2.6947  -1.9942  -1.5061   8.4587   9.4163

          k =-0.1008 0.7234 0.0000 (  2692 PWs)   bands (ev):

   -15.3410 -13.4029 -10.6814  -2.6671  -2.0217  -1.5073   8.4603   9.4555

          k =-0.1008 0.7254 0.0000 (  2694 PWs)   bands (ev):

   -15.3330 -13.4116 -10.6834  -2.6396  -2.0491  -1.5091   8.4617   9.4942

          k =-0.1008 0.7274 0.0000 (  2698 PWs)   bands (ev):

   -15.3266 -13.4199 -10.6855  -2.6128  -2.0767  -1.5110   8.4630   9.5319

          k =-0.1008 0.7294 0.0000 (  2700 PWs)   bands (ev):

   -15.3200 -13.4273 -10.6869  -2.5880  -2.1036  -1.5119   8.4640   9.5693

          k =-0.1008 0.7314 0.0000 (  2700 PWs)   bands (ev):

   -15.3138 -13.4337 -10.6881  -2.5615  -2.1301  -1.5127   8.4650   9.6057

          k =-0.1008 0.7334 0.0000 (  2702 PWs)   bands (ev):

   -15.3086 -13.4394 -10.6893  -2.5354  -2.1561  -1.5141   8.4658   9.6406

          k =-0.1008 0.7354 0.0000 (  2700 PWs)   bands (ev):

   -15.3036 -13.4440 -10.6902  -2.5099  -2.1814  -1.5137   8.4666   9.6739

          k =-0.1008 0.7374 0.0000 (  2704 PWs)   bands (ev):

   -15.3000 -13.4480 -10.6913  -2.4867  -2.2077  -1.5148   8.4671   9.7042

          k =-0.1008 0.7394 0.0000 (  2704 PWs)   bands (ev):

   -15.2971 -13.4511 -10.6919  -2.4648  -2.2296  -1.5152   8.4675   9.7308

          k =-0.1008 0.7414 0.0000 (  2704 PWs)   bands (ev):

   -15.2950 -13.4532 -10.6923  -2.4462  -2.2481  -1.5155   8.4679   9.7519

          k =-0.1008 0.7434 0.0000 (  2702 PWs)   bands (ev):

   -15.2936 -13.4543 -10.6921  -2.4331  -2.2608  -1.5150   8.4681   9.7658

          k =-0.1008 0.7454 0.0000 (  2704 PWs)   bands (ev):

   -15.2940 -13.4551 -10.6923  -2.4284  -2.2656  -1.5153   8.4681   9.7705

          k =-0.1008 0.7474 0.0000 (  2702 PWs)   bands (ev):

   -15.2936 -13.4543 -10.6921  -2.4331  -2.2608  -1.5150   8.4681   9.7658

          k =-0.1008 0.7494 0.0000 (  2704 PWs)   bands (ev):

   -15.2950 -13.4532 -10.6923  -2.4462  -2.2481  -1.5155   8.4679   9.7519

          k =-0.1008 0.7514 0.0000 (  2704 PWs)   bands (ev):

   -15.2971 -13.4511 -10.6919  -2.4648  -2.2296  -1.5152   8.4675   9.7308

          k =-0.1008 0.7534 0.0000 (  2704 PWs)   bands (ev):

   -15.3000 -13.4480 -10.6913  -2.4867  -2.2076  -1.5148   8.4671   9.7042

          k =-0.1008 0.7554 0.0000 (  2700 PWs)   bands (ev):

   -15.3036 -13.4440 -10.6902  -2.5099  -2.1813  -1.5137   8.4666   9.6739

          k =-0.1008 0.7574 0.0000 (  2702 PWs)   bands (ev):

   -15.3086 -13.4394 -10.6893  -2.5354  -2.1561  -1.5141   8.4658   9.6405

          k =-0.1008 0.7594 0.0000 (  2700 PWs)   bands (ev):

   -15.3138 -13.4337 -10.6881  -2.5615  -2.1301  -1.5127   8.4650   9.6056

          k =-0.1008 0.7614 0.0000 (  2700 PWs)   bands (ev):

   -15.3200 -13.4273 -10.6869  -2.5881  -2.1036  -1.5119   8.4640   9.5692

          k =-0.1008 0.7634 0.0000 (  2698 PWs)   bands (ev):

   -15.3266 -13.4199 -10.6855  -2.6128  -2.0767  -1.5110   8.4630   9.5319

          k =-0.1008 0.7654 0.0000 (  2694 PWs)   bands (ev):

   -15.3330 -13.4116 -10.6834  -2.6396  -2.0491  -1.5091   8.4617   9.4941

          k =-0.1008 0.7674 0.0000 (  2692 PWs)   bands (ev):

   -15.3410 -13.4029 -10.6814  -2.6671  -2.0216  -1.5073   8.4603   9.4555

          k =-0.1008 0.7694 0.0000 (  2692 PWs)   bands (ev):

   -15.3501 -13.3934 -10.6795  -2.6947  -1.9942  -1.5061   8.4587   9.4163

          k =-0.1008 0.7714 0.0000 (  2692 PWs)   bands (ev):

   -15.3599 -13.3832 -10.6775  -2.7224  -1.9666  -1.5048   8.4569   9.3768

          k =-0.1008 0.7734 0.0000 (  2692 PWs)   bands (ev):

   -15.3704 -13.3724 -10.6753  -2.7502  -1.9389  -1.5033   8.4550   9.3370

          k =-0.1008 0.7754 0.0000 (  2694 PWs)   bands (ev):

   -15.3818 -13.3609 -10.6732  -2.7782  -1.9111  -1.5024   8.4529   9.2967

          k =-0.1008 0.7774 0.0000 (  2696 PWs)   bands (ev):

   -15.3937 -13.3488 -10.6715  -2.8066  -1.8840  -1.5015   8.4505   9.2565

          k =-0.1008 0.7794 0.0000 (  2692 PWs)   bands (ev):

   -15.4049 -13.3357 -10.6687  -2.8332  -1.8555  -1.4995   8.4481   9.2164

          k =-0.1008 0.7814 0.0000 (  2694 PWs)   bands (ev):

   -15.4178 -13.3226 -10.6659  -2.8613  -1.8276  -1.4983   8.4454   9.1760

          k =-0.1008 0.7834 0.0000 (  2694 PWs)   bands (ev):

   -15.4313 -13.3086 -10.6629  -2.8893  -1.7998  -1.4963   8.4425   9.1355

          k =-0.1008 0.7854 0.0000 (  2694 PWs)   bands (ev):

   -15.4453 -13.2940 -10.6597  -2.9174  -1.7719  -1.4942   8.4393   9.0950

          k =-0.0988 0.7054 0.0000 (  2694 PWs)   bands (ev):

   -15.4451 -13.2970 -10.6464  -2.9182  -1.7685  -1.5207   8.4523   9.0895

          k =-0.0988 0.7074 0.0000 (  2692 PWs)   bands (ev):

   -15.4309 -13.3114 -10.6494  -2.8901  -1.7964  -1.5221   8.4556   9.1301

          k =-0.0988 0.7094 0.0000 (  2692 PWs)   bands (ev):

   -15.4174 -13.3255 -10.6524  -2.8621  -1.8243  -1.5241   8.4587   9.1706

          k =-0.0988 0.7114 0.0000 (  2694 PWs)   bands (ev):

   -15.4053 -13.3392 -10.6552  -2.8351  -1.8522  -1.5261   8.4615   9.2108

          k =-0.0988 0.7134 0.0000 (  2694 PWs)   bands (ev):

   -15.3931 -13.3521 -10.6572  -2.8070  -1.8800  -1.5272   8.4642   9.2511

          k =-0.0988 0.7154 0.0000 (  2694 PWs)   bands (ev):

   -15.3813 -13.3644 -10.6597  -2.7791  -1.9078  -1.5289   8.4666   9.2913

          k =-0.0988 0.7174 0.0000 (  2692 PWs)   bands (ev):

   -15.3698 -13.3760 -10.6617  -2.7511  -1.9355  -1.5298   8.4689   9.3316

          k =-0.0988 0.7194 0.0000 (  2692 PWs)   bands (ev):

   -15.3593 -13.3870 -10.6638  -2.7233  -1.9631  -1.5313   8.4709   9.3714

          k =-0.0988 0.7214 0.0000 (  2692 PWs)   bands (ev):

   -15.3494 -13.3972 -10.6659  -2.6957  -1.9907  -1.5326   8.4728   9.4110

          k =-0.0988 0.7234 0.0000 (  2694 PWs)   bands (ev):

   -15.3407 -13.4068 -10.6680  -2.6682  -2.0182  -1.5345   8.4745   9.4501

          k =-0.0988 0.7254 0.0000 (  2694 PWs)   bands (ev):

   -15.3322 -13.4155 -10.6697  -2.6408  -2.0455  -1.5357   8.4760   9.4889

          k =-0.0988 0.7274 0.0000 (  2698 PWs)   bands (ev):

   -15.3253 -13.4237 -10.6713  -2.6160  -2.0729  -1.5375   8.4773   9.5269

          k =-0.0988 0.7294 0.0000 (  2700 PWs)   bands (ev):

   -15.3190 -13.4314 -10.6731  -2.5895  -2.0997  -1.5384   8.4785   9.5641

          k =-0.0988 0.7314 0.0000 (  2700 PWs)   bands (ev):

   -15.3128 -13.4378 -10.6743  -2.5632  -2.1260  -1.5393   8.4795   9.6005

          k =-0.0988 0.7334 0.0000 (  2698 PWs)   bands (ev):

   -15.3071 -13.4433 -10.6754  -2.5372  -2.1517  -1.5389   8.4804   9.6358

          k =-0.0988 0.7354 0.0000 (  2700 PWs)   bands (ev):

   -15.3025 -13.4482 -10.6766  -2.5126  -2.1775  -1.5397   8.4812   9.6689

          k =-0.0988 0.7374 0.0000 (  2704 PWs)   bands (ev):

   -15.2990 -13.4523 -10.6775  -2.4896  -2.2023  -1.5414   8.4818   9.6992

          k =-0.0988 0.7394 0.0000 (  2704 PWs)   bands (ev):

   -15.2960 -13.4554 -10.6780  -2.4683  -2.2236  -1.5418   8.4823   9.7258

          k =-0.0988 0.7414 0.0000 (  2702 PWs)   bands (ev):

   -15.2938 -13.4574 -10.6780  -2.4504  -2.2411  -1.5414   8.4827   9.7470

          k =-0.0988 0.7434 0.0000 (  2704 PWs)   bands (ev):

   -15.2933 -13.4590 -10.6784  -2.4383  -2.2534  -1.5417   8.4828   9.7607

          k =-0.0988 0.7454 0.0000 (  2704 PWs)   bands (ev):

   -15.2929 -13.4594 -10.6785  -2.4338  -2.2579  -1.5418   8.4829   9.7656

          k =-0.0988 0.7474 0.0000 (  2704 PWs)   bands (ev):

   -15.2933 -13.4590 -10.6784  -2.4383  -2.2534  -1.5417   8.4828   9.7607

          k =-0.0988 0.7494 0.0000 (  2702 PWs)   bands (ev):

   -15.2938 -13.4574 -10.6780  -2.4504  -2.2410  -1.5414   8.4827   9.7470

          k =-0.0988 0.7514 0.0000 (  2704 PWs)   bands (ev):

   -15.2960 -13.4554 -10.6780  -2.4683  -2.2236  -1.5418   8.4823   9.7258

          k =-0.0988 0.7534 0.0000 (  2704 PWs)   bands (ev):

   -15.2990 -13.4523 -10.6775  -2.4896  -2.2023  -1.5414   8.4818   9.6992

          k =-0.0988 0.7554 0.0000 (  2700 PWs)   bands (ev):

   -15.3025 -13.4481 -10.6766  -2.5126  -2.1775  -1.5397   8.4812   9.6689

          k =-0.0988 0.7574 0.0000 (  2698 PWs)   bands (ev):

   -15.3071 -13.4433 -10.6754  -2.5372  -2.1517  -1.5389   8.4804   9.6358

          k =-0.0988 0.7594 0.0000 (  2700 PWs)   bands (ev):

   -15.3129 -13.4378 -10.6743  -2.5632  -2.1260  -1.5393   8.4795   9.6005

          k =-0.0988 0.7614 0.0000 (  2700 PWs)   bands (ev):

   -15.3190 -13.4314 -10.6731  -2.5895  -2.0996  -1.5384   8.4785   9.5640

          k =-0.0988 0.7634 0.0000 (  2698 PWs)   bands (ev):

   -15.3253 -13.4237 -10.6713  -2.6160  -2.0729  -1.5375   8.4773   9.5269

          k =-0.0988 0.7654 0.0000 (  2694 PWs)   bands (ev):

   -15.3322 -13.4155 -10.6697  -2.6408  -2.0455  -1.5357   8.4760   9.4889

          k =-0.0988 0.7674 0.0000 (  2694 PWs)   bands (ev):

   -15.3407 -13.4068 -10.6680  -2.6682  -2.0182  -1.5345   8.4745   9.4501

          k =-0.0988 0.7694 0.0000 (  2692 PWs)   bands (ev):

   -15.3494 -13.3972 -10.6658  -2.6957  -1.9907  -1.5326   8.4728   9.4110

          k =-0.0988 0.7714 0.0000 (  2692 PWs)   bands (ev):

   -15.3593 -13.3870 -10.6638  -2.7233  -1.9631  -1.5313   8.4710   9.3714

          k =-0.0988 0.7734 0.0000 (  2692 PWs)   bands (ev):

   -15.3698 -13.3760 -10.6617  -2.7511  -1.9355  -1.5298   8.4689   9.3316

          k =-0.0988 0.7754 0.0000 (  2694 PWs)   bands (ev):

   -15.3813 -13.3644 -10.6597  -2.7791  -1.9078  -1.5289   8.4666   9.2913

          k =-0.0988 0.7774 0.0000 (  2694 PWs)   bands (ev):

   -15.3931 -13.3521 -10.6572  -2.8070  -1.8800  -1.5272   8.4642   9.2511

          k =-0.0988 0.7794 0.0000 (  2694 PWs)   bands (ev):

   -15.4054 -13.3392 -10.6552  -2.8351  -1.8522  -1.5261   8.4615   9.2108

          k =-0.0988 0.7814 0.0000 (  2692 PWs)   bands (ev):

   -15.4174 -13.3255 -10.6524  -2.8621  -1.8243  -1.5241   8.4587   9.1705

          k =-0.0988 0.7834 0.0000 (  2692 PWs)   bands (ev):

   -15.4310 -13.3114 -10.6494  -2.8901  -1.7964  -1.5221   8.4556   9.1300

          k =-0.0988 0.7854 0.0000 (  2694 PWs)   bands (ev):

   -15.4451 -13.2970 -10.6464  -2.9182  -1.7685  -1.5207   8.4523   9.0895

          k =-0.0968 0.7054 0.0000 (  2694 PWs)   bands (ev):

   -15.4450 -13.3001 -10.6338  -2.9192  -1.7653  -1.5461   8.4651   9.0840

          k =-0.0968 0.7074 0.0000 (  2692 PWs)   bands (ev):

   -15.4307 -13.3145 -10.6361  -2.8910  -1.7930  -1.5481   8.4687   9.1246

          k =-0.0968 0.7094 0.0000 (  2690 PWs)   bands (ev):

   -15.4170 -13.3286 -10.6382  -2.8625  -1.8202  -1.5494   8.4720   9.1652

          k =-0.0968 0.7114 0.0000 (  2692 PWs)   bands (ev):

   -15.4049 -13.3424 -10.6410  -2.8355  -1.8481  -1.5514   8.4750   9.2055

          k =-0.0968 0.7134 0.0000 (  2694 PWs)   bands (ev):

   -15.3926 -13.3555 -10.6438  -2.8079  -1.8766  -1.5533   8.4777   9.2458

          k =-0.0968 0.7154 0.0000 (  2694 PWs)   bands (ev):

   -15.3808 -13.3679 -10.6462  -2.7800  -1.9044  -1.5550   8.4803   9.2860

          k =-0.0968 0.7174 0.0000 (  2692 PWs)   bands (ev):

   -15.3692 -13.3796 -10.6482  -2.7521  -1.9321  -1.5559   8.4827   9.3263

          k =-0.0968 0.7194 0.0000 (  2692 PWs)   bands (ev):

   -15.3586 -13.3906 -10.6504  -2.7244  -1.9597  -1.5573   8.4849   9.3662

          k =-0.0968 0.7214 0.0000 (  2692 PWs)   bands (ev):

   -15.3487 -13.4010 -10.6523  -2.6968  -1.9872  -1.5587   8.4868   9.4058

          k =-0.0968 0.7234 0.0000 (  2694 PWs)   bands (ev):

   -15.3399 -13.4106 -10.6545  -2.6694  -2.0146  -1.5606   8.4886   9.4449

          k =-0.0968 0.7254 0.0000 (  2696 PWs)   bands (ev):

   -15.3317 -13.4196 -10.6561  -2.6443  -2.0418  -1.5618   8.4901   9.4837

          k =-0.0968 0.7274 0.0000 (  2698 PWs)   bands (ev):

   -15.3244 -13.4277 -10.6577  -2.6175  -2.0691  -1.5636   8.4916   9.5218

          k =-0.0968 0.7294 0.0000 (  2698 PWs)   bands (ev):

   -15.3174 -13.4350 -10.6591  -2.5908  -2.0957  -1.5645   8.4929   9.5593

          k =-0.0968 0.7314 0.0000 (  2700 PWs)   bands (ev):

   -15.3119 -13.4419 -10.6607  -2.5650  -2.1218  -1.5654   8.4940   9.5954

          k =-0.0968 0.7334 0.0000 (  2700 PWs)   bands (ev):

   -15.3062 -13.4475 -10.6620  -2.5396  -2.1482  -1.5653   8.4950   9.6308

          k =-0.0968 0.7354 0.0000 (  2700 PWs)   bands (ev):

   -15.3016 -13.4523 -10.6629  -2.5151  -2.1726  -1.5659   8.4958   9.6640

          k =-0.0968 0.7374 0.0000 (  2700 PWs)   bands (ev):

   -15.2978 -13.4563 -10.6636  -2.4920  -2.1956  -1.5664   8.4964   9.6945

          k =-0.0968 0.7394 0.0000 (  2704 PWs)   bands (ev):

   -15.2950 -13.4596 -10.6643  -2.4719  -2.2176  -1.5679   8.4969   9.7209

          k =-0.0968 0.7414 0.0000 (  2704 PWs)   bands (ev):

   -15.2936 -13.4619 -10.6645  -2.4550  -2.2344  -1.5677   8.4973   9.7420

          k =-0.0968 0.7434 0.0000 (  2704 PWs)   bands (ev):

   -15.2923 -13.4632 -10.6647  -2.4433  -2.2460  -1.5679   8.4975   9.7559

          k =-0.0968 0.7454 0.0000 (  2704 PWs)   bands (ev):

   -15.2919 -13.4637 -10.6648  -2.4391  -2.2502  -1.5679   8.4976   9.7608

          k =-0.0968 0.7474 0.0000 (  2704 PWs)   bands (ev):

   -15.2923 -13.4632 -10.6647  -2.4433  -2.2460  -1.5679   8.4975   9.7559

          k =-0.0968 0.7494 0.0000 (  2704 PWs)   bands (ev):

   -15.2936 -13.4619 -10.6645  -2.4550  -2.2344  -1.5677   8.4973   9.7420

          k =-0.0968 0.7514 0.0000 (  2704 PWs)   bands (ev):

   -15.2950 -13.4596 -10.6643  -2.4720  -2.2176  -1.5679   8.4969   9.7209

          k =-0.0968 0.7534 0.0000 (  2700 PWs)   bands (ev):

   -15.2978 -13.4563 -10.6636  -2.4920  -2.1956  -1.5664   8.4964   9.6945

          k =-0.0968 0.7554 0.0000 (  2700 PWs)   bands (ev):

   -15.3016 -13.4523 -10.6629  -2.5151  -2.1726  -1.5659   8.4958   9.6640

          k =-0.0968 0.7574 0.0000 (  2700 PWs)   bands (ev):

   -15.3062 -13.4475 -10.6620  -2.5396  -2.1481  -1.5653   8.4950   9.6307

          k =-0.0968 0.7594 0.0000 (  2700 PWs)   bands (ev):

   -15.3119 -13.4419 -10.6607  -2.5650  -2.1218  -1.5654   8.4940   9.5954

          k =-0.0968 0.7614 0.0000 (  2698 PWs)   bands (ev):

   -15.3174 -13.4350 -10.6591  -2.5909  -2.0957  -1.5645   8.4929   9.5592

          k =-0.0968 0.7634 0.0000 (  2698 PWs)   bands (ev):

   -15.3244 -13.4277 -10.6577  -2.6175  -2.0691  -1.5636   8.4916   9.5217

          k =-0.0968 0.7654 0.0000 (  2696 PWs)   bands (ev):

   -15.3317 -13.4196 -10.6561  -2.6444  -2.0418  -1.5618   8.4901   9.4837

          k =-0.0968 0.7674 0.0000 (  2694 PWs)   bands (ev):

   -15.3399 -13.4106 -10.6545  -2.6694  -2.0146  -1.5606   8.4886   9.4449

          k =-0.0968 0.7694 0.0000 (  2692 PWs)   bands (ev):

   -15.3487 -13.4010 -10.6523  -2.6968  -1.9872  -1.5587   8.4868   9.4058

          k =-0.0968 0.7714 0.0000 (  2692 PWs)   bands (ev):

   -15.3586 -13.3906 -10.6504  -2.7244  -1.9597  -1.5573   8.4849   9.3661

          k =-0.0968 0.7734 0.0000 (  2692 PWs)   bands (ev):

   -15.3692 -13.3796 -10.6482  -2.7521  -1.9321  -1.5559   8.4827   9.3263

          k =-0.0968 0.7754 0.0000 (  2694 PWs)   bands (ev):

   -15.3808 -13.3679 -10.6462  -2.7800  -1.9044  -1.5550   8.4803   9.2860

          k =-0.0968 0.7774 0.0000 (  2694 PWs)   bands (ev):

   -15.3926 -13.3555 -10.6438  -2.8079  -1.8766  -1.5533   8.4777   9.2458

          k =-0.0968 0.7794 0.0000 (  2692 PWs)   bands (ev):

   -15.4049 -13.3424 -10.6410  -2.8356  -1.8481  -1.5514   8.4750   9.2054

          k =-0.0968 0.7814 0.0000 (  2690 PWs)   bands (ev):

   -15.4170 -13.3286 -10.6382  -2.8625  -1.8202  -1.5494   8.4720   9.1652

          k =-0.0968 0.7834 0.0000 (  2692 PWs)   bands (ev):

   -15.4307 -13.3145 -10.6361  -2.8910  -1.7930  -1.5481   8.4687   9.1246

          k =-0.0968 0.7854 0.0000 (  2694 PWs)   bands (ev):

   -15.4450 -13.3001 -10.6337  -2.9192  -1.7653  -1.5461   8.4651   9.0840

          k =-0.0948 0.7054 0.0000 (  2690 PWs)   bands (ev):

   -15.4445 -13.3029 -10.6196  -2.9197  -1.7612  -1.5703   8.4780   9.0788

          k =-0.0948 0.7074 0.0000 (  2688 PWs)   bands (ev):

   -15.4301 -13.3173 -10.6220  -2.8915  -1.7889  -1.5724   8.4817   9.1194

          k =-0.0948 0.7094 0.0000 (  2692 PWs)   bands (ev):

   -15.4176 -13.3319 -10.6251  -2.8645  -1.8169  -1.5751   8.4850   9.1597

          k =-0.0948 0.7114 0.0000 (  2692 PWs)   bands (ev):

   -15.4045 -13.3456 -10.6278  -2.8365  -1.8447  -1.5770   8.4882   9.2002

          k =-0.0948 0.7134 0.0000 (  2694 PWs)   bands (ev):

   -15.3922 -13.3588 -10.6305  -2.8089  -1.8732  -1.5790   8.4911   9.2405

          k =-0.0948 0.7154 0.0000 (  2694 PWs)   bands (ev):

   -15.3803 -13.3713 -10.6330  -2.7810  -1.9010  -1.5807   8.4939   9.2808

          k =-0.0948 0.7174 0.0000 (  2694 PWs)   bands (ev):

   -15.3690 -13.3832 -10.6352  -2.7533  -1.9287  -1.5823   8.4964   9.3209

          k =-0.0948 0.7194 0.0000 (  2692 PWs)   bands (ev):

   -15.3580 -13.3942 -10.6370  -2.7255  -1.9562  -1.5830   8.4987   9.3610

          k =-0.0948 0.7214 0.0000 (  2692 PWs)   bands (ev):

   -15.3480 -13.4047 -10.6390  -2.6979  -1.9837  -1.5844   8.5008   9.4006

          k =-0.0948 0.7234 0.0000 (  2694 PWs)   bands (ev):

   -15.3392 -13.4143 -10.6410  -2.6706  -2.0110  -1.5863   8.5027   9.4398

          k =-0.0948 0.7254 0.0000 (  2696 PWs)   bands (ev):

   -15.3310 -13.4234 -10.6427  -2.6457  -2.0381  -1.5874   8.5043   9.4786

          k =-0.0948 0.7274 0.0000 (  2698 PWs)   bands (ev):

   -15.3236 -13.4316 -10.6443  -2.6190  -2.0653  -1.5893   8.5058   9.5167

          k =-0.0948 0.7294 0.0000 (  2698 PWs)   bands (ev):

   -15.3166 -13.4389 -10.6456  -2.5925  -2.0917  -1.5902   8.5072   9.5543

          k =-0.0948 0.7314 0.0000 (  2700 PWs)   bands (ev):

   -15.3104 -13.4455 -10.6471  -2.5669  -2.1185  -1.5913   8.5084   9.5907

          k =-0.0948 0.7334 0.0000 (  2700 PWs)   bands (ev):

   -15.3053 -13.4515 -10.6485  -2.5418  -2.1436  -1.5910   8.5094   9.6258

          k =-0.0948 0.7354 0.0000 (  2700 PWs)   bands (ev):

   -15.3006 -13.4564 -10.6494  -2.5177  -2.1677  -1.5916   8.5102   9.6591

          k =-0.0948 0.7374 0.0000 (  2700 PWs)   bands (ev):

   -15.2968 -13.4604 -10.6501  -2.4951  -2.1902  -1.5921   8.5109   9.6897

          k =-0.0948 0.7394 0.0000 (  2702 PWs)   bands (ev):

   -15.2946 -13.4636 -10.6504  -2.4758  -2.2113  -1.5924   8.5115   9.7161

          k =-0.0948 0.7414 0.0000 (  2702 PWs)   bands (ev):

   -15.2925 -13.4659 -10.6508  -2.4593  -2.2277  -1.5927   8.5119   9.7374

          k =-0.0948 0.7434 0.0000 (  2704 PWs)   bands (ev):

   -15.2913 -13.4674 -10.6511  -2.4482  -2.2388  -1.5936   8.5121   9.7512

          k =-0.0948 0.7454 0.0000 (  2704 PWs)   bands (ev):

   -15.2909 -13.4678 -10.6512  -2.4442  -2.2428  -1.5936   8.5122   9.7561

          k =-0.0948 0.7474 0.0000 (  2704 PWs)   bands (ev):

   -15.2913 -13.4674 -10.6511  -2.4482  -2.2388  -1.5936   8.5121   9.7512

          k =-0.0948 0.7494 0.0000 (  2702 PWs)   bands (ev):

   -15.2925 -13.4659 -10.6508  -2.4593  -2.2277  -1.5927   8.5119   9.7374

          k =-0.0948 0.7514 0.0000 (  2702 PWs)   bands (ev):

   -15.2946 -13.4636 -10.6504  -2.4758  -2.2113  -1.5924   8.5115   9.7161

          k =-0.0948 0.7534 0.0000 (  2700 PWs)   bands (ev):

   -15.2968 -13.4604 -10.6501  -2.4951  -2.1902  -1.5921   8.5109   9.6896

          k =-0.0948 0.7554 0.0000 (  2700 PWs)   bands (ev):

   -15.3006 -13.4564 -10.6494  -2.5177  -2.1677  -1.5916   8.5102   9.6591

          k =-0.0948 0.7574 0.0000 (  2700 PWs)   bands (ev):

   -15.3053 -13.4515 -10.6485  -2.5418  -2.1436  -1.5910   8.5094   9.6258

          k =-0.0948 0.7594 0.0000 (  2700 PWs)   bands (ev):

   -15.3104 -13.4455 -10.6471  -2.5669  -2.1185  -1.5913   8.5084   9.5907

          k =-0.0948 0.7614 0.0000 (  2698 PWs)   bands (ev):

   -15.3166 -13.4389 -10.6456  -2.5926  -2.0916  -1.5902   8.5072   9.5542

          k =-0.0948 0.7634 0.0000 (  2698 PWs)   bands (ev):

   -15.3236 -13.4316 -10.6443  -2.6190  -2.0653  -1.5893   8.5058   9.5167

          k =-0.0948 0.7654 0.0000 (  2696 PWs)   bands (ev):

   -15.3310 -13.4234 -10.6427  -2.6457  -2.0381  -1.5874   8.5043   9.4786

          k =-0.0948 0.7674 0.0000 (  2694 PWs)   bands (ev):

   -15.3392 -13.4143 -10.6410  -2.6706  -2.0110  -1.5863   8.5027   9.4398

          k =-0.0948 0.7694 0.0000 (  2692 PWs)   bands (ev):

   -15.3480 -13.4046 -10.6390  -2.6980  -1.9837  -1.5844   8.5008   9.4006

          k =-0.0948 0.7714 0.0000 (  2692 PWs)   bands (ev):

   -15.3580 -13.3942 -10.6370  -2.7255  -1.9562  -1.5830   8.4987   9.3610

          k =-0.0948 0.7734 0.0000 (  2694 PWs)   bands (ev):

   -15.3690 -13.3832 -10.6352  -2.7533  -1.9287  -1.5823   8.4964   9.3209

          k =-0.0948 0.7754 0.0000 (  2694 PWs)   bands (ev):

   -15.3803 -13.3713 -10.6330  -2.7811  -1.9010  -1.5807   8.4939   9.2808

          k =-0.0948 0.7774 0.0000 (  2694 PWs)   bands (ev):

   -15.3922 -13.3588 -10.6305  -2.8089  -1.8732  -1.5790   8.4911   9.2405

          k =-0.0948 0.7794 0.0000 (  2692 PWs)   bands (ev):

   -15.4045 -13.3456 -10.6278  -2.8365  -1.8447  -1.5770   8.4882   9.2002

          k =-0.0948 0.7814 0.0000 (  2692 PWs)   bands (ev):

   -15.4176 -13.3319 -10.6251  -2.8645  -1.8168  -1.5751   8.4850   9.1597

          k =-0.0948 0.7834 0.0000 (  2688 PWs)   bands (ev):

   -15.4301 -13.3173 -10.6220  -2.8915  -1.7889  -1.5724   8.4817   9.1194

          k =-0.0948 0.7854 0.0000 (  2690 PWs)   bands (ev):

   -15.4445 -13.3029 -10.6196  -2.9197  -1.7612  -1.5703   8.4780   9.0788

          k =-0.0928 0.7054 0.0000 (  2690 PWs)   bands (ev):

   -15.4441 -13.3058 -10.6064  -2.9203  -1.7593  -1.5955   8.4906   9.0737

          k =-0.0928 0.7074 0.0000 (  2690 PWs)   bands (ev):

   -15.4298 -13.3208 -10.6094  -2.8923  -1.7873  -1.5976   8.4945   9.1143

          k =-0.0928 0.7094 0.0000 (  2690 PWs)   bands (ev):

   -15.4171 -13.3348 -10.6119  -2.8655  -1.8135  -1.5997   8.4980   9.1546

          k =-0.0928 0.7114 0.0000 (  2692 PWs)   bands (ev):

   -15.4042 -13.3488 -10.6147  -2.8378  -1.8420  -1.6018   8.5013   9.1951

          k =-0.0928 0.7134 0.0000 (  2694 PWs)   bands (ev):

   -15.3918 -13.3621 -10.6174  -2.8099  -1.8699  -1.6042   8.5044   9.2354

          k =-0.0928 0.7154 0.0000 (  2694 PWs)   bands (ev):

   -15.3798 -13.3747 -10.6198  -2.7821  -1.8976  -1.6059   8.5073   9.2757

          k =-0.0928 0.7174 0.0000 (  2694 PWs)   bands (ev):

   -15.3684 -13.3866 -10.6220  -2.7544  -1.9252  -1.6075   8.5099   9.3158

          k =-0.0928 0.7194 0.0000 (  2692 PWs)   bands (ev):

   -15.3574 -13.3977 -10.6238  -2.7266  -1.9527  -1.6083   8.5124   9.3560

          k =-0.0928 0.7214 0.0000 (  2694 PWs)   bands (ev):

   -15.3479 -13.4082 -10.6260  -2.6992  -1.9802  -1.6103   8.5146   9.3955

          k =-0.0928 0.7234 0.0000 (  2696 PWs)   bands (ev):

   -15.3389 -13.4182 -10.6278  -2.6742  -2.0074  -1.6116   8.5165   9.4348

          k =-0.0928 0.7254 0.0000 (  2696 PWs)   bands (ev):

   -15.3303 -13.4272 -10.6294  -2.6472  -2.0344  -1.6127   8.5183   9.4736

          k =-0.0928 0.7274 0.0000 (  2698 PWs)   bands (ev):

   -15.3229 -13.4354 -10.6310  -2.6206  -2.0614  -1.6146   8.5199   9.5118

          k =-0.0928 0.7294 0.0000 (  2700 PWs)   bands (ev):

   -15.3159 -13.4428 -10.6326  -2.5946  -2.0886  -1.6157   8.5214   9.5493

          k =-0.0928 0.7314 0.0000 (  2698 PWs)   bands (ev):

   -15.3092 -13.4493 -10.6337  -2.5687  -2.1142  -1.6155   8.5226   9.5861

          k =-0.0928 0.7334 0.0000 (  2698 PWs)   bands (ev):

   -15.3037 -13.4550 -10.6347  -2.5438  -2.1390  -1.6162   8.5237   9.6213

          k =-0.0928 0.7354 0.0000 (  2702 PWs)   bands (ev):

   -15.3006 -13.4606 -10.6362  -2.5206  -2.1627  -1.6170   8.5246   9.6541

          k =-0.0928 0.7374 0.0000 (  2700 PWs)   bands (ev):

   -15.2966 -13.4644 -10.6364  -2.4984  -2.1845  -1.6169   8.5254   9.6847

          k =-0.0928 0.7394 0.0000 (  2702 PWs)   bands (ev):

   -15.2937 -13.4677 -10.6370  -2.4795  -2.2053  -1.6177   8.5259   9.7114

          k =-0.0928 0.7414 0.0000 (  2702 PWs)   bands (ev):

   -15.2916 -13.4699 -10.6374  -2.4636  -2.2211  -1.6180   8.5263   9.7328

          k =-0.0928 0.7434 0.0000 (  2702 PWs)   bands (ev):

   -15.2903 -13.4713 -10.6376  -2.4530  -2.2317  -1.6182   8.5266   9.7468

          k =-0.0928 0.7454 0.0000 (  2700 PWs)   bands (ev):

   -15.2897 -13.4715 -10.6375  -2.4492  -2.2355  -1.6175   8.5267   9.7518

          k =-0.0928 0.7474 0.0000 (  2702 PWs)   bands (ev):

   -15.2903 -13.4713 -10.6376  -2.4530  -2.2317  -1.6182   8.5266   9.7467

          k =-0.0928 0.7494 0.0000 (  2702 PWs)   bands (ev):

   -15.2916 -13.4699 -10.6374  -2.4636  -2.2211  -1.6180   8.5263   9.7327

          k =-0.0928 0.7514 0.0000 (  2702 PWs)   bands (ev):

   -15.2937 -13.4677 -10.6370  -2.4795  -2.2053  -1.6177   8.5259   9.7114

          k =-0.0928 0.7534 0.0000 (  2700 PWs)   bands (ev):

   -15.2966 -13.4644 -10.6364  -2.4984  -2.1845  -1.6169   8.5254   9.6847

          k =-0.0928 0.7554 0.0000 (  2702 PWs)   bands (ev):

   -15.3006 -13.4606 -10.6362  -2.5206  -2.1627  -1.6170   8.5246   9.6541

          k =-0.0928 0.7574 0.0000 (  2698 PWs)   bands (ev):

   -15.3037 -13.4550 -10.6347  -2.5438  -2.1390  -1.6162   8.5237   9.6213

          k =-0.0928 0.7594 0.0000 (  2698 PWs)   bands (ev):

   -15.3092 -13.4493 -10.6337  -2.5687  -2.1142  -1.6155   8.5226   9.5861

          k =-0.0928 0.7614 0.0000 (  2700 PWs)   bands (ev):

   -15.3159 -13.4428 -10.6326  -2.5946  -2.0886  -1.6157   8.5214   9.5493

          k =-0.0928 0.7634 0.0000 (  2698 PWs)   bands (ev):

   -15.3229 -13.4354 -10.6310  -2.6206  -2.0614  -1.6146   8.5199   9.5118

          k =-0.0928 0.7654 0.0000 (  2696 PWs)   bands (ev):

   -15.3303 -13.4272 -10.6294  -2.6472  -2.0344  -1.6127   8.5183   9.4736

          k =-0.0928 0.7674 0.0000 (  2696 PWs)   bands (ev):

   -15.3389 -13.4182 -10.6278  -2.6742  -2.0074  -1.6116   8.5165   9.4347

          k =-0.0928 0.7694 0.0000 (  2694 PWs)   bands (ev):

   -15.3479 -13.4082 -10.6260  -2.6992  -1.9802  -1.6103   8.5146   9.3955

          k =-0.0928 0.7714 0.0000 (  2692 PWs)   bands (ev):

   -15.3574 -13.3977 -10.6238  -2.7267  -1.9527  -1.6083   8.5124   9.3559

          k =-0.0928 0.7734 0.0000 (  2694 PWs)   bands (ev):

   -15.3684 -13.3866 -10.6220  -2.7544  -1.9252  -1.6075   8.5099   9.3158

          k =-0.0928 0.7754 0.0000 (  2694 PWs)   bands (ev):

   -15.3798 -13.3747 -10.6198  -2.7821  -1.8976  -1.6059   8.5073   9.2757

          k =-0.0928 0.7774 0.0000 (  2694 PWs)   bands (ev):

   -15.3918 -13.3621 -10.6174  -2.8099  -1.8699  -1.6042   8.5044   9.2354

          k =-0.0928 0.7794 0.0000 (  2692 PWs)   bands (ev):

   -15.4042 -13.3488 -10.6147  -2.8378  -1.8420  -1.6018   8.5013   9.1951

          k =-0.0928 0.7814 0.0000 (  2690 PWs)   bands (ev):

   -15.4171 -13.3348 -10.6119  -2.8655  -1.8135  -1.5997   8.4980   9.1546

          k =-0.0928 0.7834 0.0000 (  2690 PWs)   bands (ev):

   -15.4299 -13.3208 -10.6094  -2.8923  -1.7873  -1.5976   8.4945   9.1143

          k =-0.0928 0.7854 0.0000 (  2690 PWs)   bands (ev):

   -15.4441 -13.3058 -10.6064  -2.9204  -1.7593  -1.5955   8.4906   9.0737

          k =-0.0908 0.7054 0.0000 (  2690 PWs)   bands (ev):

   -15.4440 -13.3086 -10.5936  -2.9214  -1.7560  -1.6203   8.5031   9.0686

          k =-0.0908 0.7074 0.0000 (  2692 PWs)   bands (ev):

   -15.4306 -13.3238 -10.5966  -2.8944  -1.7839  -1.6225   8.5071   9.1091

          k =-0.0908 0.7094 0.0000 (  2692 PWs)   bands (ev):

   -15.4168 -13.3383 -10.5994  -2.8664  -1.8118  -1.6245   8.5109   9.1496

          k =-0.0908 0.7114 0.0000 (  2692 PWs)   bands (ev):

   -15.4037 -13.3520 -10.6015  -2.8386  -1.8402  -1.6265   8.5143   9.1901

          k =-0.0908 0.7134 0.0000 (  2690 PWs)   bands (ev):

   -15.3909 -13.3649 -10.6039  -2.8105  -1.8665  -1.6283   8.5176   9.2306

          k =-0.0908 0.7154 0.0000 (  2694 PWs)   bands (ev):

   -15.3794 -13.3780 -10.6068  -2.7832  -1.8942  -1.6307   8.5206   9.2707

          k =-0.0908 0.7174 0.0000 (  2694 PWs)   bands (ev):

   -15.3680 -13.3900 -10.6090  -2.7556  -1.9218  -1.6323   8.5234   9.3108

          k =-0.0908 0.7194 0.0000 (  2694 PWs)   bands (ev):

   -15.3572 -13.4013 -10.6111  -2.7280  -1.9493  -1.6338   8.5260   9.3508

          k =-0.0908 0.7214 0.0000 (  2696 PWs)   bands (ev):

   -15.3476 -13.4119 -10.6130  -2.7027  -1.9767  -1.6351   8.5282   9.3905

          k =-0.0908 0.7234 0.0000 (  2696 PWs)   bands (ev):

   -15.3382 -13.4218 -10.6147  -2.6756  -2.0038  -1.6364   8.5303   9.4299

          k =-0.0908 0.7254 0.0000 (  2696 PWs)   bands (ev):

   -15.3296 -13.4308 -10.6163  -2.6487  -2.0306  -1.6375   8.5322   9.4688

          k =-0.0908 0.7274 0.0000 (  2700 PWs)   bands (ev):

   -15.3223 -13.4391 -10.6181  -2.6225  -2.0585  -1.6396   8.5339   9.5069

          k =-0.0908 0.7294 0.0000 (  2700 PWs)   bands (ev):

   -15.3151 -13.4466 -10.6194  -2.5965  -2.0845  -1.6406   8.5354   9.5445

          k =-0.0908 0.7314 0.0000 (  2698 PWs)   bands (ev):

   -15.3084 -13.4531 -10.6205  -2.5708  -2.1099  -1.6404   8.5368   9.5813

          k =-0.0908 0.7334 0.0000 (  2700 PWs)   bands (ev):

   -15.3038 -13.4591 -10.6217  -2.5464  -2.1344  -1.6413   8.5379   9.6164

          k =-0.0908 0.7354 0.0000 (  2700 PWs)   bands (ev):

   -15.2991 -13.4641 -10.6225  -2.5230  -2.1578  -1.6419   8.5389   9.6497

          k =-0.0908 0.7374 0.0000 (  2700 PWs)   bands (ev):

   -15.2958 -13.4684 -10.6232  -2.5016  -2.1791  -1.6417   8.5397   9.6801

          k =-0.0908 0.7394 0.0000 (  2700 PWs)   bands (ev):

   -15.2927 -13.4715 -10.6237  -2.4825  -2.1982  -1.6421   8.5403   9.7069

          k =-0.0908 0.7414 0.0000 (  2702 PWs)   bands (ev):

   -15.2907 -13.4739 -10.6241  -2.4679  -2.2146  -1.6428   8.5407   9.7282

          k =-0.0908 0.7434 0.0000 (  2700 PWs)   bands (ev):

   -15.2893 -13.4751 -10.6242  -2.4578  -2.2247  -1.6423   8.5410   9.7423

          k =-0.0908 0.7454 0.0000 (  2700 PWs)   bands (ev):

   -15.2888 -13.4755 -10.6243  -2.4542  -2.2283  -1.6424   8.5410   9.7473

          k =-0.0908 0.7474 0.0000 (  2700 PWs)   bands (ev):

   -15.2893 -13.4751 -10.6242  -2.4578  -2.2247  -1.6423   8.5410   9.7423

          k =-0.0908 0.7494 0.0000 (  2702 PWs)   bands (ev):

   -15.2907 -13.4739 -10.6241  -2.4679  -2.2146  -1.6428   8.5407   9.7282

          k =-0.0908 0.7514 0.0000 (  2700 PWs)   bands (ev):

   -15.2927 -13.4715 -10.6237  -2.4825  -2.1982  -1.6421   8.5403   9.7069

          k =-0.0908 0.7534 0.0000 (  2700 PWs)   bands (ev):

   -15.2958 -13.4684 -10.6232  -2.5016  -2.1791  -1.6417   8.5397   9.6801

          k =-0.0908 0.7554 0.0000 (  2700 PWs)   bands (ev):

   -15.2991 -13.4641 -10.6225  -2.5230  -2.1578  -1.6419   8.5389   9.6497

          k =-0.0908 0.7574 0.0000 (  2700 PWs)   bands (ev):

   -15.3038 -13.4591 -10.6217  -2.5464  -2.1344  -1.6413   8.5379   9.6164

          k =-0.0908 0.7594 0.0000 (  2698 PWs)   bands (ev):

   -15.3084 -13.4531 -10.6205  -2.5708  -2.1099  -1.6404   8.5368   9.5813

          k =-0.0908 0.7614 0.0000 (  2700 PWs)   bands (ev):

   -15.3151 -13.4466 -10.6194  -2.5965  -2.0845  -1.6406   8.5354   9.5445

          k =-0.0908 0.7634 0.0000 (  2700 PWs)   bands (ev):

   -15.3223 -13.4391 -10.6181  -2.6225  -2.0584  -1.6396   8.5339   9.5069

          k =-0.0908 0.7654 0.0000 (  2696 PWs)   bands (ev):

   -15.3296 -13.4308 -10.6163  -2.6487  -2.0306  -1.6375   8.5322   9.4688

          k =-0.0908 0.7674 0.0000 (  2696 PWs)   bands (ev):

   -15.3382 -13.4218 -10.6147  -2.6756  -2.0038  -1.6364   8.5303   9.4298

          k =-0.0908 0.7694 0.0000 (  2696 PWs)   bands (ev):

   -15.3476 -13.4119 -10.6130  -2.7028  -1.9767  -1.6351   8.5282   9.3905

          k =-0.0908 0.7714 0.0000 (  2694 PWs)   bands (ev):

   -15.3572 -13.4013 -10.6110  -2.7280  -1.9492  -1.6338   8.5260   9.3508

          k =-0.0908 0.7734 0.0000 (  2694 PWs)   bands (ev):

   -15.3680 -13.3900 -10.6090  -2.7556  -1.9218  -1.6323   8.5234   9.3108

          k =-0.0908 0.7754 0.0000 (  2694 PWs)   bands (ev):

   -15.3794 -13.3780 -10.6068  -2.7832  -1.8942  -1.6307   8.5206   9.2707

          k =-0.0908 0.7774 0.0000 (  2690 PWs)   bands (ev):

   -15.3909 -13.3649 -10.6039  -2.8105  -1.8665  -1.6283   8.5176   9.2306

          k =-0.0908 0.7794 0.0000 (  2692 PWs)   bands (ev):

   -15.4037 -13.3520 -10.6015  -2.8386  -1.8402  -1.6265   8.5143   9.1901

          k =-0.0908 0.7814 0.0000 (  2692 PWs)   bands (ev):

   -15.4168 -13.3383 -10.5994  -2.8664  -1.8118  -1.6245   8.5109   9.1496

          k =-0.0908 0.7834 0.0000 (  2692 PWs)   bands (ev):

   -15.4306 -13.3238 -10.5966  -2.8944  -1.7839  -1.6225   8.5071   9.1090

          k =-0.0908 0.7854 0.0000 (  2690 PWs)   bands (ev):

   -15.4440 -13.3086 -10.5936  -2.9214  -1.7560  -1.6203   8.5031   9.0686

          k =-0.0888 0.7054 0.0000 (  2692 PWs)   bands (ev):

   -15.4448 -13.3115 -10.5810  -2.9235  -1.7526  -1.6447   8.5153   9.0634

          k =-0.0888 0.7074 0.0000 (  2692 PWs)   bands (ev):

   -15.4304 -13.3266 -10.5839  -2.8954  -1.7806  -1.6469   8.5196   9.1041

          k =-0.0888 0.7094 0.0000 (  2692 PWs)   bands (ev):

   -15.4166 -13.3413 -10.5867  -2.8674  -1.8085  -1.6489   8.5236   9.1447

          k =-0.0888 0.7114 0.0000 (  2694 PWs)   bands (ev):

   -15.4036 -13.3554 -10.5894  -2.8398  -1.8370  -1.6510   8.5272   9.1852

          k =-0.0888 0.7134 0.0000 (  2692 PWs)   bands (ev):

   -15.3907 -13.3684 -10.5912  -2.8119  -1.8646  -1.6527   8.5306   9.2257

          k =-0.0888 0.7154 0.0000 (  2692 PWs)   bands (ev):

   -15.3786 -13.3811 -10.5935  -2.7841  -1.8922  -1.6544   8.5338   9.2660

          k =-0.0888 0.7174 0.0000 (  2690 PWs)   bands (ev):

   -15.3670 -13.3929 -10.5955  -2.7563  -1.9183  -1.6560   8.5368   9.3062

          k =-0.0888 0.7194 0.0000 (  2696 PWs)   bands (ev):

   -15.3572 -13.4045 -10.5980  -2.7310  -1.9459  -1.6588   8.5393   9.3458

          k =-0.0888 0.7214 0.0000 (  2696 PWs)   bands (ev):

   -15.3470 -13.4154 -10.6000  -2.7041  -1.9731  -1.6595   8.5417   9.3857

          k =-0.0888 0.7234 0.0000 (  2696 PWs)   bands (ev):

   -15.3376 -13.4253 -10.6018  -2.6771  -2.0001  -1.6608   8.5440   9.4251

          k =-0.0888 0.7254 0.0000 (  2698 PWs)   bands (ev):

   -15.3290 -13.4344 -10.6036  -2.6505  -2.0278  -1.6622   8.5460   9.4640

          k =-0.0888 0.7274 0.0000 (  2700 PWs)   bands (ev):

   -15.3216 -13.4428 -10.6051  -2.6243  -2.0545  -1.6640   8.5478   9.5022

          k =-0.0888 0.7294 0.0000 (  2700 PWs)   bands (ev):

   -15.3144 -13.4503 -10.6064  -2.5984  -2.0804  -1.6650   8.5494   9.5398

          k =-0.0888 0.7314 0.0000 (  2700 PWs)   bands (ev):

   -15.3086 -13.4571 -10.6077  -2.5732  -2.1055  -1.6650   8.5508   9.5765

          k =-0.0888 0.7334 0.0000 (  2700 PWs)   bands (ev):

   -15.3030 -13.4629 -10.6087  -2.5489  -2.1298  -1.6657   8.5520   9.6118

          k =-0.0888 0.7354 0.0000 (  2698 PWs)   bands (ev):

   -15.2981 -13.4677 -10.6090  -2.5258  -2.1525  -1.6656   8.5531   9.6452

          k =-0.0888 0.7374 0.0000 (  2698 PWs)   bands (ev):

   -15.2943 -13.4717 -10.6097  -2.5045  -2.1737  -1.6661   8.5539   9.6759

          k =-0.0888 0.7394 0.0000 (  2698 PWs)   bands (ev):

   -15.2918 -13.4752 -10.6105  -2.4862  -2.1923  -1.6659   8.5545   9.7025

          k =-0.0888 0.7414 0.0000 (  2700 PWs)   bands (ev):

   -15.2897 -13.4776 -10.6109  -2.4722  -2.2082  -1.6666   8.5549   9.7238

          k =-0.0888 0.7434 0.0000 (  2700 PWs)   bands (ev):

   -15.2884 -13.4790 -10.6111  -2.4625  -2.2179  -1.6668   8.5552   9.7379

          k =-0.0888 0.7454 0.0000 (  2700 PWs)   bands (ev):

   -15.2880 -13.4794 -10.6112  -2.4590  -2.2213  -1.6668   8.5553   9.7429

          k =-0.0888 0.7474 0.0000 (  2700 PWs)   bands (ev):

   -15.2884 -13.4790 -10.6111  -2.4625  -2.2179  -1.6668   8.5552   9.7379

          k =-0.0888 0.7494 0.0000 (  2700 PWs)   bands (ev):

   -15.2897 -13.4776 -10.6109  -2.4722  -2.2082  -1.6666   8.5549   9.7238

          k =-0.0888 0.7514 0.0000 (  2698 PWs)   bands (ev):

   -15.2918 -13.4752 -10.6105  -2.4862  -2.1923  -1.6659   8.5545   9.7025

          k =-0.0888 0.7534 0.0000 (  2698 PWs)   bands (ev):

   -15.2943 -13.4717 -10.6097  -2.5046  -2.1736  -1.6661   8.5539   9.6758

          k =-0.0888 0.7554 0.0000 (  2698 PWs)   bands (ev):

   -15.2981 -13.4677 -10.6090  -2.5258  -2.1525  -1.6656   8.5531   9.6452

          k =-0.0888 0.7574 0.0000 (  2700 PWs)   bands (ev):

   -15.3030 -13.4629 -10.6087  -2.5489  -2.1298  -1.6657   8.5520   9.6118

          k =-0.0888 0.7594 0.0000 (  2700 PWs)   bands (ev):

   -15.3086 -13.4571 -10.6077  -2.5732  -2.1055  -1.6650   8.5508   9.5765

          k =-0.0888 0.7614 0.0000 (  2700 PWs)   bands (ev):

   -15.3144 -13.4503 -10.6064  -2.5984  -2.0803  -1.6650   8.5494   9.5398

          k =-0.0888 0.7634 0.0000 (  2700 PWs)   bands (ev):

   -15.3216 -13.4428 -10.6051  -2.6243  -2.0545  -1.6640   8.5478   9.5022

          k =-0.0888 0.7654 0.0000 (  2698 PWs)   bands (ev):

   -15.3290 -13.4344 -10.6036  -2.6505  -2.0278  -1.6622   8.5460   9.4640

          k =-0.0888 0.7674 0.0000 (  2696 PWs)   bands (ev):

   -15.3376 -13.4253 -10.6018  -2.6771  -2.0001  -1.6608   8.5440   9.4251

          k =-0.0888 0.7694 0.0000 (  2696 PWs)   bands (ev):

   -15.3471 -13.4154 -10.6000  -2.7041  -1.9731  -1.6595   8.5417   9.3857

          k =-0.0888 0.7714 0.0000 (  2696 PWs)   bands (ev):

   -15.3572 -13.4045 -10.5980  -2.7310  -1.9459  -1.6588   8.5393   9.3458

          k =-0.0888 0.7734 0.0000 (  2690 PWs)   bands (ev):

   -15.3670 -13.3928 -10.5955  -2.7563  -1.9183  -1.6560   8.5368   9.3061

          k =-0.0888 0.7754 0.0000 (  2692 PWs)   bands (ev):

   -15.3786 -13.3811 -10.5935  -2.7841  -1.8922  -1.6544   8.5338   9.2660

          k =-0.0888 0.7774 0.0000 (  2692 PWs)   bands (ev):

   -15.3907 -13.3684 -10.5912  -2.8119  -1.8646  -1.6527   8.5306   9.2256

          k =-0.0888 0.7794 0.0000 (  2694 PWs)   bands (ev):

   -15.4036 -13.3554 -10.5894  -2.8398  -1.8370  -1.6510   8.5272   9.1852

          k =-0.0888 0.7814 0.0000 (  2692 PWs)   bands (ev):

   -15.4166 -13.3413 -10.5867  -2.8675  -1.8085  -1.6489   8.5236   9.1447

          k =-0.0888 0.7834 0.0000 (  2692 PWs)   bands (ev):

   -15.4305 -13.3266 -10.5839  -2.8954  -1.7806  -1.6469   8.5196   9.1041

          k =-0.0888 0.7854 0.0000 (  2692 PWs)   bands (ev):

   -15.4448 -13.3115 -10.5810  -2.9235  -1.7526  -1.6447   8.5153   9.0634

          k =-0.0868 0.7054 0.0000 (  2690 PWs)   bands (ev):

   -15.4446 -13.3141 -10.5671  -2.9243  -1.7488  -1.6679   8.5276   9.0585

          k =-0.0868 0.7074 0.0000 (  2690 PWs)   bands (ev):

   -15.4302 -13.3294 -10.5700  -2.8962  -1.7767  -1.6700   8.5321   9.0992

          k =-0.0868 0.7094 0.0000 (  2690 PWs)   bands (ev):

   -15.4163 -13.3441 -10.5727  -2.8683  -1.8046  -1.6720   8.5362   9.1398

          k =-0.0868 0.7114 0.0000 (  2692 PWs)   bands (ev):

   -15.4032 -13.3583 -10.5754  -2.8407  -1.8331  -1.6741   8.5400   9.1804

          k =-0.0868 0.7134 0.0000 (  2690 PWs)   bands (ev):

   -15.3903 -13.3715 -10.5771  -2.8127  -1.8607  -1.6758   8.5436   9.2208

          k =-0.0868 0.7154 0.0000 (  2690 PWs)   bands (ev):

   -15.3782 -13.3843 -10.5794  -2.7851  -1.8883  -1.6775   8.5470   9.2612

          k =-0.0868 0.7174 0.0000 (  2690 PWs)   bands (ev):

   -15.3667 -13.3964 -10.5815  -2.7575  -1.9158  -1.6791   8.5500   9.3014

          k =-0.0868 0.7194 0.0000 (  2694 PWs)   bands (ev):

   -15.3566 -13.4080 -10.5838  -2.7324  -1.9432  -1.6813   8.5527   9.3412

          k =-0.0868 0.7214 0.0000 (  2690 PWs)   bands (ev):

   -15.3460 -13.4183 -10.5852  -2.7048  -1.9689  -1.6819   8.5553   9.3812

          k =-0.0868 0.7234 0.0000 (  2694 PWs)   bands (ev):

   -15.3368 -13.4284 -10.5874  -2.6780  -1.9969  -1.6841   8.5576   9.4204

          k =-0.0868 0.7254 0.0000 (  2694 PWs)   bands (ev):

   -15.3281 -13.4376 -10.5890  -2.6514  -2.0234  -1.6852   8.5598   9.4594

          k =-0.0868 0.7274 0.0000 (  2698 PWs)   bands (ev):

   -15.3208 -13.4463 -10.5909  -2.6258  -2.0500  -1.6872   8.5616   9.4976

          k =-0.0868 0.7294 0.0000 (  2698 PWs)   bands (ev):

   -15.3141 -13.4540 -10.5923  -2.6002  -2.0756  -1.6873   8.5633   9.5353

          k =-0.0868 0.7314 0.0000 (  2698 PWs)   bands (ev):

   -15.3077 -13.4607 -10.5934  -2.5752  -2.1005  -1.6881   8.5648   9.5719

          k =-0.0868 0.7334 0.0000 (  2696 PWs)   bands (ev):

   -15.3020 -13.4664 -10.5939  -2.5511  -2.1242  -1.6882   8.5661   9.6073

          k =-0.0868 0.7354 0.0000 (  2694 PWs)   bands (ev):

   -15.2972 -13.4712 -10.5946  -2.5285  -2.1468  -1.6881   8.5672   9.6407

          k =-0.0868 0.7374 0.0000 (  2694 PWs)   bands (ev):

   -15.2933 -13.4753 -10.5952  -2.5077  -2.1675  -1.6886   8.5680   9.6715

          k =-0.0868 0.7394 0.0000 (  2694 PWs)   bands (ev):

   -15.2902 -13.4785 -10.5957  -2.4895  -2.1857  -1.6890   8.5687   9.6984

          k =-0.0868 0.7414 0.0000 (  2698 PWs)   bands (ev):

   -15.2888 -13.4814 -10.5965  -2.4764  -2.2011  -1.6898   8.5691   9.7195

          k =-0.0868 0.7434 0.0000 (  2698 PWs)   bands (ev):

   -15.2875 -13.4828 -10.5968  -2.4670  -2.2104  -1.6899   8.5694   9.7336

          k =-0.0868 0.7454 0.0000 (  2698 PWs)   bands (ev):

   -15.2870 -13.4833 -10.5968  -2.4638  -2.2137  -1.6900   8.5695   9.7385

          k =-0.0868 0.7474 0.0000 (  2698 PWs)   bands (ev):

   -15.2875 -13.4828 -10.5968  -2.4670  -2.2104  -1.6899   8.5694   9.7336

          k =-0.0868 0.7494 0.0000 (  2698 PWs)   bands (ev):

   -15.2888 -13.4814 -10.5965  -2.4764  -2.2011  -1.6898   8.5691   9.7195

          k =-0.0868 0.7514 0.0000 (  2694 PWs)   bands (ev):

   -15.2902 -13.4785 -10.5957  -2.4896  -2.1857  -1.6890   8.5687   9.6984

          k =-0.0868 0.7534 0.0000 (  2694 PWs)   bands (ev):

   -15.2933 -13.4753 -10.5952  -2.5077  -2.1675  -1.6886   8.5680   9.6715

          k =-0.0868 0.7554 0.0000 (  2694 PWs)   bands (ev):

   -15.2972 -13.4712 -10.5946  -2.5285  -2.1468  -1.6881   8.5672   9.6407

          k =-0.0868 0.7574 0.0000 (  2696 PWs)   bands (ev):

   -15.3020 -13.4664 -10.5939  -2.5511  -2.1242  -1.6882   8.5661   9.6073

          k =-0.0868 0.7594 0.0000 (  2698 PWs)   bands (ev):

   -15.3077 -13.4607 -10.5934  -2.5752  -2.1005  -1.6881   8.5648   9.5719

          k =-0.0868 0.7614 0.0000 (  2698 PWs)   bands (ev):

   -15.3142 -13.4540 -10.5923  -2.6002  -2.0756  -1.6873   8.5633   9.5352

          k =-0.0868 0.7634 0.0000 (  2698 PWs)   bands (ev):

   -15.3208 -13.4463 -10.5909  -2.6258  -2.0500  -1.6872   8.5616   9.4975

          k =-0.0868 0.7654 0.0000 (  2694 PWs)   bands (ev):

   -15.3281 -13.4376 -10.5890  -2.6514  -2.0234  -1.6852   8.5598   9.4594

          k =-0.0868 0.7674 0.0000 (  2694 PWs)   bands (ev):

   -15.3368 -13.4284 -10.5874  -2.6780  -1.9968  -1.6841   8.5576   9.4204

          k =-0.0868 0.7694 0.0000 (  2690 PWs)   bands (ev):

   -15.3460 -13.4183 -10.5852  -2.7048  -1.9689  -1.6819   8.5553   9.3812

          k =-0.0868 0.7714 0.0000 (  2694 PWs)   bands (ev):

   -15.3566 -13.4080 -10.5838  -2.7324  -1.9432  -1.6813   8.5527   9.3412

          k =-0.0868 0.7734 0.0000 (  2690 PWs)   bands (ev):

   -15.3667 -13.3964 -10.5815  -2.7575  -1.9158  -1.6791   8.5500   9.3014

          k =-0.0868 0.7754 0.0000 (  2690 PWs)   bands (ev):

   -15.3782 -13.3843 -10.5794  -2.7851  -1.8883  -1.6775   8.5470   9.2612

          k =-0.0868 0.7774 0.0000 (  2690 PWs)   bands (ev):

   -15.3903 -13.3715 -10.5771  -2.8128  -1.8607  -1.6758   8.5436   9.2208

          k =-0.0868 0.7794 0.0000 (  2692 PWs)   bands (ev):

   -15.4032 -13.3583 -10.5754  -2.8407  -1.8331  -1.6741   8.5400   9.1803

          k =-0.0868 0.7814 0.0000 (  2690 PWs)   bands (ev):

   -15.4163 -13.3441 -10.5727  -2.8683  -1.8046  -1.6720   8.5362   9.1398

          k =-0.0868 0.7834 0.0000 (  2690 PWs)   bands (ev):

   -15.4302 -13.3294 -10.5700  -2.8962  -1.7767  -1.6700   8.5321   9.0992

          k =-0.0868 0.7854 0.0000 (  2690 PWs)   bands (ev):

   -15.4446 -13.3141 -10.5671  -2.9243  -1.7488  -1.6679   8.5276   9.0585

          k =-0.0848 0.7054 0.0000 (  2690 PWs)   bands (ev):

   -15.4446 -13.3168 -10.5548  -2.9254  -1.7455  -1.6914   8.5397   9.0537

          k =-0.0848 0.7074 0.0000 (  2690 PWs)   bands (ev):

   -15.4301 -13.3321 -10.5576  -2.8974  -1.7734  -1.6935   8.5443   9.0944

          k =-0.0848 0.7094 0.0000 (  2690 PWs)   bands (ev):

   -15.4161 -13.3469 -10.5603  -2.8694  -1.8013  -1.6955   8.5487   9.1351

          k =-0.0848 0.7114 0.0000 (  2692 PWs)   bands (ev):

   -15.4030 -13.3613 -10.5630  -2.8419  -1.8298  -1.6976   8.5526   9.1756

          k =-0.0848 0.7134 0.0000 (  2692 PWs)   bands (ev):

   -15.3902 -13.3748 -10.5654  -2.8141  -1.8575  -1.6994   8.5564   9.2161

          k =-0.0848 0.7154 0.0000 (  2690 PWs)   bands (ev):

   -15.3778 -13.3874 -10.5669  -2.7863  -1.8849  -1.7011   8.5599   9.2565

          k =-0.0848 0.7174 0.0000 (  2692 PWs)   bands (ev):

   -15.3666 -13.3997 -10.5690  -2.7610  -1.9124  -1.7026   8.5629   9.2967

          k =-0.0848 0.7194 0.0000 (  2694 PWs)   bands (ev):

   -15.3562 -13.4112 -10.5713  -2.7337  -1.9397  -1.7048   8.5659   9.3366

          k =-0.0848 0.7214 0.0000 (  2696 PWs)   bands (ev):

   -15.3461 -13.4221 -10.5734  -2.7069  -1.9678  -1.7064   8.5686   9.3763

          k =-0.0848 0.7234 0.0000 (  2694 PWs)   bands (ev):

   -15.3363 -13.4320 -10.5748  -2.6799  -1.9946  -1.7070   8.5710   9.4159

          k =-0.0848 0.7254 0.0000 (  2694 PWs)   bands (ev):

   -15.3275 -13.4410 -10.5763  -2.6531  -2.0197  -1.7087   8.5733   9.4548

          k =-0.0848 0.7274 0.0000 (  2698 PWs)   bands (ev):

   -15.3209 -13.4497 -10.5780  -2.6274  -2.0461  -1.7108   8.5752   9.4929

          k =-0.0848 0.7294 0.0000 (  2696 PWs)   bands (ev):

   -15.3133 -13.4572 -10.5792  -2.6017  -2.0715  -1.7107   8.5770   9.5309

          k =-0.0848 0.7314 0.0000 (  2696 PWs)   bands (ev):

   -15.3068 -13.4640 -10.5803  -2.5770  -2.0962  -1.7116   8.5786   9.5676

          k =-0.0848 0.7334 0.0000 (  2692 PWs)   bands (ev):

   -15.3010 -13.4694 -10.5806  -2.5531  -2.1195  -1.7110   8.5799   9.6030

          k =-0.0848 0.7354 0.0000 (  2694 PWs)   bands (ev):

   -15.2965 -13.4748 -10.5819  -2.5313  -2.1418  -1.7117   8.5810   9.6364

          k =-0.0848 0.7374 0.0000 (  2694 PWs)   bands (ev):

   -15.2925 -13.4790 -10.5825  -2.5110  -2.1622  -1.7122   8.5819   9.6671

          k =-0.0848 0.7394 0.0000 (  2694 PWs)   bands (ev):

   -15.2895 -13.4822 -10.5830  -2.4933  -2.1799  -1.7126   8.5827   9.6941

          k =-0.0848 0.7414 0.0000 (  2694 PWs)   bands (ev):

   -15.2873 -13.4845 -10.5834  -2.4792  -2.1939  -1.7129   8.5832   9.7156

          k =-0.0848 0.7434 0.0000 (  2698 PWs)   bands (ev):

   -15.2867 -13.4865 -10.5840  -2.4715  -2.2039  -1.7135   8.5834   9.7294

          k =-0.0848 0.7454 0.0000 (  2698 PWs)   bands (ev):

   -15.2863 -13.4870 -10.5841  -2.4684  -2.2070  -1.7135   8.5835   9.7343

          k =-0.0848 0.7474 0.0000 (  2698 PWs)   bands (ev):

   -15.2867 -13.4865 -10.5840  -2.4715  -2.2039  -1.7135   8.5834   9.7294

          k =-0.0848 0.7494 0.0000 (  2694 PWs)   bands (ev):

   -15.2873 -13.4845 -10.5834  -2.4793  -2.1939  -1.7129   8.5832   9.7156

          k =-0.0848 0.7514 0.0000 (  2694 PWs)   bands (ev):

   -15.2895 -13.4822 -10.5830  -2.4933  -2.1799  -1.7126   8.5827   9.6941

          k =-0.0848 0.7534 0.0000 (  2694 PWs)   bands (ev):

   -15.2925 -13.4790 -10.5825  -2.5110  -2.1622  -1.7122   8.5819   9.6671

          k =-0.0848 0.7554 0.0000 (  2694 PWs)   bands (ev):

   -15.2965 -13.4748 -10.5819  -2.5314  -2.1418  -1.7117   8.5810   9.6363

          k =-0.0848 0.7574 0.0000 (  2692 PWs)   bands (ev):

   -15.3010 -13.4694 -10.5806  -2.5532  -2.1195  -1.7110   8.5799   9.6030

          k =-0.0848 0.7594 0.0000 (  2696 PWs)   bands (ev):

   -15.3068 -13.4640 -10.5803  -2.5770  -2.0962  -1.7116   8.5786   9.5675

          k =-0.0848 0.7614 0.0000 (  2696 PWs)   bands (ev):

   -15.3133 -13.4572 -10.5792  -2.6017  -2.0715  -1.7107   8.5770   9.5308

          k =-0.0848 0.7634 0.0000 (  2698 PWs)   bands (ev):

   -15.3209 -13.4497 -10.5780  -2.6274  -2.0460  -1.7108   8.5752   9.4929

          k =-0.0848 0.7654 0.0000 (  2694 PWs)   bands (ev):

   -15.3275 -13.4410 -10.5763  -2.6531  -2.0196  -1.7087   8.5733   9.4548

          k =-0.0848 0.7674 0.0000 (  2694 PWs)   bands (ev):

   -15.3363 -13.4320 -10.5748  -2.6799  -1.9946  -1.7070   8.5710   9.4159

          k =-0.0848 0.7694 0.0000 (  2696 PWs)   bands (ev):

   -15.3461 -13.4221 -10.5734  -2.7069  -1.9678  -1.7064   8.5686   9.3762

          k =-0.0848 0.7714 0.0000 (  2694 PWs)   bands (ev):

   -15.3562 -13.4112 -10.5713  -2.7337  -1.9397  -1.7048   8.5659   9.3365

          k =-0.0848 0.7734 0.0000 (  2692 PWs)   bands (ev):

   -15.3666 -13.3997 -10.5690  -2.7610  -1.9124  -1.7026   8.5629   9.2967

          k =-0.0848 0.7754 0.0000 (  2690 PWs)   bands (ev):

   -15.3778 -13.3874 -10.5669  -2.7863  -1.8849  -1.7011   8.5599   9.2565

          k =-0.0848 0.7774 0.0000 (  2692 PWs)   bands (ev):

   -15.3902 -13.3748 -10.5654  -2.8141  -1.8575  -1.6994   8.5564   9.2161

          k =-0.0848 0.7794 0.0000 (  2692 PWs)   bands (ev):

   -15.4030 -13.3612 -10.5630  -2.8419  -1.8298  -1.6976   8.5526   9.1756

          k =-0.0848 0.7814 0.0000 (  2690 PWs)   bands (ev):

   -15.4161 -13.3469 -10.5603  -2.8694  -1.8013  -1.6955   8.5487   9.1351

          k =-0.0848 0.7834 0.0000 (  2690 PWs)   bands (ev):

   -15.4301 -13.3321 -10.5576  -2.8974  -1.7734  -1.6935   8.5443   9.0944

          k =-0.0848 0.7854 0.0000 (  2690 PWs)   bands (ev):

   -15.4446 -13.3168 -10.5548  -2.9254  -1.7455  -1.6914   8.5397   9.0537

          k =-0.0828 0.7054 0.0000 (  2690 PWs)   bands (ev):

   -15.4445 -13.3195 -10.5437  -2.9269  -1.7429  -1.7138   8.5515   9.0492

          k =-0.0828 0.7074 0.0000 (  2690 PWs)   bands (ev):

   -15.4300 -13.3349 -10.5465  -2.8989  -1.7708  -1.7159   8.5563   9.0899

          k =-0.0828 0.7094 0.0000 (  2692 PWs)   bands (ev):

   -15.4162 -13.3498 -10.5482  -2.8709  -1.7988  -1.7188   8.5608   9.1304

          k =-0.0828 0.7114 0.0000 (  2692 PWs)   bands (ev):

   -15.4028 -13.3641 -10.5507  -2.8430  -1.8265  -1.7207   8.5650   9.1710

          k =-0.0828 0.7134 0.0000 (  2692 PWs)   bands (ev):

   -15.3899 -13.3777 -10.5531  -2.8153  -1.8542  -1.7225   8.5690   9.2115

          k =-0.0828 0.7154 0.0000 (  2694 PWs)   bands (ev):

   -15.3780 -13.3909 -10.5553  -2.7899  -1.8818  -1.7242   8.5724   9.2519

          k =-0.0828 0.7174 0.0000 (  2694 PWs)   bands (ev):

   -15.3667 -13.4028 -10.5570  -2.7624  -1.9091  -1.7264   8.5758   9.2920

          k =-0.0828 0.7194 0.0000 (  2696 PWs)   bands (ev):

   -15.3559 -13.4144 -10.5592  -2.7354  -1.9373  -1.7281   8.5789   9.3320

          k =-0.0828 0.7214 0.0000 (  2696 PWs)   bands (ev):

   -15.3456 -13.4253 -10.5610  -2.7084  -1.9643  -1.7295   8.5817   9.3718

          k =-0.0828 0.7234 0.0000 (  2694 PWs)   bands (ev):

   -15.3358 -13.4353 -10.5624  -2.6815  -1.9909  -1.7300   8.5843   9.4115

          k =-0.0828 0.7254 0.0000 (  2696 PWs)   bands (ev):

   -15.3279 -13.4448 -10.5640  -2.6553  -2.0172  -1.7314   8.5866   9.4503

          k =-0.0828 0.7274 0.0000 (  2698 PWs)   bands (ev):

   -15.3203 -13.4533 -10.5655  -2.6296  -2.0435  -1.7333   8.5887   9.4886

          k =-0.0828 0.7294 0.0000 (  2694 PWs)   bands (ev):

   -15.3126 -13.4604 -10.5666  -2.6037  -2.0674  -1.7332   8.5906   9.5265

          k =-0.0828 0.7314 0.0000 (  2692 PWs)   bands (ev):

   -15.3060 -13.4670 -10.5672  -2.5791  -2.0916  -1.7334   8.5922   9.5633

          k =-0.0828 0.7334 0.0000 (  2692 PWs)   bands (ev):

   -15.3004 -13.4730 -10.5681  -2.5557  -2.1150  -1.7341   8.5936   9.5986

          k =-0.0828 0.7354 0.0000 (  2692 PWs)   bands (ev):

   -15.2956 -13.4781 -10.5689  -2.5338  -2.1369  -1.7347   8.5948   9.6321

          k =-0.0828 0.7374 0.0000 (  2692 PWs)   bands (ev):

   -15.2916 -13.4822 -10.5695  -2.5138  -2.1569  -1.7352   8.5957   9.6630

          k =-0.0828 0.7394 0.0000 (  2692 PWs)   bands (ev):

   -15.2885 -13.4855 -10.5700  -2.4965  -2.1742  -1.7356   8.5965   9.6899

          k =-0.0828 0.7414 0.0000 (  2694 PWs)   bands (ev):

   -15.2865 -13.4882 -10.5708  -2.4833  -2.1878  -1.7360   8.5970   9.7114

          k =-0.0828 0.7434 0.0000 (  2696 PWs)   bands (ev):

   -15.2853 -13.4896 -10.5711  -2.4757  -2.1974  -1.7366   8.5973   9.7254

          k =-0.0828 0.7454 0.0000 (  2698 PWs)   bands (ev):

   -15.2855 -13.4906 -10.5716  -2.4729  -2.2005  -1.7366   8.5974   9.7302

          k =-0.0828 0.7474 0.0000 (  2696 PWs)   bands (ev):

   -15.2853 -13.4896 -10.5711  -2.4757  -2.1974  -1.7366   8.5973   9.7254

          k =-0.0828 0.7494 0.0000 (  2694 PWs)   bands (ev):

   -15.2865 -13.4882 -10.5708  -2.4833  -2.1878  -1.7360   8.5970   9.7114

          k =-0.0828 0.7514 0.0000 (  2692 PWs)   bands (ev):

   -15.2885 -13.4855 -10.5700  -2.4965  -2.1742  -1.7356   8.5965   9.6899

          k =-0.0828 0.7534 0.0000 (  2692 PWs)   bands (ev):

   -15.2916 -13.4822 -10.5695  -2.5138  -2.1569  -1.7352   8.5957   9.6629

          k =-0.0828 0.7554 0.0000 (  2692 PWs)   bands (ev):

   -15.2956 -13.4781 -10.5689  -2.5338  -2.1369  -1.7347   8.5948   9.6321

          k =-0.0828 0.7574 0.0000 (  2692 PWs)   bands (ev):

   -15.3004 -13.4730 -10.5681  -2.5557  -2.1149  -1.7341   8.5936   9.5986

          k =-0.0828 0.7594 0.0000 (  2692 PWs)   bands (ev):

   -15.3060 -13.4670 -10.5672  -2.5791  -2.0915  -1.7334   8.5922   9.5632

          k =-0.0828 0.7614 0.0000 (  2694 PWs)   bands (ev):

   -15.3126 -13.4604 -10.5666  -2.6037  -2.0674  -1.7332   8.5906   9.5265

          k =-0.0828 0.7634 0.0000 (  2698 PWs)   bands (ev):

   -15.3203 -13.4533 -10.5655  -2.6296  -2.0434  -1.7333   8.5887   9.4886

          k =-0.0828 0.7654 0.0000 (  2696 PWs)   bands (ev):

   -15.3279 -13.4448 -10.5640  -2.6554  -2.0172  -1.7314   8.5866   9.4503

          k =-0.0828 0.7674 0.0000 (  2694 PWs)   bands (ev):

   -15.3358 -13.4353 -10.5624  -2.6815  -1.9909  -1.7300   8.5843   9.4114

          k =-0.0828 0.7694 0.0000 (  2696 PWs)   bands (ev):

   -15.3456 -13.4253 -10.5610  -2.7084  -1.9642  -1.7295   8.5817   9.3717

          k =-0.0828 0.7714 0.0000 (  2696 PWs)   bands (ev):

   -15.3559 -13.4144 -10.5592  -2.7354  -1.9373  -1.7281   8.5789   9.3320

          k =-0.0828 0.7734 0.0000 (  2694 PWs)   bands (ev):

   -15.3667 -13.4028 -10.5570  -2.7624  -1.9091  -1.7264   8.5758   9.2920

          k =-0.0828 0.7754 0.0000 (  2694 PWs)   bands (ev):

   -15.3780 -13.3908 -10.5553  -2.7899  -1.8818  -1.7242   8.5724   9.2519

          k =-0.0828 0.7774 0.0000 (  2692 PWs)   bands (ev):

   -15.3899 -13.3777 -10.5531  -2.8153  -1.8542  -1.7225   8.5690   9.2115

          k =-0.0828 0.7794 0.0000 (  2692 PWs)   bands (ev):

   -15.4028 -13.3641 -10.5507  -2.8431  -1.8265  -1.7207   8.5650   9.1710

          k =-0.0828 0.7814 0.0000 (  2692 PWs)   bands (ev):

   -15.4162 -13.3498 -10.5482  -2.8709  -1.7987  -1.7188   8.5608   9.1304

          k =-0.0828 0.7834 0.0000 (  2690 PWs)   bands (ev):

   -15.4300 -13.3349 -10.5465  -2.8989  -1.7708  -1.7159   8.5563   9.0899

          k =-0.0828 0.7854 0.0000 (  2690 PWs)   bands (ev):

   -15.4445 -13.3194 -10.5437  -2.9269  -1.7429  -1.7138   8.5515   9.0491

          k =-0.0808 0.7054 0.0000 (  2690 PWs)   bands (ev):

   -15.4445 -13.3220 -10.5317  -2.9280  -1.7396  -1.7364   8.5632   9.0446

          k =-0.0808 0.7074 0.0000 (  2690 PWs)   bands (ev):

   -15.4299 -13.3375 -10.5345  -2.9000  -1.7676  -1.7385   8.5682   9.0853

          k =-0.0808 0.7094 0.0000 (  2692 PWs)   bands (ev):

   -15.4161 -13.3526 -10.5372  -2.8724  -1.7962  -1.7408   8.5728   9.1260

          k =-0.0808 0.7114 0.0000 (  2694 PWs)   bands (ev):

   -15.4028 -13.3670 -10.5399  -2.8446  -1.8239  -1.7433   8.5772   9.1665

          k =-0.0808 0.7134 0.0000 (  2692 PWs)   bands (ev):

   -15.3897 -13.3806 -10.5410  -2.8166  -1.8509  -1.7451   8.5814   9.2070

          k =-0.0808 0.7154 0.0000 (  2694 PWs)   bands (ev):

   -15.3777 -13.3938 -10.5432  -2.7912  -1.8785  -1.7468   8.5850   9.2474

          k =-0.0808 0.7174 0.0000 (  2696 PWs)   bands (ev):

   -15.3665 -13.4058 -10.5451  -2.7640  -1.9067  -1.7493   8.5885   9.2875

          k =-0.0808 0.7194 0.0000 (  2696 PWs)   bands (ev):

   -15.3555 -13.4175 -10.5470  -2.7368  -1.9338  -1.7508   8.5917   9.3276

          k =-0.0808 0.7214 0.0000 (  2696 PWs)   bands (ev):

   -15.3452 -13.4284 -10.5488  -2.7099  -1.9607  -1.7521   8.5947   9.3674

          k =-0.0808 0.7234 0.0000 (  2698 PWs)   bands (ev):

   -15.3365 -13.4387 -10.5506  -2.6835  -1.9873  -1.7536   8.5973   9.4067

          k =-0.0808 0.7254 0.0000 (  2694 PWs)   bands (ev):

   -15.3273 -13.4478 -10.5516  -2.6571  -2.0135  -1.7533   8.5998   9.4460

          k =-0.0808 0.7274 0.0000 (  2694 PWs)   bands (ev):

   -15.3193 -13.4563 -10.5530  -2.6313  -2.0396  -1.7542   8.6020   9.4845

          k =-0.0808 0.7294 0.0000 (  2692 PWs)   bands (ev):

   -15.3119 -13.4637 -10.5538  -2.6061  -2.0643  -1.7546   8.6039   9.5223

          k =-0.0808 0.7314 0.0000 (  2694 PWs)   bands (ev):

   -15.3056 -13.4707 -10.5550  -2.5819  -2.0885  -1.7560   8.6056   9.5590

          k =-0.0808 0.7334 0.0000 (  2692 PWs)   bands (ev):

   -15.2997 -13.4764 -10.5558  -2.5583  -2.1104  -1.7567   8.6071   9.5944

          k =-0.0808 0.7354 0.0000 (  2692 PWs)   bands (ev):

   -15.2949 -13.4815 -10.5566  -2.5367  -2.1320  -1.7574   8.6084   9.6280

          k =-0.0808 0.7374 0.0000 (  2692 PWs)   bands (ev):

   -15.2909 -13.4857 -10.5572  -2.5170  -2.1517  -1.7579   8.6094   9.6588

          k =-0.0808 0.7394 0.0000 (  2692 PWs)   bands (ev):

   -15.2878 -13.4890 -10.5577  -2.5001  -2.1685  -1.7582   8.6101   9.6858

          k =-0.0808 0.7414 0.0000 (  2692 PWs)   bands (ev):

   -15.2856 -13.4913 -10.5580  -2.4869  -2.1818  -1.7585   8.6107   9.7074

          k =-0.0808 0.7434 0.0000 (  2694 PWs)   bands (ev):

   -15.2844 -13.4928 -10.5582  -2.4796  -2.1910  -1.7591   8.6110   9.7215

          k =-0.0808 0.7454 0.0000 (  2690 PWs)   bands (ev):

   -15.2832 -13.4923 -10.5574  -2.4762  -2.1936  -1.7591   8.6111   9.7266

          k =-0.0808 0.7474 0.0000 (  2694 PWs)   bands (ev):

   -15.2844 -13.4928 -10.5582  -2.4796  -2.1910  -1.7591   8.6110   9.7214

          k =-0.0808 0.7494 0.0000 (  2692 PWs)   bands (ev):

   -15.2856 -13.4913 -10.5580  -2.4869  -2.1818  -1.7585   8.6107   9.7074

          k =-0.0808 0.7514 0.0000 (  2692 PWs)   bands (ev):

   -15.2878 -13.4890 -10.5577  -2.5002  -2.1685  -1.7582   8.6101   9.6858

          k =-0.0808 0.7534 0.0000 (  2692 PWs)   bands (ev):

   -15.2909 -13.4857 -10.5572  -2.5170  -2.1517  -1.7579   8.6094   9.6588

          k =-0.0808 0.7554 0.0000 (  2692 PWs)   bands (ev):

   -15.2949 -13.4815 -10.5566  -2.5367  -2.1320  -1.7574   8.6084   9.6279

          k =-0.0808 0.7574 0.0000 (  2692 PWs)   bands (ev):

   -15.2997 -13.4764 -10.5558  -2.5583  -2.1104  -1.7567   8.6071   9.5944

          k =-0.0808 0.7594 0.0000 (  2694 PWs)   bands (ev):

   -15.3056 -13.4707 -10.5550  -2.5819  -2.0885  -1.7560   8.6056   9.5590

          k =-0.0808 0.7614 0.0000 (  2692 PWs)   bands (ev):

   -15.3119 -13.4637 -10.5538  -2.6061  -2.0643  -1.7546   8.6039   9.5223

          k =-0.0808 0.7634 0.0000 (  2694 PWs)   bands (ev):

   -15.3193 -13.4563 -10.5530  -2.6313  -2.0395  -1.7542   8.6020   9.4845

          k =-0.0808 0.7654 0.0000 (  2694 PWs)   bands (ev):

   -15.3273 -13.4478 -10.5516  -2.6571  -2.0135  -1.7533   8.5998   9.4460

          k =-0.0808 0.7674 0.0000 (  2698 PWs)   bands (ev):

   -15.3365 -13.4387 -10.5506  -2.6835  -1.9873  -1.7536   8.5973   9.4066

          k =-0.0808 0.7694 0.0000 (  2696 PWs)   bands (ev):

   -15.3452 -13.4284 -10.5488  -2.7099  -1.9607  -1.7521   8.5947   9.3673

          k =-0.0808 0.7714 0.0000 (  2696 PWs)   bands (ev):

   -15.3555 -13.4175 -10.5470  -2.7368  -1.9338  -1.7508   8.5917   9.3275

          k =-0.0808 0.7734 0.0000 (  2696 PWs)   bands (ev):

   -15.3665 -13.4058 -10.5451  -2.7640  -1.9067  -1.7493   8.5885   9.2875

          k =-0.0808 0.7754 0.0000 (  2694 PWs)   bands (ev):

   -15.3777 -13.3938 -10.5432  -2.7912  -1.8784  -1.7468   8.5850   9.2474

          k =-0.0808 0.7774 0.0000 (  2692 PWs)   bands (ev):

   -15.3897 -13.3806 -10.5410  -2.8166  -1.8509  -1.7451   8.5814   9.2070

          k =-0.0808 0.7794 0.0000 (  2694 PWs)   bands (ev):

   -15.4028 -13.3670 -10.5399  -2.8446  -1.8239  -1.7433   8.5772   9.1665

          k =-0.0808 0.7814 0.0000 (  2692 PWs)   bands (ev):

   -15.4161 -13.3526 -10.5372  -2.8724  -1.7962  -1.7408   8.5728   9.1260

          k =-0.0808 0.7834 0.0000 (  2690 PWs)   bands (ev):

   -15.4299 -13.3375 -10.5345  -2.9000  -1.7676  -1.7385   8.5682   9.0853

          k =-0.0808 0.7854 0.0000 (  2690 PWs)   bands (ev):

   -15.4445 -13.3220 -10.5317  -2.9280  -1.7396  -1.7364   8.5632   9.0446

          k =-0.0788 0.7054 0.0000 (  2687 PWs)   bands (ev):

   -15.4439 -13.3244 -10.5198  -2.9291  -1.7573  -1.7363   8.5747   9.0403

          k =-0.0788 0.7074 0.0000 (  2690 PWs)   bands (ev):

   -15.4298 -13.3401 -10.5227  -2.9012  -1.7644  -1.7607   8.5799   9.0809

          k =-0.0788 0.7094 0.0000 (  2692 PWs)   bands (ev):

   -15.4160 -13.3552 -10.5254  -2.8736  -1.7930  -1.7629   8.5847   9.1216

          k =-0.0788 0.7114 0.0000 (  2692 PWs)   bands (ev):

   -15.4024 -13.3697 -10.5278  -2.8459  -1.8207  -1.7648   8.5893   9.1622

          k =-0.0788 0.7134 0.0000 (  2694 PWs)   bands (ev):

   -15.3898 -13.3836 -10.5302  -2.8204  -1.8484  -1.7666   8.5933   9.2027

          k =-0.0788 0.7154 0.0000 (  2698 PWs)   bands (ev):

   -15.3780 -13.3967 -10.5318  -2.7928  -1.8763  -1.7699   8.5974   9.2429

          k =-0.0788 0.7174 0.0000 (  2698 PWs)   bands (ev):

   -15.3663 -13.4091 -10.5338  -2.7655  -1.9036  -1.7715   8.6010   9.2831

          k =-0.0788 0.7194 0.0000 (  2696 PWs)   bands (ev):

   -15.3551 -13.4205 -10.5350  -2.7383  -1.9304  -1.7729   8.6044   9.3232

          k =-0.0788 0.7214 0.0000 (  2698 PWs)   bands (ev):

   -15.3457 -13.4316 -10.5369  -2.7116  -1.9572  -1.7745   8.6075   9.3629

          k =-0.0788 0.7234 0.0000 (  2696 PWs)   bands (ev):

   -15.3361 -13.4416 -10.5384  -2.6851  -1.9837  -1.7751   8.6103   9.4024

          k =-0.0788 0.7254 0.0000 (  2694 PWs)   bands (ev):

   -15.3268 -13.4510 -10.5396  -2.6589  -2.0098  -1.7755   8.6128   9.4417

          k =-0.0788 0.7274 0.0000 (  2694 PWs)   bands (ev):

   -15.3188 -13.4595 -10.5410  -2.6332  -2.0357  -1.7764   8.6151   9.4803

          k =-0.0788 0.7294 0.0000 (  2692 PWs)   bands (ev):

   -15.3114 -13.4670 -10.5417  -2.6082  -2.0602  -1.7767   8.6171   9.5181

          k =-0.0788 0.7314 0.0000 (  2692 PWs)   bands (ev):

   -15.3049 -13.4739 -10.5427  -2.5843  -2.0842  -1.7776   8.6189   9.5549

          k =-0.0788 0.7334 0.0000 (  2692 PWs)   bands (ev):

   -15.2992 -13.4800 -10.5436  -2.5614  -2.1070  -1.7783   8.6204   9.5904

          k =-0.0788 0.7354 0.0000 (  2694 PWs)   bands (ev):

   -15.2945 -13.4852 -10.5446  -2.5401  -2.1283  -1.7795   8.6217   9.6239

          k =-0.0788 0.7374 0.0000 (  2692 PWs)   bands (ev):

   -15.2903 -13.4892 -10.5451  -2.5203  -2.1465  -1.7800   8.6228   9.6548

          k =-0.0788 0.7394 0.0000 (  2690 PWs)   bands (ev):

   -15.2870 -13.4920 -10.5451  -2.5035  -2.1627  -1.7803   8.6236   9.6818

          k =-0.0788 0.7414 0.0000 (  2690 PWs)   bands (ev):

   -15.2848 -13.4944 -10.5454  -2.4906  -2.1757  -1.7806   8.6242   9.7034

          k =-0.0788 0.7434 0.0000 (  2690 PWs)   bands (ev):

   -15.2830 -13.4953 -10.5452  -2.4833  -2.1846  -1.7812   8.6245   9.7177

          k =-0.0788 0.7454 0.0000 (  2690 PWs)   bands (ev):

   -15.2825 -13.4958 -10.5453  -2.4805  -2.1874  -1.7813   8.6246   9.7227

          k =-0.0788 0.7474 0.0000 (  2690 PWs)   bands (ev):

   -15.2830 -13.4953 -10.5452  -2.4833  -2.1846  -1.7812   8.6245   9.7177

          k =-0.0788 0.7494 0.0000 (  2690 PWs)   bands (ev):

   -15.2848 -13.4944 -10.5454  -2.4906  -2.1757  -1.7806   8.6242   9.7034

          k =-0.0788 0.7514 0.0000 (  2690 PWs)   bands (ev):

   -15.2870 -13.4920 -10.5451  -2.5035  -2.1627  -1.7803   8.6236   9.6818

          k =-0.0788 0.7534 0.0000 (  2692 PWs)   bands (ev):

   -15.2903 -13.4892 -10.5451  -2.5203  -2.1465  -1.7800   8.6228   9.6547

          k =-0.0788 0.7554 0.0000 (  2694 PWs)   bands (ev):

   -15.2945 -13.4852 -10.5446  -2.5401  -2.1283  -1.7795   8.6217   9.6238

          k =-0.0788 0.7574 0.0000 (  2692 PWs)   bands (ev):

   -15.2992 -13.4800 -10.5436  -2.5614  -2.1070  -1.7783   8.6204   9.5904

          k =-0.0788 0.7594 0.0000 (  2692 PWs)   bands (ev):

   -15.3049 -13.4739 -10.5427  -2.5843  -2.0842  -1.7776   8.6189   9.5549

          k =-0.0788 0.7614 0.0000 (  2692 PWs)   bands (ev):

   -15.3114 -13.4670 -10.5417  -2.6083  -2.0602  -1.7767   8.6171   9.5181

          k =-0.0788 0.7634 0.0000 (  2694 PWs)   bands (ev):

   -15.3188 -13.4595 -10.5410  -2.6332  -2.0357  -1.7764   8.6151   9.4803

          k =-0.0788 0.7654 0.0000 (  2694 PWs)   bands (ev):

   -15.3268 -13.4510 -10.5396  -2.6589  -2.0098  -1.7755   8.6128   9.4417

          k =-0.0788 0.7674 0.0000 (  2696 PWs)   bands (ev):

   -15.3361 -13.4416 -10.5384  -2.6851  -1.9837  -1.7751   8.6103   9.4024

          k =-0.0788 0.7694 0.0000 (  2698 PWs)   bands (ev):

   -15.3457 -13.4316 -10.5369  -2.7116  -1.9572  -1.7745   8.6075   9.3629

          k =-0.0788 0.7714 0.0000 (  2696 PWs)   bands (ev):

   -15.3551 -13.4205 -10.5350  -2.7383  -1.9304  -1.7729   8.6044   9.3232

          k =-0.0788 0.7734 0.0000 (  2698 PWs)   bands (ev):

   -15.3663 -13.4091 -10.5338  -2.7655  -1.9036  -1.7715   8.6010   9.2831

          k =-0.0788 0.7754 0.0000 (  2698 PWs)   bands (ev):

   -15.3780 -13.3967 -10.5318  -2.7928  -1.8763  -1.7699   8.5974   9.2429

          k =-0.0788 0.7774 0.0000 (  2694 PWs)   bands (ev):

   -15.3898 -13.3836 -10.5302  -2.8204  -1.8483  -1.7666   8.5933   9.2027

          k =-0.0788 0.7794 0.0000 (  2692 PWs)   bands (ev):

   -15.4024 -13.3696 -10.5278  -2.8459  -1.8207  -1.7648   8.5893   9.1622

          k =-0.0788 0.7814 0.0000 (  2692 PWs)   bands (ev):

   -15.4160 -13.3552 -10.5254  -2.8736  -1.7930  -1.7629   8.5847   9.1215

          k =-0.0788 0.7834 0.0000 (  2690 PWs)   bands (ev):

   -15.4298 -13.3400 -10.5227  -2.9012  -1.7644  -1.7607   8.5799   9.0809

          k =-0.0788 0.7854 0.0000 (  2687 PWs)   bands (ev):

   -15.4439 -13.3244 -10.5198  -2.9291  -1.7573  -1.7363   8.5747   9.0403

          k =-0.0768 0.7054 0.0000 (  2687 PWs)   bands (ev):

   -15.4439 -13.3268 -10.5083  -2.9303  -1.7789  -1.7332   8.5861   9.0360

          k =-0.0768 0.7074 0.0000 (  2689 PWs)   bands (ev):

   -15.4297 -13.3425 -10.5110  -2.9024  -1.7821  -1.7612   8.5915   9.0766

          k =-0.0768 0.7094 0.0000 (  2691 PWs)   bands (ev):

   -15.4158 -13.3577 -10.5137  -2.8748  -1.7898  -1.7843   8.5965   9.1173

          k =-0.0768 0.7114 0.0000 (  2694 PWs)   bands (ev):

   -15.4026 -13.3724 -10.5162  -2.8493  -1.8175  -1.7865   8.6010   9.1579

          k =-0.0768 0.7134 0.0000 (  2696 PWs)   bands (ev):

   -15.3897 -13.3863 -10.5188  -2.8219  -1.8462  -1.7886   8.6054   9.1984

          k =-0.0768 0.7154 0.0000 (  2698 PWs)   bands (ev):

   -15.3778 -13.3995 -10.5211  -2.7945  -1.8737  -1.7910   8.6095   9.2387

          k =-0.0768 0.7174 0.0000 (  2700 PWs)   bands (ev):

   -15.3662 -13.4121 -10.5233  -2.7672  -1.9009  -1.7932   8.6133   9.2789

          k =-0.0768 0.7194 0.0000 (  2698 PWs)   bands (ev):

   -15.3559 -13.4237 -10.5240  -2.7400  -1.9273  -1.7942   8.6169   9.3189

          k =-0.0768 0.7214 0.0000 (  2696 PWs)   bands (ev):

   -15.3453 -13.4344 -10.5250  -2.7132  -1.9538  -1.7955   8.6201   9.3587

          k =-0.0768 0.7234 0.0000 (  2696 PWs)   bands (ev):

   -15.3356 -13.4447 -10.5265  -2.6868  -1.9801  -1.7968   8.6230   9.3982

          k =-0.0768 0.7254 0.0000 (  2692 PWs)   bands (ev):

   -15.3260 -13.4540 -10.5277  -2.6605  -2.0061  -1.7962   8.6257   9.4378

          k =-0.0768 0.7274 0.0000 (  2692 PWs)   bands (ev):

   -15.3182 -13.4624 -10.5286  -2.6351  -2.0315  -1.7975   8.6281   9.4762

          k =-0.0768 0.7294 0.0000 (  2692 PWs)   bands (ev):

   -15.3109 -13.4702 -10.5298  -2.6104  -2.0562  -1.7984   8.6302   9.5140

          k =-0.0768 0.7314 0.0000 (  2690 PWs)   bands (ev):

   -15.3042 -13.4767 -10.5304  -2.5865  -2.0796  -1.7992   8.6320   9.5509

          k =-0.0768 0.7334 0.0000 (  2690 PWs)   bands (ev):

   -15.2985 -13.4828 -10.5313  -2.5639  -2.1022  -1.7999   8.6336   9.5864

          k =-0.0768 0.7354 0.0000 (  2690 PWs)   bands (ev):

   -15.2936 -13.4880 -10.5320  -2.5429  -2.1232  -1.8005   8.6349   9.6200

          k =-0.0768 0.7374 0.0000 (  2690 PWs)   bands (ev):

   -15.2896 -13.4922 -10.5326  -2.5240  -2.1421  -1.8011   8.6360   9.6509

          k =-0.0768 0.7394 0.0000 (  2692 PWs)   bands (ev):

   -15.2866 -13.4957 -10.5333  -2.5078  -2.1582  -1.8021   8.6369   9.6779

          k =-0.0768 0.7414 0.0000 (  2688 PWs)   bands (ev):

   -15.2836 -13.4972 -10.5331  -2.4943  -2.1698  -1.8023   8.6375   9.6997

          k =-0.0768 0.7434 0.0000 (  2688 PWs)   bands (ev):

   -15.2822 -13.4986 -10.5333  -2.4862  -2.1779  -1.8025   8.6379   9.7139

          k =-0.0768 0.7454 0.0000 (  2690 PWs)   bands (ev):

   -15.2819 -13.4992 -10.5333  -2.4847  -2.1814  -1.8030   8.6380   9.7188

          k =-0.0768 0.7474 0.0000 (  2688 PWs)   bands (ev):

   -15.2822 -13.4986 -10.5333  -2.4862  -2.1779  -1.8025   8.6379   9.7139

          k =-0.0768 0.7494 0.0000 (  2688 PWs)   bands (ev):

   -15.2836 -13.4972 -10.5331  -2.4943  -2.1698  -1.8023   8.6375   9.6997

          k =-0.0768 0.7514 0.0000 (  2692 PWs)   bands (ev):

   -15.2866 -13.4956 -10.5333  -2.5079  -2.1582  -1.8021   8.6369   9.6779

          k =-0.0768 0.7534 0.0000 (  2690 PWs)   bands (ev):

   -15.2896 -13.4922 -10.5326  -2.5240  -2.1421  -1.8011   8.6360   9.6509

          k =-0.0768 0.7554 0.0000 (  2690 PWs)   bands (ev):

   -15.2936 -13.4880 -10.5320  -2.5429  -2.1232  -1.8005   8.6349   9.6200

          k =-0.0768 0.7574 0.0000 (  2690 PWs)   bands (ev):

   -15.2985 -13.4828 -10.5313  -2.5639  -2.1022  -1.7999   8.6336   9.5864

          k =-0.0768 0.7594 0.0000 (  2690 PWs)   bands (ev):

   -15.3042 -13.4767 -10.5304  -2.5865  -2.0796  -1.7992   8.6320   9.5509

          k =-0.0768 0.7614 0.0000 (  2692 PWs)   bands (ev):

   -15.3109 -13.4702 -10.5298  -2.6104  -2.0562  -1.7984   8.6302   9.5140

          k =-0.0768 0.7634 0.0000 (  2692 PWs)   bands (ev):

   -15.3182 -13.4624 -10.5286  -2.6351  -2.0315  -1.7975   8.6281   9.4762

          k =-0.0768 0.7654 0.0000 (  2692 PWs)   bands (ev):

   -15.3260 -13.4540 -10.5277  -2.6605  -2.0061  -1.7962   8.6257   9.4378

          k =-0.0768 0.7674 0.0000 (  2696 PWs)   bands (ev):

   -15.3356 -13.4447 -10.5265  -2.6868  -1.9801  -1.7968   8.6230   9.3982

          k =-0.0768 0.7694 0.0000 (  2696 PWs)   bands (ev):

   -15.3453 -13.4344 -10.5250  -2.7132  -1.9537  -1.7955   8.6201   9.3587

          k =-0.0768 0.7714 0.0000 (  2698 PWs)   bands (ev):

   -15.3559 -13.4237 -10.5240  -2.7400  -1.9273  -1.7942   8.6169   9.3188

          k =-0.0768 0.7734 0.0000 (  2700 PWs)   bands (ev):

   -15.3663 -13.4121 -10.5233  -2.7672  -1.9009  -1.7932   8.6133   9.2789

          k =-0.0768 0.7754 0.0000 (  2698 PWs)   bands (ev):

   -15.3778 -13.3995 -10.5211  -2.7945  -1.8737  -1.7910   8.6095   9.2387

          k =-0.0768 0.7774 0.0000 (  2696 PWs)   bands (ev):

   -15.3898 -13.3863 -10.5187  -2.8219  -1.8462  -1.7886   8.6054   9.1984

          k =-0.0768 0.7794 0.0000 (  2694 PWs)   bands (ev):

   -15.4026 -13.3724 -10.5162  -2.8493  -1.8175  -1.7865   8.6010   9.1578

          k =-0.0768 0.7814 0.0000 (  2691 PWs)   bands (ev):

   -15.4158 -13.3577 -10.5137  -2.8748  -1.7898  -1.7843   8.5965   9.1173

          k =-0.0768 0.7834 0.0000 (  2689 PWs)   bands (ev):

   -15.4297 -13.3425 -10.5110  -2.9024  -1.7821  -1.7612   8.5915   9.0766

          k =-0.0768 0.7854 0.0000 (  2687 PWs)   bands (ev):

   -15.4439 -13.3268 -10.5083  -2.9303  -1.7789  -1.7332   8.5861   9.0360

          k =-0.0748 0.7054 0.0000 (  2687 PWs)   bands (ev):

   -15.4439 -13.3291 -10.4969  -2.9315  -1.8001  -1.7301   8.5972   9.0318

          k =-0.0748 0.7074 0.0000 (  2689 PWs)   bands (ev):

   -15.4294 -13.3450 -10.4997  -2.9038  -1.8025  -1.7587   8.6028   9.0725

          k =-0.0748 0.7094 0.0000 (  2691 PWs)   bands (ev):

   -15.4157 -13.3602 -10.5022  -2.8760  -1.8055  -1.7867   8.6080   9.1131

          k =-0.0748 0.7114 0.0000 (  2695 PWs)   bands (ev):

   -15.4025 -13.3750 -10.5049  -2.8507  -1.8154  -1.8077   8.6127   9.1537

          k =-0.0748 0.7134 0.0000 (  2695 PWs)   bands (ev):

   -15.3895 -13.3889 -10.5072  -2.8232  -1.8430  -1.8095   8.6173   9.1943

          k =-0.0748 0.7154 0.0000 (  2696 PWs)   bands (ev):

   -15.3776 -13.4020 -10.5094  -2.7958  -1.8705  -1.8116   8.6215   9.2346

          k =-0.0748 0.7174 0.0000 (  2698 PWs)   bands (ev):

   -15.3667 -13.4147 -10.5116  -2.7688  -1.8977  -1.8134   8.6254   9.2747

          k =-0.0748 0.7194 0.0000 (  2698 PWs)   bands (ev):

   -15.3556 -13.4266 -10.5134  -2.7418  -1.9246  -1.8148   8.6291   9.3148

          k =-0.0748 0.7214 0.0000 (  2698 PWs)   bands (ev):

   -15.3452 -13.4374 -10.5146  -2.7151  -1.9511  -1.8167   8.6324   9.3546

          k =-0.0748 0.7234 0.0000 (  2696 PWs)   bands (ev):

   -15.3353 -13.4477 -10.5149  -2.6885  -1.9766  -1.8180   8.6356   9.3942

          k =-0.0748 0.7254 0.0000 (  2692 PWs)   bands (ev):

   -15.3259 -13.4566 -10.5159  -2.6623  -2.0020  -1.8181   8.6383   9.4335

          k =-0.0748 0.7274 0.0000 (  2690 PWs)   bands (ev):

   -15.3177 -13.4650 -10.5165  -2.6369  -2.0273  -1.8187   8.6408   9.4722

          k =-0.0748 0.7294 0.0000 (  2690 PWs)   bands (ev):

   -15.3103 -13.4729 -10.5177  -2.6124  -2.0518  -1.8196   8.6430   9.5100

          k =-0.0748 0.7314 0.0000 (  2690 PWs)   bands (ev):

   -15.3037 -13.4799 -10.5187  -2.5888  -2.0754  -1.8204   8.6449   9.5469

          k =-0.0748 0.7334 0.0000 (  2690 PWs)   bands (ev):

   -15.2979 -13.4860 -10.5196  -2.5665  -2.0978  -1.8212   8.6466   9.5824

          k =-0.0748 0.7354 0.0000 (  2690 PWs)   bands (ev):

   -15.2931 -13.4912 -10.5203  -2.5457  -2.1185  -1.8218   8.6480   9.6161

          k =-0.0748 0.7374 0.0000 (  2690 PWs)   bands (ev):

   -15.2890 -13.4955 -10.5209  -2.5271  -2.1371  -1.8223   8.6491   9.6471

          k =-0.0748 0.7394 0.0000 (  2688 PWs)   bands (ev):

   -15.2853 -13.4982 -10.5210  -2.5112  -2.1527  -1.8227   8.6500   9.6743

          k =-0.0748 0.7414 0.0000 (  2690 PWs)   bands (ev):

   -15.2832 -13.5007 -10.5215  -2.4990  -2.1649  -1.8236   8.6506   9.6959

          k =-0.0748 0.7434 0.0000 (  2690 PWs)   bands (ev):

   -15.2819 -13.5022 -10.5217  -2.4912  -2.1727  -1.8237   8.6510   9.7102

          k =-0.0748 0.7454 0.0000 (  2690 PWs)   bands (ev):

   -15.2813 -13.5025 -10.5216  -2.4887  -2.1755  -1.8242   8.6511   9.7151

          k =-0.0748 0.7474 0.0000 (  2690 PWs)   bands (ev):

   -15.2819 -13.5022 -10.5217  -2.4912  -2.1727  -1.8237   8.6510   9.7102

          k =-0.0748 0.7494 0.0000 (  2690 PWs)   bands (ev):

   -15.2832 -13.5007 -10.5215  -2.4990  -2.1649  -1.8236   8.6506   9.6959

          k =-0.0748 0.7514 0.0000 (  2688 PWs)   bands (ev):

   -15.2853 -13.4982 -10.5210  -2.5112  -2.1527  -1.8227   8.6500   9.6743

          k =-0.0748 0.7534 0.0000 (  2690 PWs)   bands (ev):

   -15.2890 -13.4955 -10.5209  -2.5272  -2.1371  -1.8223   8.6491   9.6470

          k =-0.0748 0.7554 0.0000 (  2690 PWs)   bands (ev):

   -15.2931 -13.4912 -10.5203  -2.5458  -2.1185  -1.8218   8.6480   9.6161

          k =-0.0748 0.7574 0.0000 (  2690 PWs)   bands (ev):

   -15.2980 -13.4860 -10.5196  -2.5665  -2.0978  -1.8212   8.6466   9.5824

          k =-0.0748 0.7594 0.0000 (  2690 PWs)   bands (ev):

   -15.3037 -13.4799 -10.5187  -2.5888  -2.0754  -1.8204   8.6449   9.5469

          k =-0.0748 0.7614 0.0000 (  2690 PWs)   bands (ev):

   -15.3103 -13.4729 -10.5177  -2.6124  -2.0518  -1.8196   8.6430   9.5100

          k =-0.0748 0.7634 0.0000 (  2690 PWs)   bands (ev):

   -15.3177 -13.4650 -10.5165  -2.6369  -2.0273  -1.8187   8.6408   9.4722

          k =-0.0748 0.7654 0.0000 (  2692 PWs)   bands (ev):

   -15.3259 -13.4566 -10.5158  -2.6623  -2.0020  -1.8181   8.6383   9.4335

          k =-0.0748 0.7674 0.0000 (  2696 PWs)   bands (ev):

   -15.3353 -13.4477 -10.5149  -2.6885  -1.9766  -1.8180   8.6356   9.3942

          k =-0.0748 0.7694 0.0000 (  2698 PWs)   bands (ev):

   -15.3452 -13.4374 -10.5146  -2.7151  -1.9510  -1.8167   8.6324   9.3546

          k =-0.0748 0.7714 0.0000 (  2698 PWs)   bands (ev):

   -15.3556 -13.4266 -10.5134  -2.7418  -1.9246  -1.8148   8.6291   9.3148

          k =-0.0748 0.7734 0.0000 (  2698 PWs)   bands (ev):

   -15.3667 -13.4147 -10.5116  -2.7688  -1.8977  -1.8134   8.6254   9.2747

          k =-0.0748 0.7754 0.0000 (  2696 PWs)   bands (ev):

   -15.3776 -13.4020 -10.5094  -2.7958  -1.8705  -1.8116   8.6215   9.2346

          k =-0.0748 0.7774 0.0000 (  2695 PWs)   bands (ev):

   -15.3895 -13.3889 -10.5072  -2.8232  -1.8430  -1.8095   8.6173   9.1942

          k =-0.0748 0.7794 0.0000 (  2695 PWs)   bands (ev):

   -15.4025 -13.3750 -10.5049  -2.8507  -1.8154  -1.8077   8.6127   9.1537

          k =-0.0748 0.7814 0.0000 (  2691 PWs)   bands (ev):

   -15.4157 -13.3602 -10.5022  -2.8761  -1.8055  -1.7867   8.6080   9.1131

          k =-0.0748 0.7834 0.0000 (  2689 PWs)   bands (ev):

   -15.4294 -13.3450 -10.4997  -2.9038  -1.8025  -1.7587   8.6028   9.0725

          k =-0.0748 0.7854 0.0000 (  2687 PWs)   bands (ev):

   -15.4439 -13.3291 -10.4969  -2.9315  -1.8001  -1.7301   8.5972   9.0317

     Writing all to output data dir ./tmp/graphene24.0zoom.save/ :
     XML data file, pseudopotentials, collected wavefunctions

     init_run     :      0.74s CPU      0.76s WALL (       1 calls)
     electrons    :     23.84s CPU     23.98s WALL (       1 calls)

     Called by init_run:
     wfcinit      :      0.00s CPU      0.01s WALL (       1 calls)
     wfcinit:atom :      0.04s CPU      0.04s WALL (     211 calls)
     wfcinit:wfcr :      1.43s CPU      1.43s WALL (     211 calls)
     potinit      :      0.00s CPU      0.01s WALL (       1 calls)
     hinit0       :      0.68s CPU      0.68s WALL (       1 calls)

     Called by electrons:
     c_bands      :     23.83s CPU     23.96s WALL (       1 calls)
     v_of_rho     :      0.00s CPU      0.00s WALL (       1 calls)
     v_h          :      0.00s CPU      0.00s WALL (       1 calls)
     v_xc         :      0.00s CPU      0.00s WALL (       1 calls)

     Called by c_bands:
     init_us_2    :      0.06s CPU      0.06s WALL (     211 calls)
     cegterg      :     20.24s CPU     20.34s WALL (     433 calls)

     Called by sum_band:

     Called by *egterg:
     cdiaghg      :      0.46s CPU      0.47s WALL (    6797 calls)
     cegterg:over :      0.90s CPU      0.90s WALL (    6586 calls)
     cegterg:upda :      0.80s CPU      0.81s WALL (    6586 calls)
     cegterg:last :      0.95s CPU      0.96s WALL (    3365 calls)
     h_psi        :     17.97s CPU     18.05s WALL (    7230 calls)
     g_psi        :      0.28s CPU      0.28s WALL (    6586 calls)

     Called by h_psi:
     h_psi:calbec :      0.75s CPU      0.75s WALL (    7230 calls)
     vloc_psi     :     16.40s CPU     16.47s WALL (    7230 calls)
     add_vuspsi   :      0.73s CPU      0.73s WALL (    7230 calls)

     General routines
     calbec       :      0.74s CPU      0.75s WALL (    7230 calls)
     fft          :      0.64s CPU      0.64s WALL (       4 calls)
     fftw         :     13.76s CPU     13.82s WALL (   59764 calls)
     davcio       :      0.03s CPU      0.04s WALL (     422 calls)

     Parallel routines

     PWSCF        :     27.73s CPU     33.83s WALL


   This run was terminated on:  23:47:54  18Apr2026            

=------------------------------------------------------------------------------=
   JOB DONE.
=------------------------------------------------------------------------------=
