
     Program PWSCF v.7.3.1 starts on 18Apr2026 at 23:58: 3 

     This program is part of the open-source Quantum ESPRESSO suite
     for quantum simulation of materials; please cite
         "P. Giannozzi et al., J. Phys.:Condens. Matter 21 395502 (2009);
         "P. Giannozzi et al., J. Phys.:Condens. Matter 29 465901 (2017);
         "P. Giannozzi et al., J. Chem. Phys. 152 154105 (2020);
          URL http://www.quantum-espresso.org", 
     in publications or presentations arising from this work. More details at
     http://www.quantum-espresso.org/quote

     Parallel version (MPI & OpenMP), running on       8 processor cores
     Number of MPI processes:                 8
     Threads/MPI process:                     1

     MPI processes distributed on     1 nodes
     25301 MiB available memory on the printing compute node when the environment starts

     Reading input from relax290.0.in

     Current dimensions of program PWSCF are:
     Max number of different atomic species (ntypx) = 10
     Max number of k-points (npk) =  40000
     Max angular momentum in pseudopotentials (lmaxx) =  4

     K-points division:     npool     =       8
     Subspace diagonalization in iterative solution of the eigenvalue problem:
     a serial algorithm will be used


     G-vector sticks info
     --------------------
     sticks:   dense  smooth     PW     G-vecs:    dense   smooth      PW
     Sum         481     481    217                36583    36583   11225

     Using Slab Decomposition



     bravais-lattice index     =            0
     lattice parameter (alat)  =      18.0411  a.u.
     unit-cell volume          =    1068.4278 (a.u.)^3
     number of atoms/cell      =            2
     number of atomic types    =            1
     number of electrons       =         8.00
     number of Kohn-Sham states=            8
     kinetic-energy cutoff     =      40.0000  Ry
     charge density cutoff     =     160.0000  Ry
     scf convergence threshold =      1.0E-08
     mixing beta               =       0.7000
     number of iterations used =            8  plain     mixing
     energy convergence thresh.=      1.0E-05
     force convergence thresh. =      1.0E-04
     Exchange-correlation= SLA  PW   NOGX NOGC
                           (   1   4   0   0   0   0   0)
     nstep                     =           50


     celldm(1)=  18.041102  celldm(2)=   0.000000  celldm(3)=   0.000000
     celldm(4)=   0.000000  celldm(5)=   0.000000  celldm(6)=   0.000000

     crystal axes: (cart. coord. in units of alat)
               a(1) = (   1.000000   0.000000   0.000000 )  
               a(2) = (   0.500000   0.115803   0.000000 )  
               a(3) = (   0.000000   0.000000   1.571215 )  

     reciprocal axes: (cart. coord. in units 2 pi/alat)
               b(1) = (  1.000000 -4.317673  0.000000 )  
               b(2) = (  0.000000  8.635346  0.000000 )  
               b(3) = (  0.000000  0.000000  0.636450 )  


     PseudoPot. # 1 for C  read from file:
     ./C.upf
     MD5 check sum: c9bd9c91d9c48f3c1b9c51e450525728
     Pseudo is Norm-conserving + core correction, Zval =  4.0
     Generated using ONCVPSP code by D. R. Hamann
     Using radial grid of 1234 points,  4 beta functions with: 
                l(1) =   0
                l(2) =   0
                l(3) =   1
                l(4) =   1

     atomic species   valence    mass     pseudopotential
     C                 4.00    12.01100     C ( 1.00)

     No symmetry found


                                    s                        frac. trans.

      isym =  1     identity                                     

 cryst.   s( 1) = (     1          0          0      )
                  (     0          1          0      )
                  (     0          0          1      )

 cart.    s( 1) = (  1.0000000  0.0000000  0.0000000 )
                  (  0.0000000  1.0000000  0.0000000 )
                  (  0.0000000  0.0000000  1.0000000 )


   Cartesian axes

     site n.     atom                  positions (alat units)
         1        C      tau(   1) = (   0.0000000   0.0001820   0.0000000  )
         2        C      tau(   2) = (   0.4999995   0.0384190   0.0000000  )

   Crystallographic axes

     site n.     atom                  positions (cryst. coord.)
         1        C      tau(   1) = ( -0.0007860  0.0015720  0.0000000  )
         2        C      tau(   2) = (  0.3341190  0.3317610  0.0000000  )

     number of k points=   576  Marzari-Vanderbilt smearing, width (Ry)=  0.0200
                       cart. coord. in units 2pi/alat
        k(    1) = (   0.0000000   0.0000000   0.0000000), wk =   0.0034722
        k(    2) = (   0.0000000   0.3598061   0.0000000), wk =   0.0034722
        k(    3) = (   0.0000000   0.7196121   0.0000000), wk =   0.0034722
        k(    4) = (   0.0000000   1.0794182   0.0000000), wk =   0.0034722
        k(    5) = (   0.0000000   1.4392243   0.0000000), wk =   0.0034722
        k(    6) = (   0.0000000   1.7990303   0.0000000), wk =   0.0034722
        k(    7) = (   0.0000000   2.1588364   0.0000000), wk =   0.0034722
        k(    8) = (   0.0000000   2.5186424   0.0000000), wk =   0.0034722
        k(    9) = (   0.0000000   2.8784485   0.0000000), wk =   0.0034722
        k(   10) = (   0.0000000   3.2382546   0.0000000), wk =   0.0034722
        k(   11) = (   0.0000000   3.5980606   0.0000000), wk =   0.0034722
        k(   12) = (   0.0000000   3.9578667   0.0000000), wk =   0.0034722
        k(   13) = (   0.0000000  -4.3176728   0.0000000), wk =   0.0034722
        k(   14) = (   0.0000000  -3.9578667   0.0000000), wk =   0.0034722
        k(   15) = (   0.0000000  -3.5980606   0.0000000), wk =   0.0034722
        k(   16) = (   0.0000000  -3.2382546   0.0000000), wk =   0.0034722
        k(   17) = (   0.0000000  -2.8784485   0.0000000), wk =   0.0034722
        k(   18) = (   0.0000000  -2.5186424   0.0000000), wk =   0.0034722
        k(   19) = (   0.0000000  -2.1588364   0.0000000), wk =   0.0034722
        k(   20) = (   0.0000000  -1.7990303   0.0000000), wk =   0.0034722
        k(   21) = (   0.0000000  -1.4392243   0.0000000), wk =   0.0034722
        k(   22) = (   0.0000000  -1.0794182   0.0000000), wk =   0.0034722
        k(   23) = (   0.0000000  -0.7196121   0.0000000), wk =   0.0034722
        k(   24) = (   0.0000000  -0.3598061   0.0000000), wk =   0.0034722
        k(   25) = (   0.0416667  -0.1799030   0.0000000), wk =   0.0034722
        k(   26) = (   0.0416667   0.1799030   0.0000000), wk =   0.0034722
        k(   27) = (   0.0416667   0.5397091   0.0000000), wk =   0.0034722
        k(   28) = (   0.0416667   0.8995152   0.0000000), wk =   0.0034722
        k(   29) = (   0.0416667   1.2593212   0.0000000), wk =   0.0034722
        k(   30) = (   0.0416667   1.6191273   0.0000000), wk =   0.0034722
        k(   31) = (   0.0416667   1.9789333   0.0000000), wk =   0.0034722
        k(   32) = (   0.0416667   2.3387394   0.0000000), wk =   0.0034722
        k(   33) = (   0.0416667   2.6985455   0.0000000), wk =   0.0034722
        k(   34) = (   0.0416667   3.0583515   0.0000000), wk =   0.0034722
        k(   35) = (   0.0416667   3.4181576   0.0000000), wk =   0.0034722
        k(   36) = (   0.0416667   3.7779637   0.0000000), wk =   0.0034722
        k(   37) = (   0.0416667  -4.4975758   0.0000000), wk =   0.0034722
        k(   38) = (   0.0416667  -4.1377697   0.0000000), wk =   0.0034722
        k(   39) = (   0.0416667  -3.7779637   0.0000000), wk =   0.0034722
        k(   40) = (   0.0416667  -3.4181576   0.0000000), wk =   0.0034722
        k(   41) = (   0.0416667  -3.0583515   0.0000000), wk =   0.0034722
        k(   42) = (   0.0416667  -2.6985455   0.0000000), wk =   0.0034722
        k(   43) = (   0.0416667  -2.3387394   0.0000000), wk =   0.0034722
        k(   44) = (   0.0416667  -1.9789333   0.0000000), wk =   0.0034722
        k(   45) = (   0.0416667  -1.6191273   0.0000000), wk =   0.0034722
        k(   46) = (   0.0416667  -1.2593212   0.0000000), wk =   0.0034722
        k(   47) = (   0.0416667  -0.8995152   0.0000000), wk =   0.0034722
        k(   48) = (   0.0416667  -0.5397091   0.0000000), wk =   0.0034722
        k(   49) = (   0.0833333  -0.3598061   0.0000000), wk =   0.0034722
        k(   50) = (   0.0833333   0.0000000   0.0000000), wk =   0.0034722
        k(   51) = (   0.0833333   0.3598061   0.0000000), wk =   0.0034722
        k(   52) = (   0.0833333   0.7196121   0.0000000), wk =   0.0034722
        k(   53) = (   0.0833333   1.0794182   0.0000000), wk =   0.0034722
        k(   54) = (   0.0833333   1.4392243   0.0000000), wk =   0.0034722
        k(   55) = (   0.0833333   1.7990303   0.0000000), wk =   0.0034722
        k(   56) = (   0.0833333   2.1588364   0.0000000), wk =   0.0034722
        k(   57) = (   0.0833333   2.5186424   0.0000000), wk =   0.0034722
        k(   58) = (   0.0833333   2.8784485   0.0000000), wk =   0.0034722
        k(   59) = (   0.0833333   3.2382546   0.0000000), wk =   0.0034722
        k(   60) = (   0.0833333   3.5980606   0.0000000), wk =   0.0034722
        k(   61) = (   0.0833333  -4.6774788   0.0000000), wk =   0.0034722
        k(   62) = (   0.0833333  -4.3176728   0.0000000), wk =   0.0034722
        k(   63) = (   0.0833333  -3.9578667   0.0000000), wk =   0.0034722
        k(   64) = (   0.0833333  -3.5980606   0.0000000), wk =   0.0034722
        k(   65) = (   0.0833333  -3.2382546   0.0000000), wk =   0.0034722
        k(   66) = (   0.0833333  -2.8784485   0.0000000), wk =   0.0034722
        k(   67) = (   0.0833333  -2.5186424   0.0000000), wk =   0.0034722
        k(   68) = (   0.0833333  -2.1588364   0.0000000), wk =   0.0034722
        k(   69) = (   0.0833333  -1.7990303   0.0000000), wk =   0.0034722
        k(   70) = (   0.0833333  -1.4392243   0.0000000), wk =   0.0034722
        k(   71) = (   0.0833333  -1.0794182   0.0000000), wk =   0.0034722
        k(   72) = (   0.0833333  -0.7196121   0.0000000), wk =   0.0034722
        k(   73) = (   0.1250000  -0.5397091   0.0000000), wk =   0.0034722
        k(   74) = (   0.1250000  -0.1799030   0.0000000), wk =   0.0034722
        k(   75) = (   0.1250000   0.1799030   0.0000000), wk =   0.0034722
        k(   76) = (   0.1250000   0.5397091   0.0000000), wk =   0.0034722
        k(   77) = (   0.1250000   0.8995152   0.0000000), wk =   0.0034722
        k(   78) = (   0.1250000   1.2593212   0.0000000), wk =   0.0034722
        k(   79) = (   0.1250000   1.6191273   0.0000000), wk =   0.0034722
        k(   80) = (   0.1250000   1.9789333   0.0000000), wk =   0.0034722
        k(   81) = (   0.1250000   2.3387394   0.0000000), wk =   0.0034722
        k(   82) = (   0.1250000   2.6985455   0.0000000), wk =   0.0034722
        k(   83) = (   0.1250000   3.0583515   0.0000000), wk =   0.0034722
        k(   84) = (   0.1250000   3.4181576   0.0000000), wk =   0.0034722
        k(   85) = (   0.1250000  -4.8573818   0.0000000), wk =   0.0034722
        k(   86) = (   0.1250000  -4.4975758   0.0000000), wk =   0.0034722
        k(   87) = (   0.1250000  -4.1377697   0.0000000), wk =   0.0034722
        k(   88) = (   0.1250000  -3.7779637   0.0000000), wk =   0.0034722
        k(   89) = (   0.1250000  -3.4181576   0.0000000), wk =   0.0034722
        k(   90) = (   0.1250000  -3.0583515   0.0000000), wk =   0.0034722
        k(   91) = (   0.1250000  -2.6985455   0.0000000), wk =   0.0034722
        k(   92) = (   0.1250000  -2.3387394   0.0000000), wk =   0.0034722
        k(   93) = (   0.1250000  -1.9789333   0.0000000), wk =   0.0034722
        k(   94) = (   0.1250000  -1.6191273   0.0000000), wk =   0.0034722
        k(   95) = (   0.1250000  -1.2593212   0.0000000), wk =   0.0034722
        k(   96) = (   0.1250000  -0.8995152   0.0000000), wk =   0.0034722
        k(   97) = (   0.1666667  -0.7196121   0.0000000), wk =   0.0034722
        k(   98) = (   0.1666667  -0.3598061   0.0000000), wk =   0.0034722
        k(   99) = (   0.1666667   0.0000000   0.0000000), wk =   0.0034722
        k(  100) = (   0.1666667   0.3598061   0.0000000), wk =   0.0034722
        k(  101) = (   0.1666667   0.7196121   0.0000000), wk =   0.0034722
        k(  102) = (   0.1666667   1.0794182   0.0000000), wk =   0.0034722
        k(  103) = (   0.1666667   1.4392243   0.0000000), wk =   0.0034722
        k(  104) = (   0.1666667   1.7990303   0.0000000), wk =   0.0034722
        k(  105) = (   0.1666667   2.1588364   0.0000000), wk =   0.0034722
        k(  106) = (   0.1666667   2.5186424   0.0000000), wk =   0.0034722
        k(  107) = (   0.1666667   2.8784485   0.0000000), wk =   0.0034722
        k(  108) = (   0.1666667   3.2382546   0.0000000), wk =   0.0034722
        k(  109) = (   0.1666667  -5.0372849   0.0000000), wk =   0.0034722
        k(  110) = (   0.1666667  -4.6774788   0.0000000), wk =   0.0034722
        k(  111) = (   0.1666667  -4.3176728   0.0000000), wk =   0.0034722
        k(  112) = (   0.1666667  -3.9578667   0.0000000), wk =   0.0034722
        k(  113) = (   0.1666667  -3.5980606   0.0000000), wk =   0.0034722
        k(  114) = (   0.1666667  -3.2382546   0.0000000), wk =   0.0034722
        k(  115) = (   0.1666667  -2.8784485   0.0000000), wk =   0.0034722
        k(  116) = (   0.1666667  -2.5186424   0.0000000), wk =   0.0034722
        k(  117) = (   0.1666667  -2.1588364   0.0000000), wk =   0.0034722
        k(  118) = (   0.1666667  -1.7990303   0.0000000), wk =   0.0034722
        k(  119) = (   0.1666667  -1.4392243   0.0000000), wk =   0.0034722
        k(  120) = (   0.1666667  -1.0794182   0.0000000), wk =   0.0034722
        k(  121) = (   0.2083333  -0.8995152   0.0000000), wk =   0.0034722
        k(  122) = (   0.2083333  -0.5397091   0.0000000), wk =   0.0034722
        k(  123) = (   0.2083333  -0.1799030   0.0000000), wk =   0.0034722
        k(  124) = (   0.2083333   0.1799030   0.0000000), wk =   0.0034722
        k(  125) = (   0.2083333   0.5397091   0.0000000), wk =   0.0034722
        k(  126) = (   0.2083333   0.8995152   0.0000000), wk =   0.0034722
        k(  127) = (   0.2083333   1.2593212   0.0000000), wk =   0.0034722
        k(  128) = (   0.2083333   1.6191273   0.0000000), wk =   0.0034722
        k(  129) = (   0.2083333   1.9789333   0.0000000), wk =   0.0034722
        k(  130) = (   0.2083333   2.3387394   0.0000000), wk =   0.0034722
        k(  131) = (   0.2083333   2.6985455   0.0000000), wk =   0.0034722
        k(  132) = (   0.2083333   3.0583515   0.0000000), wk =   0.0034722
        k(  133) = (   0.2083333  -5.2171879   0.0000000), wk =   0.0034722
        k(  134) = (   0.2083333  -4.8573818   0.0000000), wk =   0.0034722
        k(  135) = (   0.2083333  -4.4975758   0.0000000), wk =   0.0034722
        k(  136) = (   0.2083333  -4.1377697   0.0000000), wk =   0.0034722
        k(  137) = (   0.2083333  -3.7779637   0.0000000), wk =   0.0034722
        k(  138) = (   0.2083333  -3.4181576   0.0000000), wk =   0.0034722
        k(  139) = (   0.2083333  -3.0583515   0.0000000), wk =   0.0034722
        k(  140) = (   0.2083333  -2.6985455   0.0000000), wk =   0.0034722
        k(  141) = (   0.2083333  -2.3387394   0.0000000), wk =   0.0034722
        k(  142) = (   0.2083333  -1.9789333   0.0000000), wk =   0.0034722
        k(  143) = (   0.2083333  -1.6191273   0.0000000), wk =   0.0034722
        k(  144) = (   0.2083333  -1.2593212   0.0000000), wk =   0.0034722
        k(  145) = (   0.2500000  -1.0794182   0.0000000), wk =   0.0034722
        k(  146) = (   0.2500000  -0.7196121   0.0000000), wk =   0.0034722
        k(  147) = (   0.2500000  -0.3598061   0.0000000), wk =   0.0034722
        k(  148) = (   0.2500000   0.0000000   0.0000000), wk =   0.0034722
        k(  149) = (   0.2500000   0.3598061   0.0000000), wk =   0.0034722
        k(  150) = (   0.2500000   0.7196121   0.0000000), wk =   0.0034722
        k(  151) = (   0.2500000   1.0794182   0.0000000), wk =   0.0034722
        k(  152) = (   0.2500000   1.4392243   0.0000000), wk =   0.0034722
        k(  153) = (   0.2500000   1.7990303   0.0000000), wk =   0.0034722
        k(  154) = (   0.2500000   2.1588364   0.0000000), wk =   0.0034722
        k(  155) = (   0.2500000   2.5186424   0.0000000), wk =   0.0034722
        k(  156) = (   0.2500000   2.8784485   0.0000000), wk =   0.0034722
        k(  157) = (   0.2500000  -5.3970909   0.0000000), wk =   0.0034722
        k(  158) = (   0.2500000  -5.0372849   0.0000000), wk =   0.0034722
        k(  159) = (   0.2500000  -4.6774788   0.0000000), wk =   0.0034722
        k(  160) = (   0.2500000  -4.3176728   0.0000000), wk =   0.0034722
        k(  161) = (   0.2500000  -3.9578667   0.0000000), wk =   0.0034722
        k(  162) = (   0.2500000  -3.5980606   0.0000000), wk =   0.0034722
        k(  163) = (   0.2500000  -3.2382546   0.0000000), wk =   0.0034722
        k(  164) = (   0.2500000  -2.8784485   0.0000000), wk =   0.0034722
        k(  165) = (   0.2500000  -2.5186424   0.0000000), wk =   0.0034722
        k(  166) = (   0.2500000  -2.1588364   0.0000000), wk =   0.0034722
        k(  167) = (   0.2500000  -1.7990303   0.0000000), wk =   0.0034722
        k(  168) = (   0.2500000  -1.4392243   0.0000000), wk =   0.0034722
        k(  169) = (   0.2916667  -1.2593212   0.0000000), wk =   0.0034722
        k(  170) = (   0.2916667  -0.8995152   0.0000000), wk =   0.0034722
        k(  171) = (   0.2916667  -0.5397091   0.0000000), wk =   0.0034722
        k(  172) = (   0.2916667  -0.1799030   0.0000000), wk =   0.0034722
        k(  173) = (   0.2916667   0.1799030   0.0000000), wk =   0.0034722
        k(  174) = (   0.2916667   0.5397091   0.0000000), wk =   0.0034722
        k(  175) = (   0.2916667   0.8995152   0.0000000), wk =   0.0034722
        k(  176) = (   0.2916667   1.2593212   0.0000000), wk =   0.0034722
        k(  177) = (   0.2916667   1.6191273   0.0000000), wk =   0.0034722
        k(  178) = (   0.2916667   1.9789333   0.0000000), wk =   0.0034722
        k(  179) = (   0.2916667   2.3387394   0.0000000), wk =   0.0034722
        k(  180) = (   0.2916667   2.6985455   0.0000000), wk =   0.0034722
        k(  181) = (   0.2916667  -5.5769940   0.0000000), wk =   0.0034722
        k(  182) = (   0.2916667  -5.2171879   0.0000000), wk =   0.0034722
        k(  183) = (   0.2916667  -4.8573818   0.0000000), wk =   0.0034722
        k(  184) = (   0.2916667  -4.4975758   0.0000000), wk =   0.0034722
        k(  185) = (   0.2916667  -4.1377697   0.0000000), wk =   0.0034722
        k(  186) = (   0.2916667  -3.7779637   0.0000000), wk =   0.0034722
        k(  187) = (   0.2916667  -3.4181576   0.0000000), wk =   0.0034722
        k(  188) = (   0.2916667  -3.0583515   0.0000000), wk =   0.0034722
        k(  189) = (   0.2916667  -2.6985455   0.0000000), wk =   0.0034722
        k(  190) = (   0.2916667  -2.3387394   0.0000000), wk =   0.0034722
        k(  191) = (   0.2916667  -1.9789333   0.0000000), wk =   0.0034722
        k(  192) = (   0.2916667  -1.6191273   0.0000000), wk =   0.0034722
        k(  193) = (   0.3333333  -1.4392243   0.0000000), wk =   0.0034722
        k(  194) = (   0.3333333  -1.0794182   0.0000000), wk =   0.0034722
        k(  195) = (   0.3333333  -0.7196121   0.0000000), wk =   0.0034722
        k(  196) = (   0.3333333  -0.3598061   0.0000000), wk =   0.0034722
        k(  197) = (   0.3333333   0.0000000   0.0000000), wk =   0.0034722
        k(  198) = (   0.3333333   0.3598061   0.0000000), wk =   0.0034722
        k(  199) = (   0.3333333   0.7196121   0.0000000), wk =   0.0034722
        k(  200) = (   0.3333333   1.0794182   0.0000000), wk =   0.0034722
        k(  201) = (   0.3333333   1.4392243   0.0000000), wk =   0.0034722
        k(  202) = (   0.3333333   1.7990303   0.0000000), wk =   0.0034722
        k(  203) = (   0.3333333   2.1588364   0.0000000), wk =   0.0034722
        k(  204) = (   0.3333333   2.5186424   0.0000000), wk =   0.0034722
        k(  205) = (   0.3333333  -5.7568970   0.0000000), wk =   0.0034722
        k(  206) = (   0.3333333  -5.3970909   0.0000000), wk =   0.0034722
        k(  207) = (   0.3333333  -5.0372849   0.0000000), wk =   0.0034722
        k(  208) = (   0.3333333  -4.6774788   0.0000000), wk =   0.0034722
        k(  209) = (   0.3333333  -4.3176728   0.0000000), wk =   0.0034722
        k(  210) = (   0.3333333  -3.9578667   0.0000000), wk =   0.0034722
        k(  211) = (   0.3333333  -3.5980606   0.0000000), wk =   0.0034722
        k(  212) = (   0.3333333  -3.2382546   0.0000000), wk =   0.0034722
        k(  213) = (   0.3333333  -2.8784485   0.0000000), wk =   0.0034722
        k(  214) = (   0.3333333  -2.5186424   0.0000000), wk =   0.0034722
        k(  215) = (   0.3333333  -2.1588364   0.0000000), wk =   0.0034722
        k(  216) = (   0.3333333  -1.7990303   0.0000000), wk =   0.0034722
        k(  217) = (   0.3750000  -1.6191273   0.0000000), wk =   0.0034722
        k(  218) = (   0.3750000  -1.2593212   0.0000000), wk =   0.0034722
        k(  219) = (   0.3750000  -0.8995152   0.0000000), wk =   0.0034722
        k(  220) = (   0.3750000  -0.5397091   0.0000000), wk =   0.0034722
        k(  221) = (   0.3750000  -0.1799030   0.0000000), wk =   0.0034722
        k(  222) = (   0.3750000   0.1799030   0.0000000), wk =   0.0034722
        k(  223) = (   0.3750000   0.5397091   0.0000000), wk =   0.0034722
        k(  224) = (   0.3750000   0.8995152   0.0000000), wk =   0.0034722
        k(  225) = (   0.3750000   1.2593212   0.0000000), wk =   0.0034722
        k(  226) = (   0.3750000   1.6191273   0.0000000), wk =   0.0034722
        k(  227) = (   0.3750000   1.9789333   0.0000000), wk =   0.0034722
        k(  228) = (   0.3750000   2.3387394   0.0000000), wk =   0.0034722
        k(  229) = (   0.3750000  -5.9368000   0.0000000), wk =   0.0034722
        k(  230) = (   0.3750000  -5.5769940   0.0000000), wk =   0.0034722
        k(  231) = (   0.3750000  -5.2171879   0.0000000), wk =   0.0034722
        k(  232) = (   0.3750000  -4.8573818   0.0000000), wk =   0.0034722
        k(  233) = (   0.3750000  -4.4975758   0.0000000), wk =   0.0034722
        k(  234) = (   0.3750000  -4.1377697   0.0000000), wk =   0.0034722
        k(  235) = (   0.3750000  -3.7779637   0.0000000), wk =   0.0034722
        k(  236) = (   0.3750000  -3.4181576   0.0000000), wk =   0.0034722
        k(  237) = (   0.3750000  -3.0583515   0.0000000), wk =   0.0034722
        k(  238) = (   0.3750000  -2.6985455   0.0000000), wk =   0.0034722
        k(  239) = (   0.3750000  -2.3387394   0.0000000), wk =   0.0034722
        k(  240) = (   0.3750000  -1.9789333   0.0000000), wk =   0.0034722
        k(  241) = (   0.4166667  -1.7990303   0.0000000), wk =   0.0034722
        k(  242) = (   0.4166667  -1.4392243   0.0000000), wk =   0.0034722
        k(  243) = (   0.4166667  -1.0794182   0.0000000), wk =   0.0034722
        k(  244) = (   0.4166667  -0.7196121   0.0000000), wk =   0.0034722
        k(  245) = (   0.4166667  -0.3598061   0.0000000), wk =   0.0034722
        k(  246) = (   0.4166667  -0.0000000   0.0000000), wk =   0.0034722
        k(  247) = (   0.4166667   0.3598061   0.0000000), wk =   0.0034722
        k(  248) = (   0.4166667   0.7196121   0.0000000), wk =   0.0034722
        k(  249) = (   0.4166667   1.0794182   0.0000000), wk =   0.0034722
        k(  250) = (   0.4166667   1.4392243   0.0000000), wk =   0.0034722
        k(  251) = (   0.4166667   1.7990303   0.0000000), wk =   0.0034722
        k(  252) = (   0.4166667   2.1588364   0.0000000), wk =   0.0034722
        k(  253) = (   0.4166667  -6.1167031   0.0000000), wk =   0.0034722
        k(  254) = (   0.4166667  -5.7568970   0.0000000), wk =   0.0034722
        k(  255) = (   0.4166667  -5.3970909   0.0000000), wk =   0.0034722
        k(  256) = (   0.4166667  -5.0372849   0.0000000), wk =   0.0034722
        k(  257) = (   0.4166667  -4.6774788   0.0000000), wk =   0.0034722
        k(  258) = (   0.4166667  -4.3176728   0.0000000), wk =   0.0034722
        k(  259) = (   0.4166667  -3.9578667   0.0000000), wk =   0.0034722
        k(  260) = (   0.4166667  -3.5980606   0.0000000), wk =   0.0034722
        k(  261) = (   0.4166667  -3.2382546   0.0000000), wk =   0.0034722
        k(  262) = (   0.4166667  -2.8784485   0.0000000), wk =   0.0034722
        k(  263) = (   0.4166667  -2.5186424   0.0000000), wk =   0.0034722
        k(  264) = (   0.4166667  -2.1588364   0.0000000), wk =   0.0034722
        k(  265) = (   0.4583333  -1.9789333   0.0000000), wk =   0.0034722
        k(  266) = (   0.4583333  -1.6191273   0.0000000), wk =   0.0034722
        k(  267) = (   0.4583333  -1.2593212   0.0000000), wk =   0.0034722
        k(  268) = (   0.4583333  -0.8995152   0.0000000), wk =   0.0034722
        k(  269) = (   0.4583333  -0.5397091   0.0000000), wk =   0.0034722
        k(  270) = (   0.4583333  -0.1799030   0.0000000), wk =   0.0034722
        k(  271) = (   0.4583333   0.1799030   0.0000000), wk =   0.0034722
        k(  272) = (   0.4583333   0.5397091   0.0000000), wk =   0.0034722
        k(  273) = (   0.4583333   0.8995152   0.0000000), wk =   0.0034722
        k(  274) = (   0.4583333   1.2593212   0.0000000), wk =   0.0034722
        k(  275) = (   0.4583333   1.6191273   0.0000000), wk =   0.0034722
        k(  276) = (   0.4583333   1.9789333   0.0000000), wk =   0.0034722
        k(  277) = (   0.4583333  -6.2966061   0.0000000), wk =   0.0034722
        k(  278) = (   0.4583333  -5.9368000   0.0000000), wk =   0.0034722
        k(  279) = (   0.4583333  -5.5769940   0.0000000), wk =   0.0034722
        k(  280) = (   0.4583333  -5.2171879   0.0000000), wk =   0.0034722
        k(  281) = (   0.4583333  -4.8573818   0.0000000), wk =   0.0034722
        k(  282) = (   0.4583333  -4.4975758   0.0000000), wk =   0.0034722
        k(  283) = (   0.4583333  -4.1377697   0.0000000), wk =   0.0034722
        k(  284) = (   0.4583333  -3.7779637   0.0000000), wk =   0.0034722
        k(  285) = (   0.4583333  -3.4181576   0.0000000), wk =   0.0034722
        k(  286) = (   0.4583333  -3.0583515   0.0000000), wk =   0.0034722
        k(  287) = (   0.4583333  -2.6985455   0.0000000), wk =   0.0034722
        k(  288) = (   0.4583333  -2.3387394   0.0000000), wk =   0.0034722
        k(  289) = (  -0.5000000   2.1588364   0.0000000), wk =   0.0034722
        k(  290) = (  -0.5000000   2.5186424   0.0000000), wk =   0.0034722
        k(  291) = (  -0.5000000   2.8784485   0.0000000), wk =   0.0034722
        k(  292) = (  -0.5000000   3.2382546   0.0000000), wk =   0.0034722
        k(  293) = (  -0.5000000   3.5980606   0.0000000), wk =   0.0034722
        k(  294) = (  -0.5000000   3.9578667   0.0000000), wk =   0.0034722
        k(  295) = (  -0.5000000   4.3176728   0.0000000), wk =   0.0034722
        k(  296) = (  -0.5000000   4.6774788   0.0000000), wk =   0.0034722
        k(  297) = (  -0.5000000   5.0372849   0.0000000), wk =   0.0034722
        k(  298) = (  -0.5000000   5.3970909   0.0000000), wk =   0.0034722
        k(  299) = (  -0.5000000   5.7568970   0.0000000), wk =   0.0034722
        k(  300) = (  -0.5000000   6.1167031   0.0000000), wk =   0.0034722
        k(  301) = (  -0.5000000  -2.1588364   0.0000000), wk =   0.0034722
        k(  302) = (  -0.5000000  -1.7990303   0.0000000), wk =   0.0034722
        k(  303) = (  -0.5000000  -1.4392243   0.0000000), wk =   0.0034722
        k(  304) = (  -0.5000000  -1.0794182   0.0000000), wk =   0.0034722
        k(  305) = (  -0.5000000  -0.7196121   0.0000000), wk =   0.0034722
        k(  306) = (  -0.5000000  -0.3598061   0.0000000), wk =   0.0034722
        k(  307) = (  -0.5000000   0.0000000   0.0000000), wk =   0.0034722
        k(  308) = (  -0.5000000   0.3598061   0.0000000), wk =   0.0034722
        k(  309) = (  -0.5000000   0.7196121   0.0000000), wk =   0.0034722
        k(  310) = (  -0.5000000   1.0794182   0.0000000), wk =   0.0034722
        k(  311) = (  -0.5000000   1.4392243   0.0000000), wk =   0.0034722
        k(  312) = (  -0.5000000   1.7990303   0.0000000), wk =   0.0034722
        k(  313) = (  -0.4583333   1.9789333   0.0000000), wk =   0.0034722
        k(  314) = (  -0.4583333   2.3387394   0.0000000), wk =   0.0034722
        k(  315) = (  -0.4583333   2.6985455   0.0000000), wk =   0.0034722
        k(  316) = (  -0.4583333   3.0583515   0.0000000), wk =   0.0034722
        k(  317) = (  -0.4583333   3.4181576   0.0000000), wk =   0.0034722
        k(  318) = (  -0.4583333   3.7779637   0.0000000), wk =   0.0034722
        k(  319) = (  -0.4583333   4.1377697   0.0000000), wk =   0.0034722
        k(  320) = (  -0.4583333   4.4975758   0.0000000), wk =   0.0034722
        k(  321) = (  -0.4583333   4.8573818   0.0000000), wk =   0.0034722
        k(  322) = (  -0.4583333   5.2171879   0.0000000), wk =   0.0034722
        k(  323) = (  -0.4583333   5.5769940   0.0000000), wk =   0.0034722
        k(  324) = (  -0.4583333   5.9368000   0.0000000), wk =   0.0034722
        k(  325) = (  -0.4583333  -2.3387394   0.0000000), wk =   0.0034722
        k(  326) = (  -0.4583333  -1.9789333   0.0000000), wk =   0.0034722
        k(  327) = (  -0.4583333  -1.6191273   0.0000000), wk =   0.0034722
        k(  328) = (  -0.4583333  -1.2593212   0.0000000), wk =   0.0034722
        k(  329) = (  -0.4583333  -0.8995152   0.0000000), wk =   0.0034722
        k(  330) = (  -0.4583333  -0.5397091   0.0000000), wk =   0.0034722
        k(  331) = (  -0.4583333  -0.1799030   0.0000000), wk =   0.0034722
        k(  332) = (  -0.4583333   0.1799030   0.0000000), wk =   0.0034722
        k(  333) = (  -0.4583333   0.5397091   0.0000000), wk =   0.0034722
        k(  334) = (  -0.4583333   0.8995152   0.0000000), wk =   0.0034722
        k(  335) = (  -0.4583333   1.2593212   0.0000000), wk =   0.0034722
        k(  336) = (  -0.4583333   1.6191273   0.0000000), wk =   0.0034722
        k(  337) = (  -0.4166667   1.7990303   0.0000000), wk =   0.0034722
        k(  338) = (  -0.4166667   2.1588364   0.0000000), wk =   0.0034722
        k(  339) = (  -0.4166667   2.5186424   0.0000000), wk =   0.0034722
        k(  340) = (  -0.4166667   2.8784485   0.0000000), wk =   0.0034722
        k(  341) = (  -0.4166667   3.2382546   0.0000000), wk =   0.0034722
        k(  342) = (  -0.4166667   3.5980606   0.0000000), wk =   0.0034722
        k(  343) = (  -0.4166667   3.9578667   0.0000000), wk =   0.0034722
        k(  344) = (  -0.4166667   4.3176728   0.0000000), wk =   0.0034722
        k(  345) = (  -0.4166667   4.6774788   0.0000000), wk =   0.0034722
        k(  346) = (  -0.4166667   5.0372849   0.0000000), wk =   0.0034722
        k(  347) = (  -0.4166667   5.3970909   0.0000000), wk =   0.0034722
        k(  348) = (  -0.4166667   5.7568970   0.0000000), wk =   0.0034722
        k(  349) = (  -0.4166667  -2.5186424   0.0000000), wk =   0.0034722
        k(  350) = (  -0.4166667  -2.1588364   0.0000000), wk =   0.0034722
        k(  351) = (  -0.4166667  -1.7990303   0.0000000), wk =   0.0034722
        k(  352) = (  -0.4166667  -1.4392243   0.0000000), wk =   0.0034722
        k(  353) = (  -0.4166667  -1.0794182   0.0000000), wk =   0.0034722
        k(  354) = (  -0.4166667  -0.7196121   0.0000000), wk =   0.0034722
        k(  355) = (  -0.4166667  -0.3598061   0.0000000), wk =   0.0034722
        k(  356) = (  -0.4166667  -0.0000000   0.0000000), wk =   0.0034722
        k(  357) = (  -0.4166667   0.3598061   0.0000000), wk =   0.0034722
        k(  358) = (  -0.4166667   0.7196121   0.0000000), wk =   0.0034722
        k(  359) = (  -0.4166667   1.0794182   0.0000000), wk =   0.0034722
        k(  360) = (  -0.4166667   1.4392243   0.0000000), wk =   0.0034722
        k(  361) = (  -0.3750000   1.6191273   0.0000000), wk =   0.0034722
        k(  362) = (  -0.3750000   1.9789333   0.0000000), wk =   0.0034722
        k(  363) = (  -0.3750000   2.3387394   0.0000000), wk =   0.0034722
        k(  364) = (  -0.3750000   2.6985455   0.0000000), wk =   0.0034722
        k(  365) = (  -0.3750000   3.0583515   0.0000000), wk =   0.0034722
        k(  366) = (  -0.3750000   3.4181576   0.0000000), wk =   0.0034722
        k(  367) = (  -0.3750000   3.7779637   0.0000000), wk =   0.0034722
        k(  368) = (  -0.3750000   4.1377697   0.0000000), wk =   0.0034722
        k(  369) = (  -0.3750000   4.4975758   0.0000000), wk =   0.0034722
        k(  370) = (  -0.3750000   4.8573818   0.0000000), wk =   0.0034722
        k(  371) = (  -0.3750000   5.2171879   0.0000000), wk =   0.0034722
        k(  372) = (  -0.3750000   5.5769940   0.0000000), wk =   0.0034722
        k(  373) = (  -0.3750000  -2.6985455   0.0000000), wk =   0.0034722
        k(  374) = (  -0.3750000  -2.3387394   0.0000000), wk =   0.0034722
        k(  375) = (  -0.3750000  -1.9789333   0.0000000), wk =   0.0034722
        k(  376) = (  -0.3750000  -1.6191273   0.0000000), wk =   0.0034722
        k(  377) = (  -0.3750000  -1.2593212   0.0000000), wk =   0.0034722
        k(  378) = (  -0.3750000  -0.8995152   0.0000000), wk =   0.0034722
        k(  379) = (  -0.3750000  -0.5397091   0.0000000), wk =   0.0034722
        k(  380) = (  -0.3750000  -0.1799030   0.0000000), wk =   0.0034722
        k(  381) = (  -0.3750000   0.1799030   0.0000000), wk =   0.0034722
        k(  382) = (  -0.3750000   0.5397091   0.0000000), wk =   0.0034722
        k(  383) = (  -0.3750000   0.8995152   0.0000000), wk =   0.0034722
        k(  384) = (  -0.3750000   1.2593212   0.0000000), wk =   0.0034722
        k(  385) = (  -0.3333333   1.4392243   0.0000000), wk =   0.0034722
        k(  386) = (  -0.3333333   1.7990303   0.0000000), wk =   0.0034722
        k(  387) = (  -0.3333333   2.1588364   0.0000000), wk =   0.0034722
        k(  388) = (  -0.3333333   2.5186424   0.0000000), wk =   0.0034722
        k(  389) = (  -0.3333333   2.8784485   0.0000000), wk =   0.0034722
        k(  390) = (  -0.3333333   3.2382546   0.0000000), wk =   0.0034722
        k(  391) = (  -0.3333333   3.5980606   0.0000000), wk =   0.0034722
        k(  392) = (  -0.3333333   3.9578667   0.0000000), wk =   0.0034722
        k(  393) = (  -0.3333333   4.3176728   0.0000000), wk =   0.0034722
        k(  394) = (  -0.3333333   4.6774788   0.0000000), wk =   0.0034722
        k(  395) = (  -0.3333333   5.0372849   0.0000000), wk =   0.0034722
        k(  396) = (  -0.3333333   5.3970909   0.0000000), wk =   0.0034722
        k(  397) = (  -0.3333333  -2.8784485   0.0000000), wk =   0.0034722
        k(  398) = (  -0.3333333  -2.5186424   0.0000000), wk =   0.0034722
        k(  399) = (  -0.3333333  -2.1588364   0.0000000), wk =   0.0034722
        k(  400) = (  -0.3333333  -1.7990303   0.0000000), wk =   0.0034722
        k(  401) = (  -0.3333333  -1.4392243   0.0000000), wk =   0.0034722
        k(  402) = (  -0.3333333  -1.0794182   0.0000000), wk =   0.0034722
        k(  403) = (  -0.3333333  -0.7196121   0.0000000), wk =   0.0034722
        k(  404) = (  -0.3333333  -0.3598061   0.0000000), wk =   0.0034722
        k(  405) = (  -0.3333333   0.0000000   0.0000000), wk =   0.0034722
        k(  406) = (  -0.3333333   0.3598061   0.0000000), wk =   0.0034722
        k(  407) = (  -0.3333333   0.7196121   0.0000000), wk =   0.0034722
        k(  408) = (  -0.3333333   1.0794182   0.0000000), wk =   0.0034722
        k(  409) = (  -0.2916667   1.2593212   0.0000000), wk =   0.0034722
        k(  410) = (  -0.2916667   1.6191273   0.0000000), wk =   0.0034722
        k(  411) = (  -0.2916667   1.9789333   0.0000000), wk =   0.0034722
        k(  412) = (  -0.2916667   2.3387394   0.0000000), wk =   0.0034722
        k(  413) = (  -0.2916667   2.6985455   0.0000000), wk =   0.0034722
        k(  414) = (  -0.2916667   3.0583515   0.0000000), wk =   0.0034722
        k(  415) = (  -0.2916667   3.4181576   0.0000000), wk =   0.0034722
        k(  416) = (  -0.2916667   3.7779637   0.0000000), wk =   0.0034722
        k(  417) = (  -0.2916667   4.1377697   0.0000000), wk =   0.0034722
        k(  418) = (  -0.2916667   4.4975758   0.0000000), wk =   0.0034722
        k(  419) = (  -0.2916667   4.8573818   0.0000000), wk =   0.0034722
        k(  420) = (  -0.2916667   5.2171879   0.0000000), wk =   0.0034722
        k(  421) = (  -0.2916667  -3.0583515   0.0000000), wk =   0.0034722
        k(  422) = (  -0.2916667  -2.6985455   0.0000000), wk =   0.0034722
        k(  423) = (  -0.2916667  -2.3387394   0.0000000), wk =   0.0034722
        k(  424) = (  -0.2916667  -1.9789333   0.0000000), wk =   0.0034722
        k(  425) = (  -0.2916667  -1.6191273   0.0000000), wk =   0.0034722
        k(  426) = (  -0.2916667  -1.2593212   0.0000000), wk =   0.0034722
        k(  427) = (  -0.2916667  -0.8995152   0.0000000), wk =   0.0034722
        k(  428) = (  -0.2916667  -0.5397091   0.0000000), wk =   0.0034722
        k(  429) = (  -0.2916667  -0.1799030   0.0000000), wk =   0.0034722
        k(  430) = (  -0.2916667   0.1799030   0.0000000), wk =   0.0034722
        k(  431) = (  -0.2916667   0.5397091   0.0000000), wk =   0.0034722
        k(  432) = (  -0.2916667   0.8995152   0.0000000), wk =   0.0034722
        k(  433) = (  -0.2500000   1.0794182   0.0000000), wk =   0.0034722
        k(  434) = (  -0.2500000   1.4392243   0.0000000), wk =   0.0034722
        k(  435) = (  -0.2500000   1.7990303   0.0000000), wk =   0.0034722
        k(  436) = (  -0.2500000   2.1588364   0.0000000), wk =   0.0034722
        k(  437) = (  -0.2500000   2.5186424   0.0000000), wk =   0.0034722
        k(  438) = (  -0.2500000   2.8784485   0.0000000), wk =   0.0034722
        k(  439) = (  -0.2500000   3.2382546   0.0000000), wk =   0.0034722
        k(  440) = (  -0.2500000   3.5980606   0.0000000), wk =   0.0034722
        k(  441) = (  -0.2500000   3.9578667   0.0000000), wk =   0.0034722
        k(  442) = (  -0.2500000   4.3176728   0.0000000), wk =   0.0034722
        k(  443) = (  -0.2500000   4.6774788   0.0000000), wk =   0.0034722
        k(  444) = (  -0.2500000   5.0372849   0.0000000), wk =   0.0034722
        k(  445) = (  -0.2500000  -3.2382546   0.0000000), wk =   0.0034722
        k(  446) = (  -0.2500000  -2.8784485   0.0000000), wk =   0.0034722
        k(  447) = (  -0.2500000  -2.5186424   0.0000000), wk =   0.0034722
        k(  448) = (  -0.2500000  -2.1588364   0.0000000), wk =   0.0034722
        k(  449) = (  -0.2500000  -1.7990303   0.0000000), wk =   0.0034722
        k(  450) = (  -0.2500000  -1.4392243   0.0000000), wk =   0.0034722
        k(  451) = (  -0.2500000  -1.0794182   0.0000000), wk =   0.0034722
        k(  452) = (  -0.2500000  -0.7196121   0.0000000), wk =   0.0034722
        k(  453) = (  -0.2500000  -0.3598061   0.0000000), wk =   0.0034722
        k(  454) = (  -0.2500000   0.0000000   0.0000000), wk =   0.0034722
        k(  455) = (  -0.2500000   0.3598061   0.0000000), wk =   0.0034722
        k(  456) = (  -0.2500000   0.7196121   0.0000000), wk =   0.0034722
        k(  457) = (  -0.2083333   0.8995152   0.0000000), wk =   0.0034722
        k(  458) = (  -0.2083333   1.2593212   0.0000000), wk =   0.0034722
        k(  459) = (  -0.2083333   1.6191273   0.0000000), wk =   0.0034722
        k(  460) = (  -0.2083333   1.9789333   0.0000000), wk =   0.0034722
        k(  461) = (  -0.2083333   2.3387394   0.0000000), wk =   0.0034722
        k(  462) = (  -0.2083333   2.6985455   0.0000000), wk =   0.0034722
        k(  463) = (  -0.2083333   3.0583515   0.0000000), wk =   0.0034722
        k(  464) = (  -0.2083333   3.4181576   0.0000000), wk =   0.0034722
        k(  465) = (  -0.2083333   3.7779637   0.0000000), wk =   0.0034722
        k(  466) = (  -0.2083333   4.1377697   0.0000000), wk =   0.0034722
        k(  467) = (  -0.2083333   4.4975758   0.0000000), wk =   0.0034722
        k(  468) = (  -0.2083333   4.8573818   0.0000000), wk =   0.0034722
        k(  469) = (  -0.2083333  -3.4181576   0.0000000), wk =   0.0034722
        k(  470) = (  -0.2083333  -3.0583515   0.0000000), wk =   0.0034722
        k(  471) = (  -0.2083333  -2.6985455   0.0000000), wk =   0.0034722
        k(  472) = (  -0.2083333  -2.3387394   0.0000000), wk =   0.0034722
        k(  473) = (  -0.2083333  -1.9789333   0.0000000), wk =   0.0034722
        k(  474) = (  -0.2083333  -1.6191273   0.0000000), wk =   0.0034722
        k(  475) = (  -0.2083333  -1.2593212   0.0000000), wk =   0.0034722
        k(  476) = (  -0.2083333  -0.8995152   0.0000000), wk =   0.0034722
        k(  477) = (  -0.2083333  -0.5397091   0.0000000), wk =   0.0034722
        k(  478) = (  -0.2083333  -0.1799030   0.0000000), wk =   0.0034722
        k(  479) = (  -0.2083333   0.1799030   0.0000000), wk =   0.0034722
        k(  480) = (  -0.2083333   0.5397091   0.0000000), wk =   0.0034722
        k(  481) = (  -0.1666667   0.7196121   0.0000000), wk =   0.0034722
        k(  482) = (  -0.1666667   1.0794182   0.0000000), wk =   0.0034722
        k(  483) = (  -0.1666667   1.4392243   0.0000000), wk =   0.0034722
        k(  484) = (  -0.1666667   1.7990303   0.0000000), wk =   0.0034722
        k(  485) = (  -0.1666667   2.1588364   0.0000000), wk =   0.0034722
        k(  486) = (  -0.1666667   2.5186424   0.0000000), wk =   0.0034722
        k(  487) = (  -0.1666667   2.8784485   0.0000000), wk =   0.0034722
        k(  488) = (  -0.1666667   3.2382546   0.0000000), wk =   0.0034722
        k(  489) = (  -0.1666667   3.5980606   0.0000000), wk =   0.0034722
        k(  490) = (  -0.1666667   3.9578667   0.0000000), wk =   0.0034722
        k(  491) = (  -0.1666667   4.3176728   0.0000000), wk =   0.0034722
        k(  492) = (  -0.1666667   4.6774788   0.0000000), wk =   0.0034722
        k(  493) = (  -0.1666667  -3.5980606   0.0000000), wk =   0.0034722
        k(  494) = (  -0.1666667  -3.2382546   0.0000000), wk =   0.0034722
        k(  495) = (  -0.1666667  -2.8784485   0.0000000), wk =   0.0034722
        k(  496) = (  -0.1666667  -2.5186424   0.0000000), wk =   0.0034722
        k(  497) = (  -0.1666667  -2.1588364   0.0000000), wk =   0.0034722
        k(  498) = (  -0.1666667  -1.7990303   0.0000000), wk =   0.0034722
        k(  499) = (  -0.1666667  -1.4392243   0.0000000), wk =   0.0034722
        k(  500) = (  -0.1666667  -1.0794182   0.0000000), wk =   0.0034722
        k(  501) = (  -0.1666667  -0.7196121   0.0000000), wk =   0.0034722
        k(  502) = (  -0.1666667  -0.3598061   0.0000000), wk =   0.0034722
        k(  503) = (  -0.1666667  -0.0000000   0.0000000), wk =   0.0034722
        k(  504) = (  -0.1666667   0.3598061   0.0000000), wk =   0.0034722
        k(  505) = (  -0.1250000   0.5397091   0.0000000), wk =   0.0034722
        k(  506) = (  -0.1250000   0.8995152   0.0000000), wk =   0.0034722
        k(  507) = (  -0.1250000   1.2593212   0.0000000), wk =   0.0034722
        k(  508) = (  -0.1250000   1.6191273   0.0000000), wk =   0.0034722
        k(  509) = (  -0.1250000   1.9789333   0.0000000), wk =   0.0034722
        k(  510) = (  -0.1250000   2.3387394   0.0000000), wk =   0.0034722
        k(  511) = (  -0.1250000   2.6985455   0.0000000), wk =   0.0034722
        k(  512) = (  -0.1250000   3.0583515   0.0000000), wk =   0.0034722
        k(  513) = (  -0.1250000   3.4181576   0.0000000), wk =   0.0034722
        k(  514) = (  -0.1250000   3.7779637   0.0000000), wk =   0.0034722
        k(  515) = (  -0.1250000   4.1377697   0.0000000), wk =   0.0034722
        k(  516) = (  -0.1250000   4.4975758   0.0000000), wk =   0.0034722
        k(  517) = (  -0.1250000  -3.7779637   0.0000000), wk =   0.0034722
        k(  518) = (  -0.1250000  -3.4181576   0.0000000), wk =   0.0034722
        k(  519) = (  -0.1250000  -3.0583515   0.0000000), wk =   0.0034722
        k(  520) = (  -0.1250000  -2.6985455   0.0000000), wk =   0.0034722
        k(  521) = (  -0.1250000  -2.3387394   0.0000000), wk =   0.0034722
        k(  522) = (  -0.1250000  -1.9789333   0.0000000), wk =   0.0034722
        k(  523) = (  -0.1250000  -1.6191273   0.0000000), wk =   0.0034722
        k(  524) = (  -0.1250000  -1.2593212   0.0000000), wk =   0.0034722
        k(  525) = (  -0.1250000  -0.8995152   0.0000000), wk =   0.0034722
        k(  526) = (  -0.1250000  -0.5397091   0.0000000), wk =   0.0034722
        k(  527) = (  -0.1250000  -0.1799030   0.0000000), wk =   0.0034722
        k(  528) = (  -0.1250000   0.1799030   0.0000000), wk =   0.0034722
        k(  529) = (  -0.0833333   0.3598061   0.0000000), wk =   0.0034722
        k(  530) = (  -0.0833333   0.7196121   0.0000000), wk =   0.0034722
        k(  531) = (  -0.0833333   1.0794182   0.0000000), wk =   0.0034722
        k(  532) = (  -0.0833333   1.4392243   0.0000000), wk =   0.0034722
        k(  533) = (  -0.0833333   1.7990303   0.0000000), wk =   0.0034722
        k(  534) = (  -0.0833333   2.1588364   0.0000000), wk =   0.0034722
        k(  535) = (  -0.0833333   2.5186424   0.0000000), wk =   0.0034722
        k(  536) = (  -0.0833333   2.8784485   0.0000000), wk =   0.0034722
        k(  537) = (  -0.0833333   3.2382546   0.0000000), wk =   0.0034722
        k(  538) = (  -0.0833333   3.5980606   0.0000000), wk =   0.0034722
        k(  539) = (  -0.0833333   3.9578667   0.0000000), wk =   0.0034722
        k(  540) = (  -0.0833333   4.3176728   0.0000000), wk =   0.0034722
        k(  541) = (  -0.0833333  -3.9578667   0.0000000), wk =   0.0034722
        k(  542) = (  -0.0833333  -3.5980606   0.0000000), wk =   0.0034722
        k(  543) = (  -0.0833333  -3.2382546   0.0000000), wk =   0.0034722
        k(  544) = (  -0.0833333  -2.8784485   0.0000000), wk =   0.0034722
        k(  545) = (  -0.0833333  -2.5186424   0.0000000), wk =   0.0034722
        k(  546) = (  -0.0833333  -2.1588364   0.0000000), wk =   0.0034722
        k(  547) = (  -0.0833333  -1.7990303   0.0000000), wk =   0.0034722
        k(  548) = (  -0.0833333  -1.4392243   0.0000000), wk =   0.0034722
        k(  549) = (  -0.0833333  -1.0794182   0.0000000), wk =   0.0034722
        k(  550) = (  -0.0833333  -0.7196121   0.0000000), wk =   0.0034722
        k(  551) = (  -0.0833333  -0.3598061   0.0000000), wk =   0.0034722
        k(  552) = (  -0.0833333   0.0000000   0.0000000), wk =   0.0034722
        k(  553) = (  -0.0416667   0.1799030   0.0000000), wk =   0.0034722
        k(  554) = (  -0.0416667   0.5397091   0.0000000), wk =   0.0034722
        k(  555) = (  -0.0416667   0.8995152   0.0000000), wk =   0.0034722
        k(  556) = (  -0.0416667   1.2593212   0.0000000), wk =   0.0034722
        k(  557) = (  -0.0416667   1.6191273   0.0000000), wk =   0.0034722
        k(  558) = (  -0.0416667   1.9789333   0.0000000), wk =   0.0034722
        k(  559) = (  -0.0416667   2.3387394   0.0000000), wk =   0.0034722
        k(  560) = (  -0.0416667   2.6985455   0.0000000), wk =   0.0034722
        k(  561) = (  -0.0416667   3.0583515   0.0000000), wk =   0.0034722
        k(  562) = (  -0.0416667   3.4181576   0.0000000), wk =   0.0034722
        k(  563) = (  -0.0416667   3.7779637   0.0000000), wk =   0.0034722
        k(  564) = (  -0.0416667   4.1377697   0.0000000), wk =   0.0034722
        k(  565) = (  -0.0416667  -4.1377697   0.0000000), wk =   0.0034722
        k(  566) = (  -0.0416667  -3.7779637   0.0000000), wk =   0.0034722
        k(  567) = (  -0.0416667  -3.4181576   0.0000000), wk =   0.0034722
        k(  568) = (  -0.0416667  -3.0583515   0.0000000), wk =   0.0034722
        k(  569) = (  -0.0416667  -2.6985455   0.0000000), wk =   0.0034722
        k(  570) = (  -0.0416667  -2.3387394   0.0000000), wk =   0.0034722
        k(  571) = (  -0.0416667  -1.9789333   0.0000000), wk =   0.0034722
        k(  572) = (  -0.0416667  -1.6191273   0.0000000), wk =   0.0034722
        k(  573) = (  -0.0416667  -1.2593212   0.0000000), wk =   0.0034722
        k(  574) = (  -0.0416667  -0.8995152   0.0000000), wk =   0.0034722
        k(  575) = (  -0.0416667  -0.5397091   0.0000000), wk =   0.0034722
        k(  576) = (  -0.0416667  -0.1799030   0.0000000), wk =   0.0034722

                       cryst. coord.
        k(    1) = (   0.0000000   0.0000000   0.0000000), wk =   0.0034722
        k(    2) = (   0.0000000   0.0416667   0.0000000), wk =   0.0034722
        k(    3) = (   0.0000000   0.0833333   0.0000000), wk =   0.0034722
        k(    4) = (   0.0000000   0.1250000   0.0000000), wk =   0.0034722
        k(    5) = (   0.0000000   0.1666667   0.0000000), wk =   0.0034722
        k(    6) = (   0.0000000   0.2083333   0.0000000), wk =   0.0034722
        k(    7) = (   0.0000000   0.2500000   0.0000000), wk =   0.0034722
        k(    8) = (   0.0000000   0.2916667   0.0000000), wk =   0.0034722
        k(    9) = (   0.0000000   0.3333333   0.0000000), wk =   0.0034722
        k(   10) = (   0.0000000   0.3750000   0.0000000), wk =   0.0034722
        k(   11) = (   0.0000000   0.4166667   0.0000000), wk =   0.0034722
        k(   12) = (   0.0000000   0.4583333   0.0000000), wk =   0.0034722
        k(   13) = (   0.0000000  -0.5000000   0.0000000), wk =   0.0034722
        k(   14) = (   0.0000000  -0.4583333   0.0000000), wk =   0.0034722
        k(   15) = (   0.0000000  -0.4166667   0.0000000), wk =   0.0034722
        k(   16) = (   0.0000000  -0.3750000   0.0000000), wk =   0.0034722
        k(   17) = (   0.0000000  -0.3333333   0.0000000), wk =   0.0034722
        k(   18) = (   0.0000000  -0.2916667   0.0000000), wk =   0.0034722
        k(   19) = (   0.0000000  -0.2500000   0.0000000), wk =   0.0034722
        k(   20) = (   0.0000000  -0.2083333   0.0000000), wk =   0.0034722
        k(   21) = (   0.0000000  -0.1666667   0.0000000), wk =   0.0034722
        k(   22) = (   0.0000000  -0.1250000   0.0000000), wk =   0.0034722
        k(   23) = (   0.0000000  -0.0833333   0.0000000), wk =   0.0034722
        k(   24) = (   0.0000000  -0.0416667   0.0000000), wk =   0.0034722
        k(   25) = (   0.0416667   0.0000000   0.0000000), wk =   0.0034722
        k(   26) = (   0.0416667   0.0416667   0.0000000), wk =   0.0034722
        k(   27) = (   0.0416667   0.0833333   0.0000000), wk =   0.0034722
        k(   28) = (   0.0416667   0.1250000   0.0000000), wk =   0.0034722
        k(   29) = (   0.0416667   0.1666667   0.0000000), wk =   0.0034722
        k(   30) = (   0.0416667   0.2083333   0.0000000), wk =   0.0034722
        k(   31) = (   0.0416667   0.2500000   0.0000000), wk =   0.0034722
        k(   32) = (   0.0416667   0.2916667   0.0000000), wk =   0.0034722
        k(   33) = (   0.0416667   0.3333333   0.0000000), wk =   0.0034722
        k(   34) = (   0.0416667   0.3750000   0.0000000), wk =   0.0034722
        k(   35) = (   0.0416667   0.4166667   0.0000000), wk =   0.0034722
        k(   36) = (   0.0416667   0.4583333   0.0000000), wk =   0.0034722
        k(   37) = (   0.0416667  -0.5000000   0.0000000), wk =   0.0034722
        k(   38) = (   0.0416667  -0.4583333   0.0000000), wk =   0.0034722
        k(   39) = (   0.0416667  -0.4166667   0.0000000), wk =   0.0034722
        k(   40) = (   0.0416667  -0.3750000   0.0000000), wk =   0.0034722
        k(   41) = (   0.0416667  -0.3333333   0.0000000), wk =   0.0034722
        k(   42) = (   0.0416667  -0.2916667   0.0000000), wk =   0.0034722
        k(   43) = (   0.0416667  -0.2500000   0.0000000), wk =   0.0034722
        k(   44) = (   0.0416667  -0.2083333   0.0000000), wk =   0.0034722
        k(   45) = (   0.0416667  -0.1666667   0.0000000), wk =   0.0034722
        k(   46) = (   0.0416667  -0.1250000   0.0000000), wk =   0.0034722
        k(   47) = (   0.0416667  -0.0833333   0.0000000), wk =   0.0034722
        k(   48) = (   0.0416667  -0.0416667   0.0000000), wk =   0.0034722
        k(   49) = (   0.0833333   0.0000000   0.0000000), wk =   0.0034722
        k(   50) = (   0.0833333   0.0416667   0.0000000), wk =   0.0034722
        k(   51) = (   0.0833333   0.0833333   0.0000000), wk =   0.0034722
        k(   52) = (   0.0833333   0.1250000   0.0000000), wk =   0.0034722
        k(   53) = (   0.0833333   0.1666667   0.0000000), wk =   0.0034722
        k(   54) = (   0.0833333   0.2083333   0.0000000), wk =   0.0034722
        k(   55) = (   0.0833333   0.2500000   0.0000000), wk =   0.0034722
        k(   56) = (   0.0833333   0.2916667   0.0000000), wk =   0.0034722
        k(   57) = (   0.0833333   0.3333333   0.0000000), wk =   0.0034722
        k(   58) = (   0.0833333   0.3750000   0.0000000), wk =   0.0034722
        k(   59) = (   0.0833333   0.4166667   0.0000000), wk =   0.0034722
        k(   60) = (   0.0833333   0.4583333   0.0000000), wk =   0.0034722
        k(   61) = (   0.0833333  -0.5000000   0.0000000), wk =   0.0034722
        k(   62) = (   0.0833333  -0.4583333   0.0000000), wk =   0.0034722
        k(   63) = (   0.0833333  -0.4166667   0.0000000), wk =   0.0034722
        k(   64) = (   0.0833333  -0.3750000   0.0000000), wk =   0.0034722
        k(   65) = (   0.0833333  -0.3333333   0.0000000), wk =   0.0034722
        k(   66) = (   0.0833333  -0.2916667   0.0000000), wk =   0.0034722
        k(   67) = (   0.0833333  -0.2500000   0.0000000), wk =   0.0034722
        k(   68) = (   0.0833333  -0.2083333   0.0000000), wk =   0.0034722
        k(   69) = (   0.0833333  -0.1666667   0.0000000), wk =   0.0034722
        k(   70) = (   0.0833333  -0.1250000   0.0000000), wk =   0.0034722
        k(   71) = (   0.0833333  -0.0833333   0.0000000), wk =   0.0034722
        k(   72) = (   0.0833333  -0.0416667   0.0000000), wk =   0.0034722
        k(   73) = (   0.1250000   0.0000000   0.0000000), wk =   0.0034722
        k(   74) = (   0.1250000   0.0416667   0.0000000), wk =   0.0034722
        k(   75) = (   0.1250000   0.0833333   0.0000000), wk =   0.0034722
        k(   76) = (   0.1250000   0.1250000   0.0000000), wk =   0.0034722
        k(   77) = (   0.1250000   0.1666667   0.0000000), wk =   0.0034722
        k(   78) = (   0.1250000   0.2083333   0.0000000), wk =   0.0034722
        k(   79) = (   0.1250000   0.2500000   0.0000000), wk =   0.0034722
        k(   80) = (   0.1250000   0.2916667   0.0000000), wk =   0.0034722
        k(   81) = (   0.1250000   0.3333333   0.0000000), wk =   0.0034722
        k(   82) = (   0.1250000   0.3750000   0.0000000), wk =   0.0034722
        k(   83) = (   0.1250000   0.4166667   0.0000000), wk =   0.0034722
        k(   84) = (   0.1250000   0.4583333   0.0000000), wk =   0.0034722
        k(   85) = (   0.1250000  -0.5000000   0.0000000), wk =   0.0034722
        k(   86) = (   0.1250000  -0.4583333   0.0000000), wk =   0.0034722
        k(   87) = (   0.1250000  -0.4166667   0.0000000), wk =   0.0034722
        k(   88) = (   0.1250000  -0.3750000   0.0000000), wk =   0.0034722
        k(   89) = (   0.1250000  -0.3333333   0.0000000), wk =   0.0034722
        k(   90) = (   0.1250000  -0.2916667   0.0000000), wk =   0.0034722
        k(   91) = (   0.1250000  -0.2500000   0.0000000), wk =   0.0034722
        k(   92) = (   0.1250000  -0.2083333   0.0000000), wk =   0.0034722
        k(   93) = (   0.1250000  -0.1666667   0.0000000), wk =   0.0034722
        k(   94) = (   0.1250000  -0.1250000   0.0000000), wk =   0.0034722
        k(   95) = (   0.1250000  -0.0833333   0.0000000), wk =   0.0034722
        k(   96) = (   0.1250000  -0.0416667   0.0000000), wk =   0.0034722
        k(   97) = (   0.1666667   0.0000000   0.0000000), wk =   0.0034722
        k(   98) = (   0.1666667   0.0416667   0.0000000), wk =   0.0034722
        k(   99) = (   0.1666667   0.0833333   0.0000000), wk =   0.0034722
        k(  100) = (   0.1666667   0.1250000   0.0000000), wk =   0.0034722
        k(  101) = (   0.1666667   0.1666667   0.0000000), wk =   0.0034722
        k(  102) = (   0.1666667   0.2083333   0.0000000), wk =   0.0034722
        k(  103) = (   0.1666667   0.2500000   0.0000000), wk =   0.0034722
        k(  104) = (   0.1666667   0.2916667   0.0000000), wk =   0.0034722
        k(  105) = (   0.1666667   0.3333333   0.0000000), wk =   0.0034722
        k(  106) = (   0.1666667   0.3750000   0.0000000), wk =   0.0034722
        k(  107) = (   0.1666667   0.4166667   0.0000000), wk =   0.0034722
        k(  108) = (   0.1666667   0.4583333   0.0000000), wk =   0.0034722
        k(  109) = (   0.1666667  -0.5000000   0.0000000), wk =   0.0034722
        k(  110) = (   0.1666667  -0.4583333   0.0000000), wk =   0.0034722
        k(  111) = (   0.1666667  -0.4166667   0.0000000), wk =   0.0034722
        k(  112) = (   0.1666667  -0.3750000   0.0000000), wk =   0.0034722
        k(  113) = (   0.1666667  -0.3333333   0.0000000), wk =   0.0034722
        k(  114) = (   0.1666667  -0.2916667   0.0000000), wk =   0.0034722
        k(  115) = (   0.1666667  -0.2500000   0.0000000), wk =   0.0034722
        k(  116) = (   0.1666667  -0.2083333   0.0000000), wk =   0.0034722
        k(  117) = (   0.1666667  -0.1666667   0.0000000), wk =   0.0034722
        k(  118) = (   0.1666667  -0.1250000   0.0000000), wk =   0.0034722
        k(  119) = (   0.1666667  -0.0833333   0.0000000), wk =   0.0034722
        k(  120) = (   0.1666667  -0.0416667   0.0000000), wk =   0.0034722
        k(  121) = (   0.2083333  -0.0000000   0.0000000), wk =   0.0034722
        k(  122) = (   0.2083333   0.0416667   0.0000000), wk =   0.0034722
        k(  123) = (   0.2083333   0.0833333   0.0000000), wk =   0.0034722
        k(  124) = (   0.2083333   0.1250000   0.0000000), wk =   0.0034722
        k(  125) = (   0.2083333   0.1666667   0.0000000), wk =   0.0034722
        k(  126) = (   0.2083333   0.2083333   0.0000000), wk =   0.0034722
        k(  127) = (   0.2083333   0.2500000   0.0000000), wk =   0.0034722
        k(  128) = (   0.2083333   0.2916667   0.0000000), wk =   0.0034722
        k(  129) = (   0.2083333   0.3333333   0.0000000), wk =   0.0034722
        k(  130) = (   0.2083333   0.3750000   0.0000000), wk =   0.0034722
        k(  131) = (   0.2083333   0.4166667   0.0000000), wk =   0.0034722
        k(  132) = (   0.2083333   0.4583333   0.0000000), wk =   0.0034722
        k(  133) = (   0.2083333  -0.5000000   0.0000000), wk =   0.0034722
        k(  134) = (   0.2083333  -0.4583333   0.0000000), wk =   0.0034722
        k(  135) = (   0.2083333  -0.4166667   0.0000000), wk =   0.0034722
        k(  136) = (   0.2083333  -0.3750000   0.0000000), wk =   0.0034722
        k(  137) = (   0.2083333  -0.3333333   0.0000000), wk =   0.0034722
        k(  138) = (   0.2083333  -0.2916667   0.0000000), wk =   0.0034722
        k(  139) = (   0.2083333  -0.2500000   0.0000000), wk =   0.0034722
        k(  140) = (   0.2083333  -0.2083333   0.0000000), wk =   0.0034722
        k(  141) = (   0.2083333  -0.1666667   0.0000000), wk =   0.0034722
        k(  142) = (   0.2083333  -0.1250000   0.0000000), wk =   0.0034722
        k(  143) = (   0.2083333  -0.0833333   0.0000000), wk =   0.0034722
        k(  144) = (   0.2083333  -0.0416667   0.0000000), wk =   0.0034722
        k(  145) = (   0.2500000   0.0000000   0.0000000), wk =   0.0034722
        k(  146) = (   0.2500000   0.0416667   0.0000000), wk =   0.0034722
        k(  147) = (   0.2500000   0.0833333   0.0000000), wk =   0.0034722
        k(  148) = (   0.2500000   0.1250000   0.0000000), wk =   0.0034722
        k(  149) = (   0.2500000   0.1666667   0.0000000), wk =   0.0034722
        k(  150) = (   0.2500000   0.2083333   0.0000000), wk =   0.0034722
        k(  151) = (   0.2500000   0.2500000   0.0000000), wk =   0.0034722
        k(  152) = (   0.2500000   0.2916667   0.0000000), wk =   0.0034722
        k(  153) = (   0.2500000   0.3333333   0.0000000), wk =   0.0034722
        k(  154) = (   0.2500000   0.3750000   0.0000000), wk =   0.0034722
        k(  155) = (   0.2500000   0.4166667   0.0000000), wk =   0.0034722
        k(  156) = (   0.2500000   0.4583333   0.0000000), wk =   0.0034722
        k(  157) = (   0.2500000  -0.5000000   0.0000000), wk =   0.0034722
        k(  158) = (   0.2500000  -0.4583333   0.0000000), wk =   0.0034722
        k(  159) = (   0.2500000  -0.4166667   0.0000000), wk =   0.0034722
        k(  160) = (   0.2500000  -0.3750000   0.0000000), wk =   0.0034722
        k(  161) = (   0.2500000  -0.3333333   0.0000000), wk =   0.0034722
        k(  162) = (   0.2500000  -0.2916667   0.0000000), wk =   0.0034722
        k(  163) = (   0.2500000  -0.2500000   0.0000000), wk =   0.0034722
        k(  164) = (   0.2500000  -0.2083333   0.0000000), wk =   0.0034722
        k(  165) = (   0.2500000  -0.1666667   0.0000000), wk =   0.0034722
        k(  166) = (   0.2500000  -0.1250000   0.0000000), wk =   0.0034722
        k(  167) = (   0.2500000  -0.0833333   0.0000000), wk =   0.0034722
        k(  168) = (   0.2500000  -0.0416667   0.0000000), wk =   0.0034722
        k(  169) = (   0.2916667  -0.0000000   0.0000000), wk =   0.0034722
        k(  170) = (   0.2916667   0.0416667   0.0000000), wk =   0.0034722
        k(  171) = (   0.2916667   0.0833333   0.0000000), wk =   0.0034722
        k(  172) = (   0.2916667   0.1250000   0.0000000), wk =   0.0034722
        k(  173) = (   0.2916667   0.1666667   0.0000000), wk =   0.0034722
        k(  174) = (   0.2916667   0.2083333   0.0000000), wk =   0.0034722
        k(  175) = (   0.2916667   0.2500000   0.0000000), wk =   0.0034722
        k(  176) = (   0.2916667   0.2916667   0.0000000), wk =   0.0034722
        k(  177) = (   0.2916667   0.3333333   0.0000000), wk =   0.0034722
        k(  178) = (   0.2916667   0.3750000   0.0000000), wk =   0.0034722
        k(  179) = (   0.2916667   0.4166667   0.0000000), wk =   0.0034722
        k(  180) = (   0.2916667   0.4583333   0.0000000), wk =   0.0034722
        k(  181) = (   0.2916667  -0.5000000   0.0000000), wk =   0.0034722
        k(  182) = (   0.2916667  -0.4583333   0.0000000), wk =   0.0034722
        k(  183) = (   0.2916667  -0.4166667   0.0000000), wk =   0.0034722
        k(  184) = (   0.2916667  -0.3750000   0.0000000), wk =   0.0034722
        k(  185) = (   0.2916667  -0.3333333   0.0000000), wk =   0.0034722
        k(  186) = (   0.2916667  -0.2916667   0.0000000), wk =   0.0034722
        k(  187) = (   0.2916667  -0.2500000   0.0000000), wk =   0.0034722
        k(  188) = (   0.2916667  -0.2083333   0.0000000), wk =   0.0034722
        k(  189) = (   0.2916667  -0.1666667   0.0000000), wk =   0.0034722
        k(  190) = (   0.2916667  -0.1250000   0.0000000), wk =   0.0034722
        k(  191) = (   0.2916667  -0.0833333   0.0000000), wk =   0.0034722
        k(  192) = (   0.2916667  -0.0416667   0.0000000), wk =   0.0034722
        k(  193) = (   0.3333333   0.0000000   0.0000000), wk =   0.0034722
        k(  194) = (   0.3333333   0.0416667   0.0000000), wk =   0.0034722
        k(  195) = (   0.3333333   0.0833333   0.0000000), wk =   0.0034722
        k(  196) = (   0.3333333   0.1250000   0.0000000), wk =   0.0034722
        k(  197) = (   0.3333333   0.1666667   0.0000000), wk =   0.0034722
        k(  198) = (   0.3333333   0.2083333   0.0000000), wk =   0.0034722
        k(  199) = (   0.3333333   0.2500000   0.0000000), wk =   0.0034722
        k(  200) = (   0.3333333   0.2916667   0.0000000), wk =   0.0034722
        k(  201) = (   0.3333333   0.3333333   0.0000000), wk =   0.0034722
        k(  202) = (   0.3333333   0.3750000   0.0000000), wk =   0.0034722
        k(  203) = (   0.3333333   0.4166667   0.0000000), wk =   0.0034722
        k(  204) = (   0.3333333   0.4583333   0.0000000), wk =   0.0034722
        k(  205) = (   0.3333333  -0.5000000   0.0000000), wk =   0.0034722
        k(  206) = (   0.3333333  -0.4583333   0.0000000), wk =   0.0034722
        k(  207) = (   0.3333333  -0.4166667   0.0000000), wk =   0.0034722
        k(  208) = (   0.3333333  -0.3750000   0.0000000), wk =   0.0034722
        k(  209) = (   0.3333333  -0.3333333   0.0000000), wk =   0.0034722
        k(  210) = (   0.3333333  -0.2916667   0.0000000), wk =   0.0034722
        k(  211) = (   0.3333333  -0.2500000   0.0000000), wk =   0.0034722
        k(  212) = (   0.3333333  -0.2083333   0.0000000), wk =   0.0034722
        k(  213) = (   0.3333333  -0.1666667   0.0000000), wk =   0.0034722
        k(  214) = (   0.3333333  -0.1250000   0.0000000), wk =   0.0034722
        k(  215) = (   0.3333333  -0.0833333   0.0000000), wk =   0.0034722
        k(  216) = (   0.3333333  -0.0416667   0.0000000), wk =   0.0034722
        k(  217) = (   0.3750000   0.0000000   0.0000000), wk =   0.0034722
        k(  218) = (   0.3750000   0.0416667   0.0000000), wk =   0.0034722
        k(  219) = (   0.3750000   0.0833333   0.0000000), wk =   0.0034722
        k(  220) = (   0.3750000   0.1250000   0.0000000), wk =   0.0034722
        k(  221) = (   0.3750000   0.1666667   0.0000000), wk =   0.0034722
        k(  222) = (   0.3750000   0.2083333   0.0000000), wk =   0.0034722
        k(  223) = (   0.3750000   0.2500000   0.0000000), wk =   0.0034722
        k(  224) = (   0.3750000   0.2916667   0.0000000), wk =   0.0034722
        k(  225) = (   0.3750000   0.3333333   0.0000000), wk =   0.0034722
        k(  226) = (   0.3750000   0.3750000   0.0000000), wk =   0.0034722
        k(  227) = (   0.3750000   0.4166667   0.0000000), wk =   0.0034722
        k(  228) = (   0.3750000   0.4583333   0.0000000), wk =   0.0034722
        k(  229) = (   0.3750000  -0.5000000   0.0000000), wk =   0.0034722
        k(  230) = (   0.3750000  -0.4583333   0.0000000), wk =   0.0034722
        k(  231) = (   0.3750000  -0.4166667   0.0000000), wk =   0.0034722
        k(  232) = (   0.3750000  -0.3750000   0.0000000), wk =   0.0034722
        k(  233) = (   0.3750000  -0.3333333   0.0000000), wk =   0.0034722
        k(  234) = (   0.3750000  -0.2916667   0.0000000), wk =   0.0034722
        k(  235) = (   0.3750000  -0.2500000   0.0000000), wk =   0.0034722
        k(  236) = (   0.3750000  -0.2083333   0.0000000), wk =   0.0034722
        k(  237) = (   0.3750000  -0.1666667   0.0000000), wk =   0.0034722
        k(  238) = (   0.3750000  -0.1250000   0.0000000), wk =   0.0034722
        k(  239) = (   0.3750000  -0.0833333   0.0000000), wk =   0.0034722
        k(  240) = (   0.3750000  -0.0416667   0.0000000), wk =   0.0034722
        k(  241) = (   0.4166667  -0.0000000   0.0000000), wk =   0.0034722
        k(  242) = (   0.4166667   0.0416667   0.0000000), wk =   0.0034722
        k(  243) = (   0.4166667   0.0833333   0.0000000), wk =   0.0034722
        k(  244) = (   0.4166667   0.1250000   0.0000000), wk =   0.0034722
        k(  245) = (   0.4166667   0.1666667   0.0000000), wk =   0.0034722
        k(  246) = (   0.4166667   0.2083333   0.0000000), wk =   0.0034722
        k(  247) = (   0.4166667   0.2500000   0.0000000), wk =   0.0034722
        k(  248) = (   0.4166667   0.2916667   0.0000000), wk =   0.0034722
        k(  249) = (   0.4166667   0.3333333   0.0000000), wk =   0.0034722
        k(  250) = (   0.4166667   0.3750000   0.0000000), wk =   0.0034722
        k(  251) = (   0.4166667   0.4166667   0.0000000), wk =   0.0034722
        k(  252) = (   0.4166667   0.4583333   0.0000000), wk =   0.0034722
        k(  253) = (   0.4166667  -0.5000000   0.0000000), wk =   0.0034722
        k(  254) = (   0.4166667  -0.4583333   0.0000000), wk =   0.0034722
        k(  255) = (   0.4166667  -0.4166667   0.0000000), wk =   0.0034722
        k(  256) = (   0.4166667  -0.3750000   0.0000000), wk =   0.0034722
        k(  257) = (   0.4166667  -0.3333333   0.0000000), wk =   0.0034722
        k(  258) = (   0.4166667  -0.2916667   0.0000000), wk =   0.0034722
        k(  259) = (   0.4166667  -0.2500000   0.0000000), wk =   0.0034722
        k(  260) = (   0.4166667  -0.2083333   0.0000000), wk =   0.0034722
        k(  261) = (   0.4166667  -0.1666667   0.0000000), wk =   0.0034722
        k(  262) = (   0.4166667  -0.1250000   0.0000000), wk =   0.0034722
        k(  263) = (   0.4166667  -0.0833333   0.0000000), wk =   0.0034722
        k(  264) = (   0.4166667  -0.0416667   0.0000000), wk =   0.0034722
        k(  265) = (   0.4583333   0.0000000   0.0000000), wk =   0.0034722
        k(  266) = (   0.4583333   0.0416667   0.0000000), wk =   0.0034722
        k(  267) = (   0.4583333   0.0833333   0.0000000), wk =   0.0034722
        k(  268) = (   0.4583333   0.1250000   0.0000000), wk =   0.0034722
        k(  269) = (   0.4583333   0.1666667   0.0000000), wk =   0.0034722
        k(  270) = (   0.4583333   0.2083333   0.0000000), wk =   0.0034722
        k(  271) = (   0.4583333   0.2500000   0.0000000), wk =   0.0034722
        k(  272) = (   0.4583333   0.2916667   0.0000000), wk =   0.0034722
        k(  273) = (   0.4583333   0.3333333   0.0000000), wk =   0.0034722
        k(  274) = (   0.4583333   0.3750000   0.0000000), wk =   0.0034722
        k(  275) = (   0.4583333   0.4166667   0.0000000), wk =   0.0034722
        k(  276) = (   0.4583333   0.4583333   0.0000000), wk =   0.0034722
        k(  277) = (   0.4583333  -0.5000000   0.0000000), wk =   0.0034722
        k(  278) = (   0.4583333  -0.4583333   0.0000000), wk =   0.0034722
        k(  279) = (   0.4583333  -0.4166667   0.0000000), wk =   0.0034722
        k(  280) = (   0.4583333  -0.3750000   0.0000000), wk =   0.0034722
        k(  281) = (   0.4583333  -0.3333333   0.0000000), wk =   0.0034722
        k(  282) = (   0.4583333  -0.2916667   0.0000000), wk =   0.0034722
        k(  283) = (   0.4583333  -0.2500000   0.0000000), wk =   0.0034722
        k(  284) = (   0.4583333  -0.2083333   0.0000000), wk =   0.0034722
        k(  285) = (   0.4583333  -0.1666667   0.0000000), wk =   0.0034722
        k(  286) = (   0.4583333  -0.1250000   0.0000000), wk =   0.0034722
        k(  287) = (   0.4583333  -0.0833333   0.0000000), wk =   0.0034722
        k(  288) = (   0.4583333  -0.0416667   0.0000000), wk =   0.0034722
        k(  289) = (  -0.5000000   0.0000000   0.0000000), wk =   0.0034722
        k(  290) = (  -0.5000000   0.0416667   0.0000000), wk =   0.0034722
        k(  291) = (  -0.5000000   0.0833333   0.0000000), wk =   0.0034722
        k(  292) = (  -0.5000000   0.1250000   0.0000000), wk =   0.0034722
        k(  293) = (  -0.5000000   0.1666667   0.0000000), wk =   0.0034722
        k(  294) = (  -0.5000000   0.2083333   0.0000000), wk =   0.0034722
        k(  295) = (  -0.5000000   0.2500000   0.0000000), wk =   0.0034722
        k(  296) = (  -0.5000000   0.2916667   0.0000000), wk =   0.0034722
        k(  297) = (  -0.5000000   0.3333333   0.0000000), wk =   0.0034722
        k(  298) = (  -0.5000000   0.3750000   0.0000000), wk =   0.0034722
        k(  299) = (  -0.5000000   0.4166667   0.0000000), wk =   0.0034722
        k(  300) = (  -0.5000000   0.4583333   0.0000000), wk =   0.0034722
        k(  301) = (  -0.5000000  -0.5000000   0.0000000), wk =   0.0034722
        k(  302) = (  -0.5000000  -0.4583333   0.0000000), wk =   0.0034722
        k(  303) = (  -0.5000000  -0.4166667   0.0000000), wk =   0.0034722
        k(  304) = (  -0.5000000  -0.3750000   0.0000000), wk =   0.0034722
        k(  305) = (  -0.5000000  -0.3333333   0.0000000), wk =   0.0034722
        k(  306) = (  -0.5000000  -0.2916667   0.0000000), wk =   0.0034722
        k(  307) = (  -0.5000000  -0.2500000   0.0000000), wk =   0.0034722
        k(  308) = (  -0.5000000  -0.2083333   0.0000000), wk =   0.0034722
        k(  309) = (  -0.5000000  -0.1666667   0.0000000), wk =   0.0034722
        k(  310) = (  -0.5000000  -0.1250000   0.0000000), wk =   0.0034722
        k(  311) = (  -0.5000000  -0.0833333   0.0000000), wk =   0.0034722
        k(  312) = (  -0.5000000  -0.0416667   0.0000000), wk =   0.0034722
        k(  313) = (  -0.4583333   0.0000000   0.0000000), wk =   0.0034722
        k(  314) = (  -0.4583333   0.0416667   0.0000000), wk =   0.0034722
        k(  315) = (  -0.4583333   0.0833333   0.0000000), wk =   0.0034722
        k(  316) = (  -0.4583333   0.1250000   0.0000000), wk =   0.0034722
        k(  317) = (  -0.4583333   0.1666667   0.0000000), wk =   0.0034722
        k(  318) = (  -0.4583333   0.2083333   0.0000000), wk =   0.0034722
        k(  319) = (  -0.4583333   0.2500000   0.0000000), wk =   0.0034722
        k(  320) = (  -0.4583333   0.2916667   0.0000000), wk =   0.0034722
        k(  321) = (  -0.4583333   0.3333333   0.0000000), wk =   0.0034722
        k(  322) = (  -0.4583333   0.3750000   0.0000000), wk =   0.0034722
        k(  323) = (  -0.4583333   0.4166667   0.0000000), wk =   0.0034722
        k(  324) = (  -0.4583333   0.4583333   0.0000000), wk =   0.0034722
        k(  325) = (  -0.4583333  -0.5000000   0.0000000), wk =   0.0034722
        k(  326) = (  -0.4583333  -0.4583333   0.0000000), wk =   0.0034722
        k(  327) = (  -0.4583333  -0.4166667   0.0000000), wk =   0.0034722
        k(  328) = (  -0.4583333  -0.3750000   0.0000000), wk =   0.0034722
        k(  329) = (  -0.4583333  -0.3333333   0.0000000), wk =   0.0034722
        k(  330) = (  -0.4583333  -0.2916667   0.0000000), wk =   0.0034722
        k(  331) = (  -0.4583333  -0.2500000   0.0000000), wk =   0.0034722
        k(  332) = (  -0.4583333  -0.2083333   0.0000000), wk =   0.0034722
        k(  333) = (  -0.4583333  -0.1666667   0.0000000), wk =   0.0034722
        k(  334) = (  -0.4583333  -0.1250000   0.0000000), wk =   0.0034722
        k(  335) = (  -0.4583333  -0.0833333   0.0000000), wk =   0.0034722
        k(  336) = (  -0.4583333  -0.0416667   0.0000000), wk =   0.0034722
        k(  337) = (  -0.4166667   0.0000000   0.0000000), wk =   0.0034722
        k(  338) = (  -0.4166667   0.0416667   0.0000000), wk =   0.0034722
        k(  339) = (  -0.4166667   0.0833333   0.0000000), wk =   0.0034722
        k(  340) = (  -0.4166667   0.1250000   0.0000000), wk =   0.0034722
        k(  341) = (  -0.4166667   0.1666667   0.0000000), wk =   0.0034722
        k(  342) = (  -0.4166667   0.2083333   0.0000000), wk =   0.0034722
        k(  343) = (  -0.4166667   0.2500000   0.0000000), wk =   0.0034722
        k(  344) = (  -0.4166667   0.2916667   0.0000000), wk =   0.0034722
        k(  345) = (  -0.4166667   0.3333333   0.0000000), wk =   0.0034722
        k(  346) = (  -0.4166667   0.3750000   0.0000000), wk =   0.0034722
        k(  347) = (  -0.4166667   0.4166667   0.0000000), wk =   0.0034722
        k(  348) = (  -0.4166667   0.4583333   0.0000000), wk =   0.0034722
        k(  349) = (  -0.4166667  -0.5000000   0.0000000), wk =   0.0034722
        k(  350) = (  -0.4166667  -0.4583333   0.0000000), wk =   0.0034722
        k(  351) = (  -0.4166667  -0.4166667   0.0000000), wk =   0.0034722
        k(  352) = (  -0.4166667  -0.3750000   0.0000000), wk =   0.0034722
        k(  353) = (  -0.4166667  -0.3333333   0.0000000), wk =   0.0034722
        k(  354) = (  -0.4166667  -0.2916667   0.0000000), wk =   0.0034722
        k(  355) = (  -0.4166667  -0.2500000   0.0000000), wk =   0.0034722
        k(  356) = (  -0.4166667  -0.2083333   0.0000000), wk =   0.0034722
        k(  357) = (  -0.4166667  -0.1666667   0.0000000), wk =   0.0034722
        k(  358) = (  -0.4166667  -0.1250000   0.0000000), wk =   0.0034722
        k(  359) = (  -0.4166667  -0.0833333   0.0000000), wk =   0.0034722
        k(  360) = (  -0.4166667  -0.0416667   0.0000000), wk =   0.0034722
        k(  361) = (  -0.3750000   0.0000000   0.0000000), wk =   0.0034722
        k(  362) = (  -0.3750000   0.0416667   0.0000000), wk =   0.0034722
        k(  363) = (  -0.3750000   0.0833333   0.0000000), wk =   0.0034722
        k(  364) = (  -0.3750000   0.1250000   0.0000000), wk =   0.0034722
        k(  365) = (  -0.3750000   0.1666667   0.0000000), wk =   0.0034722
        k(  366) = (  -0.3750000   0.2083333   0.0000000), wk =   0.0034722
        k(  367) = (  -0.3750000   0.2500000   0.0000000), wk =   0.0034722
        k(  368) = (  -0.3750000   0.2916667   0.0000000), wk =   0.0034722
        k(  369) = (  -0.3750000   0.3333333   0.0000000), wk =   0.0034722
        k(  370) = (  -0.3750000   0.3750000   0.0000000), wk =   0.0034722
        k(  371) = (  -0.3750000   0.4166667   0.0000000), wk =   0.0034722
        k(  372) = (  -0.3750000   0.4583333   0.0000000), wk =   0.0034722
        k(  373) = (  -0.3750000  -0.5000000   0.0000000), wk =   0.0034722
        k(  374) = (  -0.3750000  -0.4583333   0.0000000), wk =   0.0034722
        k(  375) = (  -0.3750000  -0.4166667   0.0000000), wk =   0.0034722
        k(  376) = (  -0.3750000  -0.3750000   0.0000000), wk =   0.0034722
        k(  377) = (  -0.3750000  -0.3333333   0.0000000), wk =   0.0034722
        k(  378) = (  -0.3750000  -0.2916667   0.0000000), wk =   0.0034722
        k(  379) = (  -0.3750000  -0.2500000   0.0000000), wk =   0.0034722
        k(  380) = (  -0.3750000  -0.2083333   0.0000000), wk =   0.0034722
        k(  381) = (  -0.3750000  -0.1666667   0.0000000), wk =   0.0034722
        k(  382) = (  -0.3750000  -0.1250000   0.0000000), wk =   0.0034722
        k(  383) = (  -0.3750000  -0.0833333   0.0000000), wk =   0.0034722
        k(  384) = (  -0.3750000  -0.0416667   0.0000000), wk =   0.0034722
        k(  385) = (  -0.3333333   0.0000000   0.0000000), wk =   0.0034722
        k(  386) = (  -0.3333333   0.0416667   0.0000000), wk =   0.0034722
        k(  387) = (  -0.3333333   0.0833333   0.0000000), wk =   0.0034722
        k(  388) = (  -0.3333333   0.1250000   0.0000000), wk =   0.0034722
        k(  389) = (  -0.3333333   0.1666667   0.0000000), wk =   0.0034722
        k(  390) = (  -0.3333333   0.2083333   0.0000000), wk =   0.0034722
        k(  391) = (  -0.3333333   0.2500000   0.0000000), wk =   0.0034722
        k(  392) = (  -0.3333333   0.2916667   0.0000000), wk =   0.0034722
        k(  393) = (  -0.3333333   0.3333333   0.0000000), wk =   0.0034722
        k(  394) = (  -0.3333333   0.3750000   0.0000000), wk =   0.0034722
        k(  395) = (  -0.3333333   0.4166667   0.0000000), wk =   0.0034722
        k(  396) = (  -0.3333333   0.4583333   0.0000000), wk =   0.0034722
        k(  397) = (  -0.3333333  -0.5000000   0.0000000), wk =   0.0034722
        k(  398) = (  -0.3333333  -0.4583333   0.0000000), wk =   0.0034722
        k(  399) = (  -0.3333333  -0.4166667   0.0000000), wk =   0.0034722
        k(  400) = (  -0.3333333  -0.3750000   0.0000000), wk =   0.0034722
        k(  401) = (  -0.3333333  -0.3333333   0.0000000), wk =   0.0034722
        k(  402) = (  -0.3333333  -0.2916667   0.0000000), wk =   0.0034722
        k(  403) = (  -0.3333333  -0.2500000   0.0000000), wk =   0.0034722
        k(  404) = (  -0.3333333  -0.2083333   0.0000000), wk =   0.0034722
        k(  405) = (  -0.3333333  -0.1666667   0.0000000), wk =   0.0034722
        k(  406) = (  -0.3333333  -0.1250000   0.0000000), wk =   0.0034722
        k(  407) = (  -0.3333333  -0.0833333   0.0000000), wk =   0.0034722
        k(  408) = (  -0.3333333  -0.0416667   0.0000000), wk =   0.0034722
        k(  409) = (  -0.2916667   0.0000000   0.0000000), wk =   0.0034722
        k(  410) = (  -0.2916667   0.0416667   0.0000000), wk =   0.0034722
        k(  411) = (  -0.2916667   0.0833333   0.0000000), wk =   0.0034722
        k(  412) = (  -0.2916667   0.1250000   0.0000000), wk =   0.0034722
        k(  413) = (  -0.2916667   0.1666667   0.0000000), wk =   0.0034722
        k(  414) = (  -0.2916667   0.2083333   0.0000000), wk =   0.0034722
        k(  415) = (  -0.2916667   0.2500000   0.0000000), wk =   0.0034722
        k(  416) = (  -0.2916667   0.2916667   0.0000000), wk =   0.0034722
        k(  417) = (  -0.2916667   0.3333333   0.0000000), wk =   0.0034722
        k(  418) = (  -0.2916667   0.3750000   0.0000000), wk =   0.0034722
        k(  419) = (  -0.2916667   0.4166667   0.0000000), wk =   0.0034722
        k(  420) = (  -0.2916667   0.4583333   0.0000000), wk =   0.0034722
        k(  421) = (  -0.2916667  -0.5000000   0.0000000), wk =   0.0034722
        k(  422) = (  -0.2916667  -0.4583333   0.0000000), wk =   0.0034722
        k(  423) = (  -0.2916667  -0.4166667   0.0000000), wk =   0.0034722
        k(  424) = (  -0.2916667  -0.3750000   0.0000000), wk =   0.0034722
        k(  425) = (  -0.2916667  -0.3333333   0.0000000), wk =   0.0034722
        k(  426) = (  -0.2916667  -0.2916667   0.0000000), wk =   0.0034722
        k(  427) = (  -0.2916667  -0.2500000   0.0000000), wk =   0.0034722
        k(  428) = (  -0.2916667  -0.2083333   0.0000000), wk =   0.0034722
        k(  429) = (  -0.2916667  -0.1666667   0.0000000), wk =   0.0034722
        k(  430) = (  -0.2916667  -0.1250000   0.0000000), wk =   0.0034722
        k(  431) = (  -0.2916667  -0.0833333   0.0000000), wk =   0.0034722
        k(  432) = (  -0.2916667  -0.0416667   0.0000000), wk =   0.0034722
        k(  433) = (  -0.2500000   0.0000000   0.0000000), wk =   0.0034722
        k(  434) = (  -0.2500000   0.0416667   0.0000000), wk =   0.0034722
        k(  435) = (  -0.2500000   0.0833333   0.0000000), wk =   0.0034722
        k(  436) = (  -0.2500000   0.1250000   0.0000000), wk =   0.0034722
        k(  437) = (  -0.2500000   0.1666667   0.0000000), wk =   0.0034722
        k(  438) = (  -0.2500000   0.2083333   0.0000000), wk =   0.0034722
        k(  439) = (  -0.2500000   0.2500000   0.0000000), wk =   0.0034722
        k(  440) = (  -0.2500000   0.2916667   0.0000000), wk =   0.0034722
        k(  441) = (  -0.2500000   0.3333333   0.0000000), wk =   0.0034722
        k(  442) = (  -0.2500000   0.3750000   0.0000000), wk =   0.0034722
        k(  443) = (  -0.2500000   0.4166667   0.0000000), wk =   0.0034722
        k(  444) = (  -0.2500000   0.4583333   0.0000000), wk =   0.0034722
        k(  445) = (  -0.2500000  -0.5000000   0.0000000), wk =   0.0034722
        k(  446) = (  -0.2500000  -0.4583333   0.0000000), wk =   0.0034722
        k(  447) = (  -0.2500000  -0.4166667   0.0000000), wk =   0.0034722
        k(  448) = (  -0.2500000  -0.3750000   0.0000000), wk =   0.0034722
        k(  449) = (  -0.2500000  -0.3333333   0.0000000), wk =   0.0034722
        k(  450) = (  -0.2500000  -0.2916667   0.0000000), wk =   0.0034722
        k(  451) = (  -0.2500000  -0.2500000   0.0000000), wk =   0.0034722
        k(  452) = (  -0.2500000  -0.2083333   0.0000000), wk =   0.0034722
        k(  453) = (  -0.2500000  -0.1666667   0.0000000), wk =   0.0034722
        k(  454) = (  -0.2500000  -0.1250000   0.0000000), wk =   0.0034722
        k(  455) = (  -0.2500000  -0.0833333   0.0000000), wk =   0.0034722
        k(  456) = (  -0.2500000  -0.0416667   0.0000000), wk =   0.0034722
        k(  457) = (  -0.2083333   0.0000000   0.0000000), wk =   0.0034722
        k(  458) = (  -0.2083333   0.0416667   0.0000000), wk =   0.0034722
        k(  459) = (  -0.2083333   0.0833333   0.0000000), wk =   0.0034722
        k(  460) = (  -0.2083333   0.1250000   0.0000000), wk =   0.0034722
        k(  461) = (  -0.2083333   0.1666667   0.0000000), wk =   0.0034722
        k(  462) = (  -0.2083333   0.2083333   0.0000000), wk =   0.0034722
        k(  463) = (  -0.2083333   0.2500000   0.0000000), wk =   0.0034722
        k(  464) = (  -0.2083333   0.2916667   0.0000000), wk =   0.0034722
        k(  465) = (  -0.2083333   0.3333333   0.0000000), wk =   0.0034722
        k(  466) = (  -0.2083333   0.3750000   0.0000000), wk =   0.0034722
        k(  467) = (  -0.2083333   0.4166667   0.0000000), wk =   0.0034722
        k(  468) = (  -0.2083333   0.4583333   0.0000000), wk =   0.0034722
        k(  469) = (  -0.2083333  -0.5000000   0.0000000), wk =   0.0034722
        k(  470) = (  -0.2083333  -0.4583333   0.0000000), wk =   0.0034722
        k(  471) = (  -0.2083333  -0.4166667   0.0000000), wk =   0.0034722
        k(  472) = (  -0.2083333  -0.3750000   0.0000000), wk =   0.0034722
        k(  473) = (  -0.2083333  -0.3333333   0.0000000), wk =   0.0034722
        k(  474) = (  -0.2083333  -0.2916667   0.0000000), wk =   0.0034722
        k(  475) = (  -0.2083333  -0.2500000   0.0000000), wk =   0.0034722
        k(  476) = (  -0.2083333  -0.2083333   0.0000000), wk =   0.0034722
        k(  477) = (  -0.2083333  -0.1666667   0.0000000), wk =   0.0034722
        k(  478) = (  -0.2083333  -0.1250000   0.0000000), wk =   0.0034722
        k(  479) = (  -0.2083333  -0.0833333   0.0000000), wk =   0.0034722
        k(  480) = (  -0.2083333  -0.0416667   0.0000000), wk =   0.0034722
        k(  481) = (  -0.1666667   0.0000000   0.0000000), wk =   0.0034722
        k(  482) = (  -0.1666667   0.0416667   0.0000000), wk =   0.0034722
        k(  483) = (  -0.1666667   0.0833333   0.0000000), wk =   0.0034722
        k(  484) = (  -0.1666667   0.1250000   0.0000000), wk =   0.0034722
        k(  485) = (  -0.1666667   0.1666667   0.0000000), wk =   0.0034722
        k(  486) = (  -0.1666667   0.2083333   0.0000000), wk =   0.0034722
        k(  487) = (  -0.1666667   0.2500000   0.0000000), wk =   0.0034722
        k(  488) = (  -0.1666667   0.2916667   0.0000000), wk =   0.0034722
        k(  489) = (  -0.1666667   0.3333333   0.0000000), wk =   0.0034722
        k(  490) = (  -0.1666667   0.3750000   0.0000000), wk =   0.0034722
        k(  491) = (  -0.1666667   0.4166667   0.0000000), wk =   0.0034722
        k(  492) = (  -0.1666667   0.4583333   0.0000000), wk =   0.0034722
        k(  493) = (  -0.1666667  -0.5000000   0.0000000), wk =   0.0034722
        k(  494) = (  -0.1666667  -0.4583333   0.0000000), wk =   0.0034722
        k(  495) = (  -0.1666667  -0.4166667   0.0000000), wk =   0.0034722
        k(  496) = (  -0.1666667  -0.3750000   0.0000000), wk =   0.0034722
        k(  497) = (  -0.1666667  -0.3333333   0.0000000), wk =   0.0034722
        k(  498) = (  -0.1666667  -0.2916667   0.0000000), wk =   0.0034722
        k(  499) = (  -0.1666667  -0.2500000   0.0000000), wk =   0.0034722
        k(  500) = (  -0.1666667  -0.2083333   0.0000000), wk =   0.0034722
        k(  501) = (  -0.1666667  -0.1666667   0.0000000), wk =   0.0034722
        k(  502) = (  -0.1666667  -0.1250000   0.0000000), wk =   0.0034722
        k(  503) = (  -0.1666667  -0.0833333   0.0000000), wk =   0.0034722
        k(  504) = (  -0.1666667  -0.0416667   0.0000000), wk =   0.0034722
        k(  505) = (  -0.1250000   0.0000000   0.0000000), wk =   0.0034722
        k(  506) = (  -0.1250000   0.0416667   0.0000000), wk =   0.0034722
        k(  507) = (  -0.1250000   0.0833333   0.0000000), wk =   0.0034722
        k(  508) = (  -0.1250000   0.1250000   0.0000000), wk =   0.0034722
        k(  509) = (  -0.1250000   0.1666667   0.0000000), wk =   0.0034722
        k(  510) = (  -0.1250000   0.2083333   0.0000000), wk =   0.0034722
        k(  511) = (  -0.1250000   0.2500000   0.0000000), wk =   0.0034722
        k(  512) = (  -0.1250000   0.2916667   0.0000000), wk =   0.0034722
        k(  513) = (  -0.1250000   0.3333333   0.0000000), wk =   0.0034722
        k(  514) = (  -0.1250000   0.3750000   0.0000000), wk =   0.0034722
        k(  515) = (  -0.1250000   0.4166667   0.0000000), wk =   0.0034722
        k(  516) = (  -0.1250000   0.4583333   0.0000000), wk =   0.0034722
        k(  517) = (  -0.1250000  -0.5000000   0.0000000), wk =   0.0034722
        k(  518) = (  -0.1250000  -0.4583333   0.0000000), wk =   0.0034722
        k(  519) = (  -0.1250000  -0.4166667   0.0000000), wk =   0.0034722
        k(  520) = (  -0.1250000  -0.3750000   0.0000000), wk =   0.0034722
        k(  521) = (  -0.1250000  -0.3333333   0.0000000), wk =   0.0034722
        k(  522) = (  -0.1250000  -0.2916667   0.0000000), wk =   0.0034722
        k(  523) = (  -0.1250000  -0.2500000   0.0000000), wk =   0.0034722
        k(  524) = (  -0.1250000  -0.2083333   0.0000000), wk =   0.0034722
        k(  525) = (  -0.1250000  -0.1666667   0.0000000), wk =   0.0034722
        k(  526) = (  -0.1250000  -0.1250000   0.0000000), wk =   0.0034722
        k(  527) = (  -0.1250000  -0.0833333   0.0000000), wk =   0.0034722
        k(  528) = (  -0.1250000  -0.0416667   0.0000000), wk =   0.0034722
        k(  529) = (  -0.0833333   0.0000000   0.0000000), wk =   0.0034722
        k(  530) = (  -0.0833333   0.0416667   0.0000000), wk =   0.0034722
        k(  531) = (  -0.0833333   0.0833333   0.0000000), wk =   0.0034722
        k(  532) = (  -0.0833333   0.1250000   0.0000000), wk =   0.0034722
        k(  533) = (  -0.0833333   0.1666667   0.0000000), wk =   0.0034722
        k(  534) = (  -0.0833333   0.2083333   0.0000000), wk =   0.0034722
        k(  535) = (  -0.0833333   0.2500000   0.0000000), wk =   0.0034722
        k(  536) = (  -0.0833333   0.2916667   0.0000000), wk =   0.0034722
        k(  537) = (  -0.0833333   0.3333333   0.0000000), wk =   0.0034722
        k(  538) = (  -0.0833333   0.3750000   0.0000000), wk =   0.0034722
        k(  539) = (  -0.0833333   0.4166667   0.0000000), wk =   0.0034722
        k(  540) = (  -0.0833333   0.4583333   0.0000000), wk =   0.0034722
        k(  541) = (  -0.0833333  -0.5000000   0.0000000), wk =   0.0034722
        k(  542) = (  -0.0833333  -0.4583333   0.0000000), wk =   0.0034722
        k(  543) = (  -0.0833333  -0.4166667   0.0000000), wk =   0.0034722
        k(  544) = (  -0.0833333  -0.3750000   0.0000000), wk =   0.0034722
        k(  545) = (  -0.0833333  -0.3333333   0.0000000), wk =   0.0034722
        k(  546) = (  -0.0833333  -0.2916667   0.0000000), wk =   0.0034722
        k(  547) = (  -0.0833333  -0.2500000   0.0000000), wk =   0.0034722
        k(  548) = (  -0.0833333  -0.2083333   0.0000000), wk =   0.0034722
        k(  549) = (  -0.0833333  -0.1666667   0.0000000), wk =   0.0034722
        k(  550) = (  -0.0833333  -0.1250000   0.0000000), wk =   0.0034722
        k(  551) = (  -0.0833333  -0.0833333   0.0000000), wk =   0.0034722
        k(  552) = (  -0.0833333  -0.0416667   0.0000000), wk =   0.0034722
        k(  553) = (  -0.0416667   0.0000000   0.0000000), wk =   0.0034722
        k(  554) = (  -0.0416667   0.0416667   0.0000000), wk =   0.0034722
        k(  555) = (  -0.0416667   0.0833333   0.0000000), wk =   0.0034722
        k(  556) = (  -0.0416667   0.1250000   0.0000000), wk =   0.0034722
        k(  557) = (  -0.0416667   0.1666667   0.0000000), wk =   0.0034722
        k(  558) = (  -0.0416667   0.2083333   0.0000000), wk =   0.0034722
        k(  559) = (  -0.0416667   0.2500000   0.0000000), wk =   0.0034722
        k(  560) = (  -0.0416667   0.2916667   0.0000000), wk =   0.0034722
        k(  561) = (  -0.0416667   0.3333333   0.0000000), wk =   0.0034722
        k(  562) = (  -0.0416667   0.3750000   0.0000000), wk =   0.0034722
        k(  563) = (  -0.0416667   0.4166667   0.0000000), wk =   0.0034722
        k(  564) = (  -0.0416667   0.4583333   0.0000000), wk =   0.0034722
        k(  565) = (  -0.0416667  -0.5000000   0.0000000), wk =   0.0034722
        k(  566) = (  -0.0416667  -0.4583333   0.0000000), wk =   0.0034722
        k(  567) = (  -0.0416667  -0.4166667   0.0000000), wk =   0.0034722
        k(  568) = (  -0.0416667  -0.3750000   0.0000000), wk =   0.0034722
        k(  569) = (  -0.0416667  -0.3333333   0.0000000), wk =   0.0034722
        k(  570) = (  -0.0416667  -0.2916667   0.0000000), wk =   0.0034722
        k(  571) = (  -0.0416667  -0.2500000   0.0000000), wk =   0.0034722
        k(  572) = (  -0.0416667  -0.2083333   0.0000000), wk =   0.0034722
        k(  573) = (  -0.0416667  -0.1666667   0.0000000), wk =   0.0034722
        k(  574) = (  -0.0416667  -0.1250000   0.0000000), wk =   0.0034722
        k(  575) = (  -0.0416667  -0.0833333   0.0000000), wk =   0.0034722
        k(  576) = (  -0.0416667  -0.0416667   0.0000000), wk =   0.0034722

     Dense  grid:    36583 G-vectors     FFT dimensions: (  75,  40, 120)

     Dynamical RAM for                 wfc:       0.56 MB

     Dynamical RAM for     wfc (w. buffer):      40.67 MB

     Dynamical RAM for           str. fact:       0.56 MB

     Dynamical RAM for           local pot:       0.00 MB

     Dynamical RAM for          nlocal pot:       1.11 MB

     Dynamical RAM for                qrad:       0.29 MB

     Dynamical RAM for          rho,v,vnew:       9.91 MB

     Dynamical RAM for               rhoin:       3.30 MB

     Dynamical RAM for            rho*nmix:       8.93 MB

     Dynamical RAM for           G-vectors:       2.37 MB

     Dynamical RAM for          h,s,v(r/c):       0.01 MB

     Dynamical RAM for          <psi|beta>:       0.00 MB

     Dynamical RAM for                 psi:       1.11 MB

     Dynamical RAM for                hpsi:       1.11 MB

     Dynamical RAM for      wfcinit/wfcrot:       1.12 MB

     Estimated static dynamical RAM per process >      73.07 MB

     Estimated max dynamical RAM per process >      84.25 MB

     Estimated total dynamical RAM >     611.46 MB
