
     Program PWSCF v.7.3.1 starts on 19Apr2026 at  6:32:31 

     This program is part of the open-source Quantum ESPRESSO suite
     for quantum simulation of materials; please cite
         "P. Giannozzi et al., J. Phys.:Condens. Matter 21 395502 (2009);
         "P. Giannozzi et al., J. Phys.:Condens. Matter 29 465901 (2017);
         "P. Giannozzi et al., J. Chem. Phys. 152 154105 (2020);
          URL http://www.quantum-espresso.org", 
     in publications or presentations arising from this work. More details at
     http://www.quantum-espresso.org/quote

     Parallel version (MPI & OpenMP), running on       8 processor cores
     Number of MPI processes:                 8
     Threads/MPI process:                     1

     MPI processes distributed on     1 nodes
     19215 MiB available memory on the printing compute node when the environment starts

     Reading input from scf24.9.in

     Current dimensions of program PWSCF are:
     Max number of different atomic species (ntypx) = 10
     Max number of k-points (npk) =  40000
     Max angular momentum in pseudopotentials (lmaxx) =  4

     K-points division:     npool     =       8
     Subspace diagonalization in iterative solution of the eigenvalue problem:
     a serial algorithm will be used


     G-vector sticks info
     --------------------
     sticks:   dense  smooth     PW     G-vecs:    dense   smooth      PW
     Sum         281     281     99                21519    21519    4687

     Using Slab Decomposition



     bravais-lattice index     =            0
     lattice parameter (alat)  =       5.7778  a.u.
     unit-cell volume          =     629.1713 (a.u.)^3
     number of atoms/cell      =            2
     number of atomic types    =            1
     number of electrons       =         8.00
     number of Kohn-Sham states=            8
     kinetic-energy cutoff     =      40.0000  Ry
     charge density cutoff     =     160.0000  Ry
     scf convergence threshold =      1.0E-08
     mixing beta               =       0.7000
     number of iterations used =            8  plain     mixing
     Exchange-correlation= SLA  PW   NOGX NOGC
                           (   1   4   0   0   0   0   0)

     celldm(1)=   5.777779  celldm(2)=   0.000000  celldm(3)=   0.000000
     celldm(4)=   0.000000  celldm(5)=   0.000000  celldm(6)=   0.000000

     crystal axes: (cart. coord. in units of alat)
               a(1) = (   1.000000   0.000000   0.000000 )  
               a(2) = (   0.500000   0.664888   0.000000 )  
               a(3) = (   0.000000   0.000000   4.906116 )  

     reciprocal axes: (cart. coord. in units 2 pi/alat)
               b(1) = (  1.000000 -0.752007  0.000000 )  
               b(2) = (  0.000000  1.504013  0.000000 )  
               b(3) = (  0.000000  0.000000  0.203827 )  


     PseudoPot. # 1 for C  read from file:
     ./C.upf
     MD5 check sum: c9bd9c91d9c48f3c1b9c51e450525728
     Pseudo is Norm-conserving + core correction, Zval =  4.0
     Generated using ONCVPSP code by D. R. Hamann
     Using radial grid of 1234 points,  4 beta functions with: 
                l(1) =   0
                l(2) =   0
                l(3) =   1
                l(4) =   1

     atomic species   valence    mass     pseudopotential
     C                 4.00    12.01100     C ( 1.00)

     No symmetry found


                                    s                        frac. trans.

      isym =  1     identity                                     

 cryst.   s( 1) = (     1          0          0      )
                  (     0          1          0      )
                  (     0          0          1      )

 cart.    s( 1) = (  1.0000000  0.0000000  0.0000000 )
                  (  0.0000000  1.0000000  0.0000000 )
                  (  0.0000000  0.0000000  1.0000000 )


   Cartesian axes

     site n.     atom                  positions (alat units)
         1        C      tau(   1) = (  -0.0000000   0.0009747   0.0000000  )
         2        C      tau(   2) = (   0.4999995   0.2206543   0.0000000  )

   Crystallographic axes

     site n.     atom                  positions (cryst. coord.)
         1        C      tau(   1) = ( -0.0007330  0.0014660  0.0000000  )
         2        C      tau(   2) = (  0.3340660  0.3318670  0.0000000  )

     number of k points=   576  Marzari-Vanderbilt smearing, width (Ry)=  0.0200
                       cart. coord. in units 2pi/alat
        k(    1) = (   0.0000000   0.0000000   0.0000000), wk =   0.0034722
        k(    2) = (   0.0000000   0.0626672   0.0000000), wk =   0.0034722
        k(    3) = (   0.0000000   0.1253345   0.0000000), wk =   0.0034722
        k(    4) = (   0.0000000   0.1880017   0.0000000), wk =   0.0034722
        k(    5) = (   0.0000000   0.2506689   0.0000000), wk =   0.0034722
        k(    6) = (   0.0000000   0.3133361   0.0000000), wk =   0.0034722
        k(    7) = (   0.0000000   0.3760034   0.0000000), wk =   0.0034722
        k(    8) = (   0.0000000   0.4386706   0.0000000), wk =   0.0034722
        k(    9) = (   0.0000000   0.5013378   0.0000000), wk =   0.0034722
        k(   10) = (   0.0000000   0.5640050   0.0000000), wk =   0.0034722
        k(   11) = (   0.0000000   0.6266723   0.0000000), wk =   0.0034722
        k(   12) = (   0.0000000   0.6893395   0.0000000), wk =   0.0034722
        k(   13) = (   0.0000000  -0.7520067   0.0000000), wk =   0.0034722
        k(   14) = (   0.0000000  -0.6893395   0.0000000), wk =   0.0034722
        k(   15) = (   0.0000000  -0.6266723   0.0000000), wk =   0.0034722
        k(   16) = (   0.0000000  -0.5640050   0.0000000), wk =   0.0034722
        k(   17) = (   0.0000000  -0.5013378   0.0000000), wk =   0.0034722
        k(   18) = (   0.0000000  -0.4386706   0.0000000), wk =   0.0034722
        k(   19) = (   0.0000000  -0.3760034   0.0000000), wk =   0.0034722
        k(   20) = (   0.0000000  -0.3133361   0.0000000), wk =   0.0034722
        k(   21) = (   0.0000000  -0.2506689   0.0000000), wk =   0.0034722
        k(   22) = (   0.0000000  -0.1880017   0.0000000), wk =   0.0034722
        k(   23) = (   0.0000000  -0.1253345   0.0000000), wk =   0.0034722
        k(   24) = (   0.0000000  -0.0626672   0.0000000), wk =   0.0034722
        k(   25) = (   0.0416667  -0.0313336   0.0000000), wk =   0.0034722
        k(   26) = (   0.0416667   0.0313336   0.0000000), wk =   0.0034722
        k(   27) = (   0.0416667   0.0940008   0.0000000), wk =   0.0034722
        k(   28) = (   0.0416667   0.1566681   0.0000000), wk =   0.0034722
        k(   29) = (   0.0416667   0.2193353   0.0000000), wk =   0.0034722
        k(   30) = (   0.0416667   0.2820025   0.0000000), wk =   0.0034722
        k(   31) = (   0.0416667   0.3446698   0.0000000), wk =   0.0034722
        k(   32) = (   0.0416667   0.4073370   0.0000000), wk =   0.0034722
        k(   33) = (   0.0416667   0.4700042   0.0000000), wk =   0.0034722
        k(   34) = (   0.0416667   0.5326714   0.0000000), wk =   0.0034722
        k(   35) = (   0.0416667   0.5953387   0.0000000), wk =   0.0034722
        k(   36) = (   0.0416667   0.6580059   0.0000000), wk =   0.0034722
        k(   37) = (   0.0416667  -0.7833403   0.0000000), wk =   0.0034722
        k(   38) = (   0.0416667  -0.7206731   0.0000000), wk =   0.0034722
        k(   39) = (   0.0416667  -0.6580059   0.0000000), wk =   0.0034722
        k(   40) = (   0.0416667  -0.5953387   0.0000000), wk =   0.0034722
        k(   41) = (   0.0416667  -0.5326714   0.0000000), wk =   0.0034722
        k(   42) = (   0.0416667  -0.4700042   0.0000000), wk =   0.0034722
        k(   43) = (   0.0416667  -0.4073370   0.0000000), wk =   0.0034722
        k(   44) = (   0.0416667  -0.3446697   0.0000000), wk =   0.0034722
        k(   45) = (   0.0416667  -0.2820025   0.0000000), wk =   0.0034722
        k(   46) = (   0.0416667  -0.2193353   0.0000000), wk =   0.0034722
        k(   47) = (   0.0416667  -0.1566681   0.0000000), wk =   0.0034722
        k(   48) = (   0.0416667  -0.0940008   0.0000000), wk =   0.0034722
        k(   49) = (   0.0833333  -0.0626672   0.0000000), wk =   0.0034722
        k(   50) = (   0.0833333   0.0000000   0.0000000), wk =   0.0034722
        k(   51) = (   0.0833333   0.0626672   0.0000000), wk =   0.0034722
        k(   52) = (   0.0833333   0.1253345   0.0000000), wk =   0.0034722
        k(   53) = (   0.0833333   0.1880017   0.0000000), wk =   0.0034722
        k(   54) = (   0.0833333   0.2506689   0.0000000), wk =   0.0034722
        k(   55) = (   0.0833333   0.3133361   0.0000000), wk =   0.0034722
        k(   56) = (   0.0833333   0.3760034   0.0000000), wk =   0.0034722
        k(   57) = (   0.0833333   0.4386706   0.0000000), wk =   0.0034722
        k(   58) = (   0.0833333   0.5013378   0.0000000), wk =   0.0034722
        k(   59) = (   0.0833333   0.5640051   0.0000000), wk =   0.0034722
        k(   60) = (   0.0833333   0.6266723   0.0000000), wk =   0.0034722
        k(   61) = (   0.0833333  -0.8146739   0.0000000), wk =   0.0034722
        k(   62) = (   0.0833333  -0.7520067   0.0000000), wk =   0.0034722
        k(   63) = (   0.0833333  -0.6893395   0.0000000), wk =   0.0034722
        k(   64) = (   0.0833333  -0.6266723   0.0000000), wk =   0.0034722
        k(   65) = (   0.0833333  -0.5640050   0.0000000), wk =   0.0034722
        k(   66) = (   0.0833333  -0.5013378   0.0000000), wk =   0.0034722
        k(   67) = (   0.0833333  -0.4386706   0.0000000), wk =   0.0034722
        k(   68) = (   0.0833333  -0.3760034   0.0000000), wk =   0.0034722
        k(   69) = (   0.0833333  -0.3133361   0.0000000), wk =   0.0034722
        k(   70) = (   0.0833333  -0.2506689   0.0000000), wk =   0.0034722
        k(   71) = (   0.0833333  -0.1880017   0.0000000), wk =   0.0034722
        k(   72) = (   0.0833333  -0.1253344   0.0000000), wk =   0.0034722
        k(   73) = (   0.1250000  -0.0940008   0.0000000), wk =   0.0034722
        k(   74) = (   0.1250000  -0.0313336   0.0000000), wk =   0.0034722
        k(   75) = (   0.1250000   0.0313336   0.0000000), wk =   0.0034722
        k(   76) = (   0.1250000   0.0940009   0.0000000), wk =   0.0034722
        k(   77) = (   0.1250000   0.1566681   0.0000000), wk =   0.0034722
        k(   78) = (   0.1250000   0.2193353   0.0000000), wk =   0.0034722
        k(   79) = (   0.1250000   0.2820025   0.0000000), wk =   0.0034722
        k(   80) = (   0.1250000   0.3446698   0.0000000), wk =   0.0034722
        k(   81) = (   0.1250000   0.4073370   0.0000000), wk =   0.0034722
        k(   82) = (   0.1250000   0.4700042   0.0000000), wk =   0.0034722
        k(   83) = (   0.1250000   0.5326714   0.0000000), wk =   0.0034722
        k(   84) = (   0.1250000   0.5953387   0.0000000), wk =   0.0034722
        k(   85) = (   0.1250000  -0.8460076   0.0000000), wk =   0.0034722
        k(   86) = (   0.1250000  -0.7833403   0.0000000), wk =   0.0034722
        k(   87) = (   0.1250000  -0.7206731   0.0000000), wk =   0.0034722
        k(   88) = (   0.1250000  -0.6580059   0.0000000), wk =   0.0034722
        k(   89) = (   0.1250000  -0.5953386   0.0000000), wk =   0.0034722
        k(   90) = (   0.1250000  -0.5326714   0.0000000), wk =   0.0034722
        k(   91) = (   0.1250000  -0.4700042   0.0000000), wk =   0.0034722
        k(   92) = (   0.1250000  -0.4073370   0.0000000), wk =   0.0034722
        k(   93) = (   0.1250000  -0.3446697   0.0000000), wk =   0.0034722
        k(   94) = (   0.1250000  -0.2820025   0.0000000), wk =   0.0034722
        k(   95) = (   0.1250000  -0.2193353   0.0000000), wk =   0.0034722
        k(   96) = (   0.1250000  -0.1566681   0.0000000), wk =   0.0034722
        k(   97) = (   0.1666667  -0.1253344   0.0000000), wk =   0.0034722
        k(   98) = (   0.1666667  -0.0626672   0.0000000), wk =   0.0034722
        k(   99) = (   0.1666667   0.0000000   0.0000000), wk =   0.0034722
        k(  100) = (   0.1666667   0.0626672   0.0000000), wk =   0.0034722
        k(  101) = (   0.1666667   0.1253345   0.0000000), wk =   0.0034722
        k(  102) = (   0.1666667   0.1880017   0.0000000), wk =   0.0034722
        k(  103) = (   0.1666667   0.2506689   0.0000000), wk =   0.0034722
        k(  104) = (   0.1666667   0.3133362   0.0000000), wk =   0.0034722
        k(  105) = (   0.1666667   0.3760034   0.0000000), wk =   0.0034722
        k(  106) = (   0.1666667   0.4386706   0.0000000), wk =   0.0034722
        k(  107) = (   0.1666667   0.5013378   0.0000000), wk =   0.0034722
        k(  108) = (   0.1666667   0.5640051   0.0000000), wk =   0.0034722
        k(  109) = (   0.1666667  -0.8773412   0.0000000), wk =   0.0034722
        k(  110) = (   0.1666667  -0.8146739   0.0000000), wk =   0.0034722
        k(  111) = (   0.1666667  -0.7520067   0.0000000), wk =   0.0034722
        k(  112) = (   0.1666667  -0.6893395   0.0000000), wk =   0.0034722
        k(  113) = (   0.1666667  -0.6266723   0.0000000), wk =   0.0034722
        k(  114) = (   0.1666667  -0.5640050   0.0000000), wk =   0.0034722
        k(  115) = (   0.1666667  -0.5013378   0.0000000), wk =   0.0034722
        k(  116) = (   0.1666667  -0.4386706   0.0000000), wk =   0.0034722
        k(  117) = (   0.1666667  -0.3760033   0.0000000), wk =   0.0034722
        k(  118) = (   0.1666667  -0.3133361   0.0000000), wk =   0.0034722
        k(  119) = (   0.1666667  -0.2506689   0.0000000), wk =   0.0034722
        k(  120) = (   0.1666667  -0.1880017   0.0000000), wk =   0.0034722
        k(  121) = (   0.2083333  -0.1566680   0.0000000), wk =   0.0034722
        k(  122) = (   0.2083333  -0.0940008   0.0000000), wk =   0.0034722
        k(  123) = (   0.2083333  -0.0313336   0.0000000), wk =   0.0034722
        k(  124) = (   0.2083333   0.0313336   0.0000000), wk =   0.0034722
        k(  125) = (   0.2083333   0.0940009   0.0000000), wk =   0.0034722
        k(  126) = (   0.2083333   0.1566681   0.0000000), wk =   0.0034722
        k(  127) = (   0.2083333   0.2193353   0.0000000), wk =   0.0034722
        k(  128) = (   0.2083333   0.2820026   0.0000000), wk =   0.0034722
        k(  129) = (   0.2083333   0.3446698   0.0000000), wk =   0.0034722
        k(  130) = (   0.2083333   0.4073370   0.0000000), wk =   0.0034722
        k(  131) = (   0.2083333   0.4700042   0.0000000), wk =   0.0034722
        k(  132) = (   0.2083333   0.5326715   0.0000000), wk =   0.0034722
        k(  133) = (   0.2083333  -0.9086748   0.0000000), wk =   0.0034722
        k(  134) = (   0.2083333  -0.8460075   0.0000000), wk =   0.0034722
        k(  135) = (   0.2083333  -0.7833403   0.0000000), wk =   0.0034722
        k(  136) = (   0.2083333  -0.7206731   0.0000000), wk =   0.0034722
        k(  137) = (   0.2083333  -0.6580059   0.0000000), wk =   0.0034722
        k(  138) = (   0.2083333  -0.5953386   0.0000000), wk =   0.0034722
        k(  139) = (   0.2083333  -0.5326714   0.0000000), wk =   0.0034722
        k(  140) = (   0.2083333  -0.4700042   0.0000000), wk =   0.0034722
        k(  141) = (   0.2083333  -0.4073370   0.0000000), wk =   0.0034722
        k(  142) = (   0.2083333  -0.3446697   0.0000000), wk =   0.0034722
        k(  143) = (   0.2083333  -0.2820025   0.0000000), wk =   0.0034722
        k(  144) = (   0.2083333  -0.2193353   0.0000000), wk =   0.0034722
        k(  145) = (   0.2500000  -0.1880016   0.0000000), wk =   0.0034722
        k(  146) = (   0.2500000  -0.1253344   0.0000000), wk =   0.0034722
        k(  147) = (   0.2500000  -0.0626672   0.0000000), wk =   0.0034722
        k(  148) = (   0.2500000   0.0000000   0.0000000), wk =   0.0034722
        k(  149) = (   0.2500000   0.0626673   0.0000000), wk =   0.0034722
        k(  150) = (   0.2500000   0.1253345   0.0000000), wk =   0.0034722
        k(  151) = (   0.2500000   0.1880017   0.0000000), wk =   0.0034722
        k(  152) = (   0.2500000   0.2506689   0.0000000), wk =   0.0034722
        k(  153) = (   0.2500000   0.3133362   0.0000000), wk =   0.0034722
        k(  154) = (   0.2500000   0.3760034   0.0000000), wk =   0.0034722
        k(  155) = (   0.2500000   0.4386706   0.0000000), wk =   0.0034722
        k(  156) = (   0.2500000   0.5013379   0.0000000), wk =   0.0034722
        k(  157) = (   0.2500000  -0.9400084   0.0000000), wk =   0.0034722
        k(  158) = (   0.2500000  -0.8773412   0.0000000), wk =   0.0034722
        k(  159) = (   0.2500000  -0.8146739   0.0000000), wk =   0.0034722
        k(  160) = (   0.2500000  -0.7520067   0.0000000), wk =   0.0034722
        k(  161) = (   0.2500000  -0.6893395   0.0000000), wk =   0.0034722
        k(  162) = (   0.2500000  -0.6266722   0.0000000), wk =   0.0034722
        k(  163) = (   0.2500000  -0.5640050   0.0000000), wk =   0.0034722
        k(  164) = (   0.2500000  -0.5013378   0.0000000), wk =   0.0034722
        k(  165) = (   0.2500000  -0.4386706   0.0000000), wk =   0.0034722
        k(  166) = (   0.2500000  -0.3760033   0.0000000), wk =   0.0034722
        k(  167) = (   0.2500000  -0.3133361   0.0000000), wk =   0.0034722
        k(  168) = (   0.2500000  -0.2506689   0.0000000), wk =   0.0034722
        k(  169) = (   0.2916667  -0.2193353   0.0000000), wk =   0.0034722
        k(  170) = (   0.2916667  -0.1566680   0.0000000), wk =   0.0034722
        k(  171) = (   0.2916667  -0.0940008   0.0000000), wk =   0.0034722
        k(  172) = (   0.2916667  -0.0313336   0.0000000), wk =   0.0034722
        k(  173) = (   0.2916667   0.0313337   0.0000000), wk =   0.0034722
        k(  174) = (   0.2916667   0.0940009   0.0000000), wk =   0.0034722
        k(  175) = (   0.2916667   0.1566681   0.0000000), wk =   0.0034722
        k(  176) = (   0.2916667   0.2193353   0.0000000), wk =   0.0034722
        k(  177) = (   0.2916667   0.2820026   0.0000000), wk =   0.0034722
        k(  178) = (   0.2916667   0.3446698   0.0000000), wk =   0.0034722
        k(  179) = (   0.2916667   0.4073370   0.0000000), wk =   0.0034722
        k(  180) = (   0.2916667   0.4700042   0.0000000), wk =   0.0034722
        k(  181) = (   0.2916667  -0.9713420   0.0000000), wk =   0.0034722
        k(  182) = (   0.2916667  -0.9086748   0.0000000), wk =   0.0034722
        k(  183) = (   0.2916667  -0.8460075   0.0000000), wk =   0.0034722
        k(  184) = (   0.2916667  -0.7833403   0.0000000), wk =   0.0034722
        k(  185) = (   0.2916667  -0.7206731   0.0000000), wk =   0.0034722
        k(  186) = (   0.2916667  -0.6580059   0.0000000), wk =   0.0034722
        k(  187) = (   0.2916667  -0.5953386   0.0000000), wk =   0.0034722
        k(  188) = (   0.2916667  -0.5326714   0.0000000), wk =   0.0034722
        k(  189) = (   0.2916667  -0.4700042   0.0000000), wk =   0.0034722
        k(  190) = (   0.2916667  -0.4073369   0.0000000), wk =   0.0034722
        k(  191) = (   0.2916667  -0.3446697   0.0000000), wk =   0.0034722
        k(  192) = (   0.2916667  -0.2820025   0.0000000), wk =   0.0034722
        k(  193) = (   0.3333333  -0.2506689   0.0000000), wk =   0.0034722
        k(  194) = (   0.3333333  -0.1880016   0.0000000), wk =   0.0034722
        k(  195) = (   0.3333333  -0.1253344   0.0000000), wk =   0.0034722
        k(  196) = (   0.3333333  -0.0626672   0.0000000), wk =   0.0034722
        k(  197) = (   0.3333333   0.0000000   0.0000000), wk =   0.0034722
        k(  198) = (   0.3333333   0.0626673   0.0000000), wk =   0.0034722
        k(  199) = (   0.3333333   0.1253345   0.0000000), wk =   0.0034722
        k(  200) = (   0.3333333   0.1880017   0.0000000), wk =   0.0034722
        k(  201) = (   0.3333333   0.2506690   0.0000000), wk =   0.0034722
        k(  202) = (   0.3333333   0.3133362   0.0000000), wk =   0.0034722
        k(  203) = (   0.3333333   0.3760034   0.0000000), wk =   0.0034722
        k(  204) = (   0.3333333   0.4386706   0.0000000), wk =   0.0034722
        k(  205) = (   0.3333333  -1.0026756   0.0000000), wk =   0.0034722
        k(  206) = (   0.3333333  -0.9400084   0.0000000), wk =   0.0034722
        k(  207) = (   0.3333333  -0.8773411   0.0000000), wk =   0.0034722
        k(  208) = (   0.3333333  -0.8146739   0.0000000), wk =   0.0034722
        k(  209) = (   0.3333333  -0.7520067   0.0000000), wk =   0.0034722
        k(  210) = (   0.3333333  -0.6893395   0.0000000), wk =   0.0034722
        k(  211) = (   0.3333333  -0.6266722   0.0000000), wk =   0.0034722
        k(  212) = (   0.3333333  -0.5640050   0.0000000), wk =   0.0034722
        k(  213) = (   0.3333333  -0.5013378   0.0000000), wk =   0.0034722
        k(  214) = (   0.3333333  -0.4386705   0.0000000), wk =   0.0034722
        k(  215) = (   0.3333333  -0.3760033   0.0000000), wk =   0.0034722
        k(  216) = (   0.3333333  -0.3133361   0.0000000), wk =   0.0034722
        k(  217) = (   0.3750000  -0.2820025   0.0000000), wk =   0.0034722
        k(  218) = (   0.3750000  -0.2193352   0.0000000), wk =   0.0034722
        k(  219) = (   0.3750000  -0.1566680   0.0000000), wk =   0.0034722
        k(  220) = (   0.3750000  -0.0940008   0.0000000), wk =   0.0034722
        k(  221) = (   0.3750000  -0.0313336   0.0000000), wk =   0.0034722
        k(  222) = (   0.3750000   0.0313337   0.0000000), wk =   0.0034722
        k(  223) = (   0.3750000   0.0940009   0.0000000), wk =   0.0034722
        k(  224) = (   0.3750000   0.1566681   0.0000000), wk =   0.0034722
        k(  225) = (   0.3750000   0.2193353   0.0000000), wk =   0.0034722
        k(  226) = (   0.3750000   0.2820026   0.0000000), wk =   0.0034722
        k(  227) = (   0.3750000   0.3446698   0.0000000), wk =   0.0034722
        k(  228) = (   0.3750000   0.4073370   0.0000000), wk =   0.0034722
        k(  229) = (   0.3750000  -1.0340092   0.0000000), wk =   0.0034722
        k(  230) = (   0.3750000  -0.9713420   0.0000000), wk =   0.0034722
        k(  231) = (   0.3750000  -0.9086747   0.0000000), wk =   0.0034722
        k(  232) = (   0.3750000  -0.8460075   0.0000000), wk =   0.0034722
        k(  233) = (   0.3750000  -0.7833403   0.0000000), wk =   0.0034722
        k(  234) = (   0.3750000  -0.7206731   0.0000000), wk =   0.0034722
        k(  235) = (   0.3750000  -0.6580058   0.0000000), wk =   0.0034722
        k(  236) = (   0.3750000  -0.5953386   0.0000000), wk =   0.0034722
        k(  237) = (   0.3750000  -0.5326714   0.0000000), wk =   0.0034722
        k(  238) = (   0.3750000  -0.4700042   0.0000000), wk =   0.0034722
        k(  239) = (   0.3750000  -0.4073369   0.0000000), wk =   0.0034722
        k(  240) = (   0.3750000  -0.3446697   0.0000000), wk =   0.0034722
        k(  241) = (   0.4166667  -0.3133361   0.0000000), wk =   0.0034722
        k(  242) = (   0.4166667  -0.2506689   0.0000000), wk =   0.0034722
        k(  243) = (   0.4166667  -0.1880016   0.0000000), wk =   0.0034722
        k(  244) = (   0.4166667  -0.1253344   0.0000000), wk =   0.0034722
        k(  245) = (   0.4166667  -0.0626672   0.0000000), wk =   0.0034722
        k(  246) = (   0.4166667   0.0000001   0.0000000), wk =   0.0034722
        k(  247) = (   0.4166667   0.0626673   0.0000000), wk =   0.0034722
        k(  248) = (   0.4166667   0.1253345   0.0000000), wk =   0.0034722
        k(  249) = (   0.4166667   0.1880017   0.0000000), wk =   0.0034722
        k(  250) = (   0.4166667   0.2506690   0.0000000), wk =   0.0034722
        k(  251) = (   0.4166667   0.3133362   0.0000000), wk =   0.0034722
        k(  252) = (   0.4166667   0.3760034   0.0000000), wk =   0.0034722
        k(  253) = (   0.4166667  -1.0653428   0.0000000), wk =   0.0034722
        k(  254) = (   0.4166667  -1.0026756   0.0000000), wk =   0.0034722
        k(  255) = (   0.4166667  -0.9400084   0.0000000), wk =   0.0034722
        k(  256) = (   0.4166667  -0.8773411   0.0000000), wk =   0.0034722
        k(  257) = (   0.4166667  -0.8146739   0.0000000), wk =   0.0034722
        k(  258) = (   0.4166667  -0.7520067   0.0000000), wk =   0.0034722
        k(  259) = (   0.4166667  -0.6893394   0.0000000), wk =   0.0034722
        k(  260) = (   0.4166667  -0.6266722   0.0000000), wk =   0.0034722
        k(  261) = (   0.4166667  -0.5640050   0.0000000), wk =   0.0034722
        k(  262) = (   0.4166667  -0.5013378   0.0000000), wk =   0.0034722
        k(  263) = (   0.4166667  -0.4386705   0.0000000), wk =   0.0034722
        k(  264) = (   0.4166667  -0.3760033   0.0000000), wk =   0.0034722
        k(  265) = (   0.4583333  -0.3446697   0.0000000), wk =   0.0034722
        k(  266) = (   0.4583333  -0.2820025   0.0000000), wk =   0.0034722
        k(  267) = (   0.4583333  -0.2193352   0.0000000), wk =   0.0034722
        k(  268) = (   0.4583333  -0.1566680   0.0000000), wk =   0.0034722
        k(  269) = (   0.4583333  -0.0940008   0.0000000), wk =   0.0034722
        k(  270) = (   0.4583333  -0.0313336   0.0000000), wk =   0.0034722
        k(  271) = (   0.4583333   0.0313337   0.0000000), wk =   0.0034722
        k(  272) = (   0.4583333   0.0940009   0.0000000), wk =   0.0034722
        k(  273) = (   0.4583333   0.1566681   0.0000000), wk =   0.0034722
        k(  274) = (   0.4583333   0.2193354   0.0000000), wk =   0.0034722
        k(  275) = (   0.4583333   0.2820026   0.0000000), wk =   0.0034722
        k(  276) = (   0.4583333   0.3446698   0.0000000), wk =   0.0034722
        k(  277) = (   0.4583333  -1.0966764   0.0000000), wk =   0.0034722
        k(  278) = (   0.4583333  -1.0340092   0.0000000), wk =   0.0034722
        k(  279) = (   0.4583333  -0.9713420   0.0000000), wk =   0.0034722
        k(  280) = (   0.4583333  -0.9086747   0.0000000), wk =   0.0034722
        k(  281) = (   0.4583333  -0.8460075   0.0000000), wk =   0.0034722
        k(  282) = (   0.4583333  -0.7833403   0.0000000), wk =   0.0034722
        k(  283) = (   0.4583333  -0.7206731   0.0000000), wk =   0.0034722
        k(  284) = (   0.4583333  -0.6580058   0.0000000), wk =   0.0034722
        k(  285) = (   0.4583333  -0.5953386   0.0000000), wk =   0.0034722
        k(  286) = (   0.4583333  -0.5326714   0.0000000), wk =   0.0034722
        k(  287) = (   0.4583333  -0.4700041   0.0000000), wk =   0.0034722
        k(  288) = (   0.4583333  -0.4073369   0.0000000), wk =   0.0034722
        k(  289) = (  -0.5000000   0.3760033   0.0000000), wk =   0.0034722
        k(  290) = (  -0.5000000   0.4386705   0.0000000), wk =   0.0034722
        k(  291) = (  -0.5000000   0.5013378   0.0000000), wk =   0.0034722
        k(  292) = (  -0.5000000   0.5640050   0.0000000), wk =   0.0034722
        k(  293) = (  -0.5000000   0.6266722   0.0000000), wk =   0.0034722
        k(  294) = (  -0.5000000   0.6893394   0.0000000), wk =   0.0034722
        k(  295) = (  -0.5000000   0.7520067   0.0000000), wk =   0.0034722
        k(  296) = (  -0.5000000   0.8146739   0.0000000), wk =   0.0034722
        k(  297) = (  -0.5000000   0.8773411   0.0000000), wk =   0.0034722
        k(  298) = (  -0.5000000   0.9400083   0.0000000), wk =   0.0034722
        k(  299) = (  -0.5000000   1.0026756   0.0000000), wk =   0.0034722
        k(  300) = (  -0.5000000   1.0653428   0.0000000), wk =   0.0034722
        k(  301) = (  -0.5000000  -0.3760034   0.0000000), wk =   0.0034722
        k(  302) = (  -0.5000000  -0.3133362   0.0000000), wk =   0.0034722
        k(  303) = (  -0.5000000  -0.2506690   0.0000000), wk =   0.0034722
        k(  304) = (  -0.5000000  -0.1880017   0.0000000), wk =   0.0034722
        k(  305) = (  -0.5000000  -0.1253345   0.0000000), wk =   0.0034722
        k(  306) = (  -0.5000000  -0.0626673   0.0000000), wk =   0.0034722
        k(  307) = (  -0.5000000  -0.0000001   0.0000000), wk =   0.0034722
        k(  308) = (  -0.5000000   0.0626672   0.0000000), wk =   0.0034722
        k(  309) = (  -0.5000000   0.1253344   0.0000000), wk =   0.0034722
        k(  310) = (  -0.5000000   0.1880016   0.0000000), wk =   0.0034722
        k(  311) = (  -0.5000000   0.2506688   0.0000000), wk =   0.0034722
        k(  312) = (  -0.5000000   0.3133361   0.0000000), wk =   0.0034722
        k(  313) = (  -0.4583333   0.3446697   0.0000000), wk =   0.0034722
        k(  314) = (  -0.4583333   0.4073369   0.0000000), wk =   0.0034722
        k(  315) = (  -0.4583333   0.4700041   0.0000000), wk =   0.0034722
        k(  316) = (  -0.4583333   0.5326714   0.0000000), wk =   0.0034722
        k(  317) = (  -0.4583333   0.5953386   0.0000000), wk =   0.0034722
        k(  318) = (  -0.4583333   0.6580058   0.0000000), wk =   0.0034722
        k(  319) = (  -0.4583333   0.7206731   0.0000000), wk =   0.0034722
        k(  320) = (  -0.4583333   0.7833403   0.0000000), wk =   0.0034722
        k(  321) = (  -0.4583333   0.8460075   0.0000000), wk =   0.0034722
        k(  322) = (  -0.4583333   0.9086747   0.0000000), wk =   0.0034722
        k(  323) = (  -0.4583333   0.9713420   0.0000000), wk =   0.0034722
        k(  324) = (  -0.4583333   1.0340092   0.0000000), wk =   0.0034722
        k(  325) = (  -0.4583333  -0.4073370   0.0000000), wk =   0.0034722
        k(  326) = (  -0.4583333  -0.3446698   0.0000000), wk =   0.0034722
        k(  327) = (  -0.4583333  -0.2820026   0.0000000), wk =   0.0034722
        k(  328) = (  -0.4583333  -0.2193354   0.0000000), wk =   0.0034722
        k(  329) = (  -0.4583333  -0.1566681   0.0000000), wk =   0.0034722
        k(  330) = (  -0.4583333  -0.0940009   0.0000000), wk =   0.0034722
        k(  331) = (  -0.4583333  -0.0313337   0.0000000), wk =   0.0034722
        k(  332) = (  -0.4583333   0.0313336   0.0000000), wk =   0.0034722
        k(  333) = (  -0.4583333   0.0940008   0.0000000), wk =   0.0034722
        k(  334) = (  -0.4583333   0.1566680   0.0000000), wk =   0.0034722
        k(  335) = (  -0.4583333   0.2193352   0.0000000), wk =   0.0034722
        k(  336) = (  -0.4583333   0.2820025   0.0000000), wk =   0.0034722
        k(  337) = (  -0.4166667   0.3133361   0.0000000), wk =   0.0034722
        k(  338) = (  -0.4166667   0.3760033   0.0000000), wk =   0.0034722
        k(  339) = (  -0.4166667   0.4386705   0.0000000), wk =   0.0034722
        k(  340) = (  -0.4166667   0.5013378   0.0000000), wk =   0.0034722
        k(  341) = (  -0.4166667   0.5640050   0.0000000), wk =   0.0034722
        k(  342) = (  -0.4166667   0.6266722   0.0000000), wk =   0.0034722
        k(  343) = (  -0.4166667   0.6893394   0.0000000), wk =   0.0034722
        k(  344) = (  -0.4166667   0.7520067   0.0000000), wk =   0.0034722
        k(  345) = (  -0.4166667   0.8146739   0.0000000), wk =   0.0034722
        k(  346) = (  -0.4166667   0.8773411   0.0000000), wk =   0.0034722
        k(  347) = (  -0.4166667   0.9400084   0.0000000), wk =   0.0034722
        k(  348) = (  -0.4166667   1.0026756   0.0000000), wk =   0.0034722
        k(  349) = (  -0.4166667  -0.4386706   0.0000000), wk =   0.0034722
        k(  350) = (  -0.4166667  -0.3760034   0.0000000), wk =   0.0034722
        k(  351) = (  -0.4166667  -0.3133362   0.0000000), wk =   0.0034722
        k(  352) = (  -0.4166667  -0.2506690   0.0000000), wk =   0.0034722
        k(  353) = (  -0.4166667  -0.1880017   0.0000000), wk =   0.0034722
        k(  354) = (  -0.4166667  -0.1253345   0.0000000), wk =   0.0034722
        k(  355) = (  -0.4166667  -0.0626673   0.0000000), wk =   0.0034722
        k(  356) = (  -0.4166667  -0.0000001   0.0000000), wk =   0.0034722
        k(  357) = (  -0.4166667   0.0626672   0.0000000), wk =   0.0034722
        k(  358) = (  -0.4166667   0.1253344   0.0000000), wk =   0.0034722
        k(  359) = (  -0.4166667   0.1880016   0.0000000), wk =   0.0034722
        k(  360) = (  -0.4166667   0.2506689   0.0000000), wk =   0.0034722
        k(  361) = (  -0.3750000   0.2820025   0.0000000), wk =   0.0034722
        k(  362) = (  -0.3750000   0.3446697   0.0000000), wk =   0.0034722
        k(  363) = (  -0.3750000   0.4073369   0.0000000), wk =   0.0034722
        k(  364) = (  -0.3750000   0.4700042   0.0000000), wk =   0.0034722
        k(  365) = (  -0.3750000   0.5326714   0.0000000), wk =   0.0034722
        k(  366) = (  -0.3750000   0.5953386   0.0000000), wk =   0.0034722
        k(  367) = (  -0.3750000   0.6580058   0.0000000), wk =   0.0034722
        k(  368) = (  -0.3750000   0.7206731   0.0000000), wk =   0.0034722
        k(  369) = (  -0.3750000   0.7833403   0.0000000), wk =   0.0034722
        k(  370) = (  -0.3750000   0.8460075   0.0000000), wk =   0.0034722
        k(  371) = (  -0.3750000   0.9086747   0.0000000), wk =   0.0034722
        k(  372) = (  -0.3750000   0.9713420   0.0000000), wk =   0.0034722
        k(  373) = (  -0.3750000  -0.4700043   0.0000000), wk =   0.0034722
        k(  374) = (  -0.3750000  -0.4073370   0.0000000), wk =   0.0034722
        k(  375) = (  -0.3750000  -0.3446698   0.0000000), wk =   0.0034722
        k(  376) = (  -0.3750000  -0.2820026   0.0000000), wk =   0.0034722
        k(  377) = (  -0.3750000  -0.2193353   0.0000000), wk =   0.0034722
        k(  378) = (  -0.3750000  -0.1566681   0.0000000), wk =   0.0034722
        k(  379) = (  -0.3750000  -0.0940009   0.0000000), wk =   0.0034722
        k(  380) = (  -0.3750000  -0.0313337   0.0000000), wk =   0.0034722
        k(  381) = (  -0.3750000   0.0313336   0.0000000), wk =   0.0034722
        k(  382) = (  -0.3750000   0.0940008   0.0000000), wk =   0.0034722
        k(  383) = (  -0.3750000   0.1566680   0.0000000), wk =   0.0034722
        k(  384) = (  -0.3750000   0.2193352   0.0000000), wk =   0.0034722
        k(  385) = (  -0.3333333   0.2506689   0.0000000), wk =   0.0034722
        k(  386) = (  -0.3333333   0.3133361   0.0000000), wk =   0.0034722
        k(  387) = (  -0.3333333   0.3760033   0.0000000), wk =   0.0034722
        k(  388) = (  -0.3333333   0.4386705   0.0000000), wk =   0.0034722
        k(  389) = (  -0.3333333   0.5013378   0.0000000), wk =   0.0034722
        k(  390) = (  -0.3333333   0.5640050   0.0000000), wk =   0.0034722
        k(  391) = (  -0.3333333   0.6266722   0.0000000), wk =   0.0034722
        k(  392) = (  -0.3333333   0.6893395   0.0000000), wk =   0.0034722
        k(  393) = (  -0.3333333   0.7520067   0.0000000), wk =   0.0034722
        k(  394) = (  -0.3333333   0.8146739   0.0000000), wk =   0.0034722
        k(  395) = (  -0.3333333   0.8773411   0.0000000), wk =   0.0034722
        k(  396) = (  -0.3333333   0.9400084   0.0000000), wk =   0.0034722
        k(  397) = (  -0.3333333  -0.5013379   0.0000000), wk =   0.0034722
        k(  398) = (  -0.3333333  -0.4386706   0.0000000), wk =   0.0034722
        k(  399) = (  -0.3333333  -0.3760034   0.0000000), wk =   0.0034722
        k(  400) = (  -0.3333333  -0.3133362   0.0000000), wk =   0.0034722
        k(  401) = (  -0.3333333  -0.2506690   0.0000000), wk =   0.0034722
        k(  402) = (  -0.3333333  -0.1880017   0.0000000), wk =   0.0034722
        k(  403) = (  -0.3333333  -0.1253345   0.0000000), wk =   0.0034722
        k(  404) = (  -0.3333333  -0.0626673   0.0000000), wk =   0.0034722
        k(  405) = (  -0.3333333  -0.0000000   0.0000000), wk =   0.0034722
        k(  406) = (  -0.3333333   0.0626672   0.0000000), wk =   0.0034722
        k(  407) = (  -0.3333333   0.1253344   0.0000000), wk =   0.0034722
        k(  408) = (  -0.3333333   0.1880016   0.0000000), wk =   0.0034722
        k(  409) = (  -0.2916667   0.2193353   0.0000000), wk =   0.0034722
        k(  410) = (  -0.2916667   0.2820025   0.0000000), wk =   0.0034722
        k(  411) = (  -0.2916667   0.3446697   0.0000000), wk =   0.0034722
        k(  412) = (  -0.2916667   0.4073369   0.0000000), wk =   0.0034722
        k(  413) = (  -0.2916667   0.4700042   0.0000000), wk =   0.0034722
        k(  414) = (  -0.2916667   0.5326714   0.0000000), wk =   0.0034722
        k(  415) = (  -0.2916667   0.5953386   0.0000000), wk =   0.0034722
        k(  416) = (  -0.2916667   0.6580059   0.0000000), wk =   0.0034722
        k(  417) = (  -0.2916667   0.7206731   0.0000000), wk =   0.0034722
        k(  418) = (  -0.2916667   0.7833403   0.0000000), wk =   0.0034722
        k(  419) = (  -0.2916667   0.8460075   0.0000000), wk =   0.0034722
        k(  420) = (  -0.2916667   0.9086748   0.0000000), wk =   0.0034722
        k(  421) = (  -0.2916667  -0.5326715   0.0000000), wk =   0.0034722
        k(  422) = (  -0.2916667  -0.4700042   0.0000000), wk =   0.0034722
        k(  423) = (  -0.2916667  -0.4073370   0.0000000), wk =   0.0034722
        k(  424) = (  -0.2916667  -0.3446698   0.0000000), wk =   0.0034722
        k(  425) = (  -0.2916667  -0.2820026   0.0000000), wk =   0.0034722
        k(  426) = (  -0.2916667  -0.2193353   0.0000000), wk =   0.0034722
        k(  427) = (  -0.2916667  -0.1566681   0.0000000), wk =   0.0034722
        k(  428) = (  -0.2916667  -0.0940009   0.0000000), wk =   0.0034722
        k(  429) = (  -0.2916667  -0.0313337   0.0000000), wk =   0.0034722
        k(  430) = (  -0.2916667   0.0313336   0.0000000), wk =   0.0034722
        k(  431) = (  -0.2916667   0.0940008   0.0000000), wk =   0.0034722
        k(  432) = (  -0.2916667   0.1566680   0.0000000), wk =   0.0034722
        k(  433) = (  -0.2500000   0.1880016   0.0000000), wk =   0.0034722
        k(  434) = (  -0.2500000   0.2506689   0.0000000), wk =   0.0034722
        k(  435) = (  -0.2500000   0.3133361   0.0000000), wk =   0.0034722
        k(  436) = (  -0.2500000   0.3760033   0.0000000), wk =   0.0034722
        k(  437) = (  -0.2500000   0.4386706   0.0000000), wk =   0.0034722
        k(  438) = (  -0.2500000   0.5013378   0.0000000), wk =   0.0034722
        k(  439) = (  -0.2500000   0.5640050   0.0000000), wk =   0.0034722
        k(  440) = (  -0.2500000   0.6266722   0.0000000), wk =   0.0034722
        k(  441) = (  -0.2500000   0.6893395   0.0000000), wk =   0.0034722
        k(  442) = (  -0.2500000   0.7520067   0.0000000), wk =   0.0034722
        k(  443) = (  -0.2500000   0.8146739   0.0000000), wk =   0.0034722
        k(  444) = (  -0.2500000   0.8773412   0.0000000), wk =   0.0034722
        k(  445) = (  -0.2500000  -0.5640051   0.0000000), wk =   0.0034722
        k(  446) = (  -0.2500000  -0.5013379   0.0000000), wk =   0.0034722
        k(  447) = (  -0.2500000  -0.4386706   0.0000000), wk =   0.0034722
        k(  448) = (  -0.2500000  -0.3760034   0.0000000), wk =   0.0034722
        k(  449) = (  -0.2500000  -0.3133362   0.0000000), wk =   0.0034722
        k(  450) = (  -0.2500000  -0.2506689   0.0000000), wk =   0.0034722
        k(  451) = (  -0.2500000  -0.1880017   0.0000000), wk =   0.0034722
        k(  452) = (  -0.2500000  -0.1253345   0.0000000), wk =   0.0034722
        k(  453) = (  -0.2500000  -0.0626673   0.0000000), wk =   0.0034722
        k(  454) = (  -0.2500000  -0.0000000   0.0000000), wk =   0.0034722
        k(  455) = (  -0.2500000   0.0626672   0.0000000), wk =   0.0034722
        k(  456) = (  -0.2500000   0.1253344   0.0000000), wk =   0.0034722
        k(  457) = (  -0.2083333   0.1566680   0.0000000), wk =   0.0034722
        k(  458) = (  -0.2083333   0.2193353   0.0000000), wk =   0.0034722
        k(  459) = (  -0.2083333   0.2820025   0.0000000), wk =   0.0034722
        k(  460) = (  -0.2083333   0.3446697   0.0000000), wk =   0.0034722
        k(  461) = (  -0.2083333   0.4073370   0.0000000), wk =   0.0034722
        k(  462) = (  -0.2083333   0.4700042   0.0000000), wk =   0.0034722
        k(  463) = (  -0.2083333   0.5326714   0.0000000), wk =   0.0034722
        k(  464) = (  -0.2083333   0.5953386   0.0000000), wk =   0.0034722
        k(  465) = (  -0.2083333   0.6580059   0.0000000), wk =   0.0034722
        k(  466) = (  -0.2083333   0.7206731   0.0000000), wk =   0.0034722
        k(  467) = (  -0.2083333   0.7833403   0.0000000), wk =   0.0034722
        k(  468) = (  -0.2083333   0.8460075   0.0000000), wk =   0.0034722
        k(  469) = (  -0.2083333  -0.5953387   0.0000000), wk =   0.0034722
        k(  470) = (  -0.2083333  -0.5326715   0.0000000), wk =   0.0034722
        k(  471) = (  -0.2083333  -0.4700042   0.0000000), wk =   0.0034722
        k(  472) = (  -0.2083333  -0.4073370   0.0000000), wk =   0.0034722
        k(  473) = (  -0.2083333  -0.3446698   0.0000000), wk =   0.0034722
        k(  474) = (  -0.2083333  -0.2820026   0.0000000), wk =   0.0034722
        k(  475) = (  -0.2083333  -0.2193353   0.0000000), wk =   0.0034722
        k(  476) = (  -0.2083333  -0.1566681   0.0000000), wk =   0.0034722
        k(  477) = (  -0.2083333  -0.0940009   0.0000000), wk =   0.0034722
        k(  478) = (  -0.2083333  -0.0313336   0.0000000), wk =   0.0034722
        k(  479) = (  -0.2083333   0.0313336   0.0000000), wk =   0.0034722
        k(  480) = (  -0.2083333   0.0940008   0.0000000), wk =   0.0034722
        k(  481) = (  -0.1666667   0.1253344   0.0000000), wk =   0.0034722
        k(  482) = (  -0.1666667   0.1880017   0.0000000), wk =   0.0034722
        k(  483) = (  -0.1666667   0.2506689   0.0000000), wk =   0.0034722
        k(  484) = (  -0.1666667   0.3133361   0.0000000), wk =   0.0034722
        k(  485) = (  -0.1666667   0.3760033   0.0000000), wk =   0.0034722
        k(  486) = (  -0.1666667   0.4386706   0.0000000), wk =   0.0034722
        k(  487) = (  -0.1666667   0.5013378   0.0000000), wk =   0.0034722
        k(  488) = (  -0.1666667   0.5640050   0.0000000), wk =   0.0034722
        k(  489) = (  -0.1666667   0.6266723   0.0000000), wk =   0.0034722
        k(  490) = (  -0.1666667   0.6893395   0.0000000), wk =   0.0034722
        k(  491) = (  -0.1666667   0.7520067   0.0000000), wk =   0.0034722
        k(  492) = (  -0.1666667   0.8146739   0.0000000), wk =   0.0034722
        k(  493) = (  -0.1666667  -0.6266723   0.0000000), wk =   0.0034722
        k(  494) = (  -0.1666667  -0.5640051   0.0000000), wk =   0.0034722
        k(  495) = (  -0.1666667  -0.5013378   0.0000000), wk =   0.0034722
        k(  496) = (  -0.1666667  -0.4386706   0.0000000), wk =   0.0034722
        k(  497) = (  -0.1666667  -0.3760034   0.0000000), wk =   0.0034722
        k(  498) = (  -0.1666667  -0.3133362   0.0000000), wk =   0.0034722
        k(  499) = (  -0.1666667  -0.2506689   0.0000000), wk =   0.0034722
        k(  500) = (  -0.1666667  -0.1880017   0.0000000), wk =   0.0034722
        k(  501) = (  -0.1666667  -0.1253345   0.0000000), wk =   0.0034722
        k(  502) = (  -0.1666667  -0.0626672   0.0000000), wk =   0.0034722
        k(  503) = (  -0.1666667  -0.0000000   0.0000000), wk =   0.0034722
        k(  504) = (  -0.1666667   0.0626672   0.0000000), wk =   0.0034722
        k(  505) = (  -0.1250000   0.0940008   0.0000000), wk =   0.0034722
        k(  506) = (  -0.1250000   0.1566681   0.0000000), wk =   0.0034722
        k(  507) = (  -0.1250000   0.2193353   0.0000000), wk =   0.0034722
        k(  508) = (  -0.1250000   0.2820025   0.0000000), wk =   0.0034722
        k(  509) = (  -0.1250000   0.3446697   0.0000000), wk =   0.0034722
        k(  510) = (  -0.1250000   0.4073370   0.0000000), wk =   0.0034722
        k(  511) = (  -0.1250000   0.4700042   0.0000000), wk =   0.0034722
        k(  512) = (  -0.1250000   0.5326714   0.0000000), wk =   0.0034722
        k(  513) = (  -0.1250000   0.5953386   0.0000000), wk =   0.0034722
        k(  514) = (  -0.1250000   0.6580059   0.0000000), wk =   0.0034722
        k(  515) = (  -0.1250000   0.7206731   0.0000000), wk =   0.0034722
        k(  516) = (  -0.1250000   0.7833403   0.0000000), wk =   0.0034722
        k(  517) = (  -0.1250000  -0.6580059   0.0000000), wk =   0.0034722
        k(  518) = (  -0.1250000  -0.5953387   0.0000000), wk =   0.0034722
        k(  519) = (  -0.1250000  -0.5326714   0.0000000), wk =   0.0034722
        k(  520) = (  -0.1250000  -0.4700042   0.0000000), wk =   0.0034722
        k(  521) = (  -0.1250000  -0.4073370   0.0000000), wk =   0.0034722
        k(  522) = (  -0.1250000  -0.3446698   0.0000000), wk =   0.0034722
        k(  523) = (  -0.1250000  -0.2820025   0.0000000), wk =   0.0034722
        k(  524) = (  -0.1250000  -0.2193353   0.0000000), wk =   0.0034722
        k(  525) = (  -0.1250000  -0.1566681   0.0000000), wk =   0.0034722
        k(  526) = (  -0.1250000  -0.0940009   0.0000000), wk =   0.0034722
        k(  527) = (  -0.1250000  -0.0313336   0.0000000), wk =   0.0034722
        k(  528) = (  -0.1250000   0.0313336   0.0000000), wk =   0.0034722
        k(  529) = (  -0.0833333   0.0626672   0.0000000), wk =   0.0034722
        k(  530) = (  -0.0833333   0.1253344   0.0000000), wk =   0.0034722
        k(  531) = (  -0.0833333   0.1880017   0.0000000), wk =   0.0034722
        k(  532) = (  -0.0833333   0.2506689   0.0000000), wk =   0.0034722
        k(  533) = (  -0.0833333   0.3133361   0.0000000), wk =   0.0034722
        k(  534) = (  -0.0833333   0.3760034   0.0000000), wk =   0.0034722
        k(  535) = (  -0.0833333   0.4386706   0.0000000), wk =   0.0034722
        k(  536) = (  -0.0833333   0.5013378   0.0000000), wk =   0.0034722
        k(  537) = (  -0.0833333   0.5640050   0.0000000), wk =   0.0034722
        k(  538) = (  -0.0833333   0.6266723   0.0000000), wk =   0.0034722
        k(  539) = (  -0.0833333   0.6893395   0.0000000), wk =   0.0034722
        k(  540) = (  -0.0833333   0.7520067   0.0000000), wk =   0.0034722
        k(  541) = (  -0.0833333  -0.6893395   0.0000000), wk =   0.0034722
        k(  542) = (  -0.0833333  -0.6266723   0.0000000), wk =   0.0034722
        k(  543) = (  -0.0833333  -0.5640051   0.0000000), wk =   0.0034722
        k(  544) = (  -0.0833333  -0.5013378   0.0000000), wk =   0.0034722
        k(  545) = (  -0.0833333  -0.4386706   0.0000000), wk =   0.0034722
        k(  546) = (  -0.0833333  -0.3760034   0.0000000), wk =   0.0034722
        k(  547) = (  -0.0833333  -0.3133361   0.0000000), wk =   0.0034722
        k(  548) = (  -0.0833333  -0.2506689   0.0000000), wk =   0.0034722
        k(  549) = (  -0.0833333  -0.1880017   0.0000000), wk =   0.0034722
        k(  550) = (  -0.0833333  -0.1253345   0.0000000), wk =   0.0034722
        k(  551) = (  -0.0833333  -0.0626672   0.0000000), wk =   0.0034722
        k(  552) = (  -0.0833333  -0.0000000   0.0000000), wk =   0.0034722
        k(  553) = (  -0.0416667   0.0313336   0.0000000), wk =   0.0034722
        k(  554) = (  -0.0416667   0.0940008   0.0000000), wk =   0.0034722
        k(  555) = (  -0.0416667   0.1566681   0.0000000), wk =   0.0034722
        k(  556) = (  -0.0416667   0.2193353   0.0000000), wk =   0.0034722
        k(  557) = (  -0.0416667   0.2820025   0.0000000), wk =   0.0034722
        k(  558) = (  -0.0416667   0.3446697   0.0000000), wk =   0.0034722
        k(  559) = (  -0.0416667   0.4073370   0.0000000), wk =   0.0034722
        k(  560) = (  -0.0416667   0.4700042   0.0000000), wk =   0.0034722
        k(  561) = (  -0.0416667   0.5326714   0.0000000), wk =   0.0034722
        k(  562) = (  -0.0416667   0.5953387   0.0000000), wk =   0.0034722
        k(  563) = (  -0.0416667   0.6580059   0.0000000), wk =   0.0034722
        k(  564) = (  -0.0416667   0.7206731   0.0000000), wk =   0.0034722
        k(  565) = (  -0.0416667  -0.7206731   0.0000000), wk =   0.0034722
        k(  566) = (  -0.0416667  -0.6580059   0.0000000), wk =   0.0034722
        k(  567) = (  -0.0416667  -0.5953387   0.0000000), wk =   0.0034722
        k(  568) = (  -0.0416667  -0.5326714   0.0000000), wk =   0.0034722
        k(  569) = (  -0.0416667  -0.4700042   0.0000000), wk =   0.0034722
        k(  570) = (  -0.0416667  -0.4073370   0.0000000), wk =   0.0034722
        k(  571) = (  -0.0416667  -0.3446698   0.0000000), wk =   0.0034722
        k(  572) = (  -0.0416667  -0.2820025   0.0000000), wk =   0.0034722
        k(  573) = (  -0.0416667  -0.2193353   0.0000000), wk =   0.0034722
        k(  574) = (  -0.0416667  -0.1566681   0.0000000), wk =   0.0034722
        k(  575) = (  -0.0416667  -0.0940008   0.0000000), wk =   0.0034722
        k(  576) = (  -0.0416667  -0.0313336   0.0000000), wk =   0.0034722

                       cryst. coord.
        k(    1) = (   0.0000000   0.0000000   0.0000000), wk =   0.0034722
        k(    2) = (   0.0000000   0.0416667   0.0000000), wk =   0.0034722
        k(    3) = (   0.0000000   0.0833333   0.0000000), wk =   0.0034722
        k(    4) = (   0.0000000   0.1250000   0.0000000), wk =   0.0034722
        k(    5) = (   0.0000000   0.1666667   0.0000000), wk =   0.0034722
        k(    6) = (   0.0000000   0.2083333   0.0000000), wk =   0.0034722
        k(    7) = (   0.0000000   0.2500000   0.0000000), wk =   0.0034722
        k(    8) = (   0.0000000   0.2916667   0.0000000), wk =   0.0034722
        k(    9) = (   0.0000000   0.3333333   0.0000000), wk =   0.0034722
        k(   10) = (   0.0000000   0.3750000   0.0000000), wk =   0.0034722
        k(   11) = (   0.0000000   0.4166667   0.0000000), wk =   0.0034722
        k(   12) = (   0.0000000   0.4583333   0.0000000), wk =   0.0034722
        k(   13) = (   0.0000000  -0.5000000   0.0000000), wk =   0.0034722
        k(   14) = (   0.0000000  -0.4583333   0.0000000), wk =   0.0034722
        k(   15) = (   0.0000000  -0.4166667   0.0000000), wk =   0.0034722
        k(   16) = (   0.0000000  -0.3750000   0.0000000), wk =   0.0034722
        k(   17) = (   0.0000000  -0.3333333   0.0000000), wk =   0.0034722
        k(   18) = (   0.0000000  -0.2916667   0.0000000), wk =   0.0034722
        k(   19) = (   0.0000000  -0.2500000   0.0000000), wk =   0.0034722
        k(   20) = (   0.0000000  -0.2083333   0.0000000), wk =   0.0034722
        k(   21) = (   0.0000000  -0.1666667   0.0000000), wk =   0.0034722
        k(   22) = (   0.0000000  -0.1250000   0.0000000), wk =   0.0034722
        k(   23) = (   0.0000000  -0.0833333   0.0000000), wk =   0.0034722
        k(   24) = (   0.0000000  -0.0416667   0.0000000), wk =   0.0034722
        k(   25) = (   0.0416667   0.0000000   0.0000000), wk =   0.0034722
        k(   26) = (   0.0416667   0.0416667   0.0000000), wk =   0.0034722
        k(   27) = (   0.0416667   0.0833333   0.0000000), wk =   0.0034722
        k(   28) = (   0.0416667   0.1250000   0.0000000), wk =   0.0034722
        k(   29) = (   0.0416667   0.1666667   0.0000000), wk =   0.0034722
        k(   30) = (   0.0416667   0.2083333   0.0000000), wk =   0.0034722
        k(   31) = (   0.0416667   0.2500000   0.0000000), wk =   0.0034722
        k(   32) = (   0.0416667   0.2916667   0.0000000), wk =   0.0034722
        k(   33) = (   0.0416667   0.3333333   0.0000000), wk =   0.0034722
        k(   34) = (   0.0416667   0.3750000   0.0000000), wk =   0.0034722
        k(   35) = (   0.0416667   0.4166667   0.0000000), wk =   0.0034722
        k(   36) = (   0.0416667   0.4583333   0.0000000), wk =   0.0034722
        k(   37) = (   0.0416667  -0.5000000   0.0000000), wk =   0.0034722
        k(   38) = (   0.0416667  -0.4583333   0.0000000), wk =   0.0034722
        k(   39) = (   0.0416667  -0.4166667   0.0000000), wk =   0.0034722
        k(   40) = (   0.0416667  -0.3750000   0.0000000), wk =   0.0034722
        k(   41) = (   0.0416667  -0.3333333   0.0000000), wk =   0.0034722
        k(   42) = (   0.0416667  -0.2916667   0.0000000), wk =   0.0034722
        k(   43) = (   0.0416667  -0.2500000   0.0000000), wk =   0.0034722
        k(   44) = (   0.0416667  -0.2083333   0.0000000), wk =   0.0034722
        k(   45) = (   0.0416667  -0.1666667   0.0000000), wk =   0.0034722
        k(   46) = (   0.0416667  -0.1250000   0.0000000), wk =   0.0034722
        k(   47) = (   0.0416667  -0.0833333   0.0000000), wk =   0.0034722
        k(   48) = (   0.0416667  -0.0416667   0.0000000), wk =   0.0034722
        k(   49) = (   0.0833333   0.0000000   0.0000000), wk =   0.0034722
        k(   50) = (   0.0833333   0.0416667   0.0000000), wk =   0.0034722
        k(   51) = (   0.0833333   0.0833333   0.0000000), wk =   0.0034722
        k(   52) = (   0.0833333   0.1250000   0.0000000), wk =   0.0034722
        k(   53) = (   0.0833333   0.1666667   0.0000000), wk =   0.0034722
        k(   54) = (   0.0833333   0.2083333   0.0000000), wk =   0.0034722
        k(   55) = (   0.0833333   0.2500000   0.0000000), wk =   0.0034722
        k(   56) = (   0.0833333   0.2916667   0.0000000), wk =   0.0034722
        k(   57) = (   0.0833333   0.3333333   0.0000000), wk =   0.0034722
        k(   58) = (   0.0833333   0.3750000   0.0000000), wk =   0.0034722
        k(   59) = (   0.0833333   0.4166667   0.0000000), wk =   0.0034722
        k(   60) = (   0.0833333   0.4583333   0.0000000), wk =   0.0034722
        k(   61) = (   0.0833333  -0.5000000   0.0000000), wk =   0.0034722
        k(   62) = (   0.0833333  -0.4583333   0.0000000), wk =   0.0034722
        k(   63) = (   0.0833333  -0.4166667   0.0000000), wk =   0.0034722
        k(   64) = (   0.0833333  -0.3750000   0.0000000), wk =   0.0034722
        k(   65) = (   0.0833333  -0.3333333   0.0000000), wk =   0.0034722
        k(   66) = (   0.0833333  -0.2916667   0.0000000), wk =   0.0034722
        k(   67) = (   0.0833333  -0.2500000   0.0000000), wk =   0.0034722
        k(   68) = (   0.0833333  -0.2083333   0.0000000), wk =   0.0034722
        k(   69) = (   0.0833333  -0.1666667   0.0000000), wk =   0.0034722
        k(   70) = (   0.0833333  -0.1250000   0.0000000), wk =   0.0034722
        k(   71) = (   0.0833333  -0.0833333   0.0000000), wk =   0.0034722
        k(   72) = (   0.0833333  -0.0416667   0.0000000), wk =   0.0034722
        k(   73) = (   0.1250000   0.0000000   0.0000000), wk =   0.0034722
        k(   74) = (   0.1250000   0.0416667   0.0000000), wk =   0.0034722
        k(   75) = (   0.1250000   0.0833333   0.0000000), wk =   0.0034722
        k(   76) = (   0.1250000   0.1250000   0.0000000), wk =   0.0034722
        k(   77) = (   0.1250000   0.1666667   0.0000000), wk =   0.0034722
        k(   78) = (   0.1250000   0.2083333   0.0000000), wk =   0.0034722
        k(   79) = (   0.1250000   0.2500000   0.0000000), wk =   0.0034722
        k(   80) = (   0.1250000   0.2916667   0.0000000), wk =   0.0034722
        k(   81) = (   0.1250000   0.3333333   0.0000000), wk =   0.0034722
        k(   82) = (   0.1250000   0.3750000   0.0000000), wk =   0.0034722
        k(   83) = (   0.1250000   0.4166667   0.0000000), wk =   0.0034722
        k(   84) = (   0.1250000   0.4583333   0.0000000), wk =   0.0034722
        k(   85) = (   0.1250000  -0.5000000   0.0000000), wk =   0.0034722
        k(   86) = (   0.1250000  -0.4583333   0.0000000), wk =   0.0034722
        k(   87) = (   0.1250000  -0.4166667   0.0000000), wk =   0.0034722
        k(   88) = (   0.1250000  -0.3750000   0.0000000), wk =   0.0034722
        k(   89) = (   0.1250000  -0.3333333   0.0000000), wk =   0.0034722
        k(   90) = (   0.1250000  -0.2916667   0.0000000), wk =   0.0034722
        k(   91) = (   0.1250000  -0.2500000   0.0000000), wk =   0.0034722
        k(   92) = (   0.1250000  -0.2083333   0.0000000), wk =   0.0034722
        k(   93) = (   0.1250000  -0.1666667   0.0000000), wk =   0.0034722
        k(   94) = (   0.1250000  -0.1250000   0.0000000), wk =   0.0034722
        k(   95) = (   0.1250000  -0.0833333   0.0000000), wk =   0.0034722
        k(   96) = (   0.1250000  -0.0416667   0.0000000), wk =   0.0034722
        k(   97) = (   0.1666667   0.0000000   0.0000000), wk =   0.0034722
        k(   98) = (   0.1666667   0.0416667   0.0000000), wk =   0.0034722
        k(   99) = (   0.1666667   0.0833333   0.0000000), wk =   0.0034722
        k(  100) = (   0.1666667   0.1250000   0.0000000), wk =   0.0034722
        k(  101) = (   0.1666667   0.1666667   0.0000000), wk =   0.0034722
        k(  102) = (   0.1666667   0.2083333   0.0000000), wk =   0.0034722
        k(  103) = (   0.1666667   0.2500000   0.0000000), wk =   0.0034722
        k(  104) = (   0.1666667   0.2916667   0.0000000), wk =   0.0034722
        k(  105) = (   0.1666667   0.3333333   0.0000000), wk =   0.0034722
        k(  106) = (   0.1666667   0.3750000   0.0000000), wk =   0.0034722
        k(  107) = (   0.1666667   0.4166667   0.0000000), wk =   0.0034722
        k(  108) = (   0.1666667   0.4583333   0.0000000), wk =   0.0034722
        k(  109) = (   0.1666667  -0.5000000   0.0000000), wk =   0.0034722
        k(  110) = (   0.1666667  -0.4583333   0.0000000), wk =   0.0034722
        k(  111) = (   0.1666667  -0.4166667   0.0000000), wk =   0.0034722
        k(  112) = (   0.1666667  -0.3750000   0.0000000), wk =   0.0034722
        k(  113) = (   0.1666667  -0.3333333   0.0000000), wk =   0.0034722
        k(  114) = (   0.1666667  -0.2916667   0.0000000), wk =   0.0034722
        k(  115) = (   0.1666667  -0.2500000   0.0000000), wk =   0.0034722
        k(  116) = (   0.1666667  -0.2083333   0.0000000), wk =   0.0034722
        k(  117) = (   0.1666667  -0.1666667   0.0000000), wk =   0.0034722
        k(  118) = (   0.1666667  -0.1250000   0.0000000), wk =   0.0034722
        k(  119) = (   0.1666667  -0.0833333   0.0000000), wk =   0.0034722
        k(  120) = (   0.1666667  -0.0416667   0.0000000), wk =   0.0034722
        k(  121) = (   0.2083333   0.0000000   0.0000000), wk =   0.0034722
        k(  122) = (   0.2083333   0.0416667   0.0000000), wk =   0.0034722
        k(  123) = (   0.2083333   0.0833333   0.0000000), wk =   0.0034722
        k(  124) = (   0.2083333   0.1250000   0.0000000), wk =   0.0034722
        k(  125) = (   0.2083333   0.1666667   0.0000000), wk =   0.0034722
        k(  126) = (   0.2083333   0.2083333   0.0000000), wk =   0.0034722
        k(  127) = (   0.2083333   0.2500000   0.0000000), wk =   0.0034722
        k(  128) = (   0.2083333   0.2916667   0.0000000), wk =   0.0034722
        k(  129) = (   0.2083333   0.3333333   0.0000000), wk =   0.0034722
        k(  130) = (   0.2083333   0.3750000   0.0000000), wk =   0.0034722
        k(  131) = (   0.2083333   0.4166667   0.0000000), wk =   0.0034722
        k(  132) = (   0.2083333   0.4583333   0.0000000), wk =   0.0034722
        k(  133) = (   0.2083333  -0.5000000   0.0000000), wk =   0.0034722
        k(  134) = (   0.2083333  -0.4583333   0.0000000), wk =   0.0034722
        k(  135) = (   0.2083333  -0.4166667   0.0000000), wk =   0.0034722
        k(  136) = (   0.2083333  -0.3750000   0.0000000), wk =   0.0034722
        k(  137) = (   0.2083333  -0.3333333   0.0000000), wk =   0.0034722
        k(  138) = (   0.2083333  -0.2916667   0.0000000), wk =   0.0034722
        k(  139) = (   0.2083333  -0.2500000   0.0000000), wk =   0.0034722
        k(  140) = (   0.2083333  -0.2083333   0.0000000), wk =   0.0034722
        k(  141) = (   0.2083333  -0.1666667   0.0000000), wk =   0.0034722
        k(  142) = (   0.2083333  -0.1250000   0.0000000), wk =   0.0034722
        k(  143) = (   0.2083333  -0.0833333   0.0000000), wk =   0.0034722
        k(  144) = (   0.2083333  -0.0416667   0.0000000), wk =   0.0034722
        k(  145) = (   0.2500000   0.0000000   0.0000000), wk =   0.0034722
        k(  146) = (   0.2500000   0.0416667   0.0000000), wk =   0.0034722
        k(  147) = (   0.2500000   0.0833333   0.0000000), wk =   0.0034722
        k(  148) = (   0.2500000   0.1250000   0.0000000), wk =   0.0034722
        k(  149) = (   0.2500000   0.1666667   0.0000000), wk =   0.0034722
        k(  150) = (   0.2500000   0.2083333   0.0000000), wk =   0.0034722
        k(  151) = (   0.2500000   0.2500000   0.0000000), wk =   0.0034722
        k(  152) = (   0.2500000   0.2916667   0.0000000), wk =   0.0034722
        k(  153) = (   0.2500000   0.3333333   0.0000000), wk =   0.0034722
        k(  154) = (   0.2500000   0.3750000   0.0000000), wk =   0.0034722
        k(  155) = (   0.2500000   0.4166667   0.0000000), wk =   0.0034722
        k(  156) = (   0.2500000   0.4583333   0.0000000), wk =   0.0034722
        k(  157) = (   0.2500000  -0.5000000   0.0000000), wk =   0.0034722
        k(  158) = (   0.2500000  -0.4583333   0.0000000), wk =   0.0034722
        k(  159) = (   0.2500000  -0.4166667   0.0000000), wk =   0.0034722
        k(  160) = (   0.2500000  -0.3750000   0.0000000), wk =   0.0034722
        k(  161) = (   0.2500000  -0.3333333   0.0000000), wk =   0.0034722
        k(  162) = (   0.2500000  -0.2916667   0.0000000), wk =   0.0034722
        k(  163) = (   0.2500000  -0.2500000   0.0000000), wk =   0.0034722
        k(  164) = (   0.2500000  -0.2083333   0.0000000), wk =   0.0034722
        k(  165) = (   0.2500000  -0.1666667   0.0000000), wk =   0.0034722
        k(  166) = (   0.2500000  -0.1250000   0.0000000), wk =   0.0034722
        k(  167) = (   0.2500000  -0.0833333   0.0000000), wk =   0.0034722
        k(  168) = (   0.2500000  -0.0416667   0.0000000), wk =   0.0034722
        k(  169) = (   0.2916667   0.0000000   0.0000000), wk =   0.0034722
        k(  170) = (   0.2916667   0.0416667   0.0000000), wk =   0.0034722
        k(  171) = (   0.2916667   0.0833333   0.0000000), wk =   0.0034722
        k(  172) = (   0.2916667   0.1250000   0.0000000), wk =   0.0034722
        k(  173) = (   0.2916667   0.1666667   0.0000000), wk =   0.0034722
        k(  174) = (   0.2916667   0.2083333   0.0000000), wk =   0.0034722
        k(  175) = (   0.2916667   0.2500000   0.0000000), wk =   0.0034722
        k(  176) = (   0.2916667   0.2916667   0.0000000), wk =   0.0034722
        k(  177) = (   0.2916667   0.3333333   0.0000000), wk =   0.0034722
        k(  178) = (   0.2916667   0.3750000   0.0000000), wk =   0.0034722
        k(  179) = (   0.2916667   0.4166667   0.0000000), wk =   0.0034722
        k(  180) = (   0.2916667   0.4583333   0.0000000), wk =   0.0034722
        k(  181) = (   0.2916667  -0.5000000   0.0000000), wk =   0.0034722
        k(  182) = (   0.2916667  -0.4583333   0.0000000), wk =   0.0034722
        k(  183) = (   0.2916667  -0.4166667   0.0000000), wk =   0.0034722
        k(  184) = (   0.2916667  -0.3750000   0.0000000), wk =   0.0034722
        k(  185) = (   0.2916667  -0.3333333   0.0000000), wk =   0.0034722
        k(  186) = (   0.2916667  -0.2916667   0.0000000), wk =   0.0034722
        k(  187) = (   0.2916667  -0.2500000   0.0000000), wk =   0.0034722
        k(  188) = (   0.2916667  -0.2083333   0.0000000), wk =   0.0034722
        k(  189) = (   0.2916667  -0.1666667   0.0000000), wk =   0.0034722
        k(  190) = (   0.2916667  -0.1250000   0.0000000), wk =   0.0034722
        k(  191) = (   0.2916667  -0.0833333   0.0000000), wk =   0.0034722
        k(  192) = (   0.2916667  -0.0416667   0.0000000), wk =   0.0034722
        k(  193) = (   0.3333333   0.0000000   0.0000000), wk =   0.0034722
        k(  194) = (   0.3333333   0.0416667   0.0000000), wk =   0.0034722
        k(  195) = (   0.3333333   0.0833333   0.0000000), wk =   0.0034722
        k(  196) = (   0.3333333   0.1250000   0.0000000), wk =   0.0034722
        k(  197) = (   0.3333333   0.1666667   0.0000000), wk =   0.0034722
        k(  198) = (   0.3333333   0.2083333   0.0000000), wk =   0.0034722
        k(  199) = (   0.3333333   0.2500000   0.0000000), wk =   0.0034722
        k(  200) = (   0.3333333   0.2916667   0.0000000), wk =   0.0034722
        k(  201) = (   0.3333333   0.3333333   0.0000000), wk =   0.0034722
        k(  202) = (   0.3333333   0.3750000   0.0000000), wk =   0.0034722
        k(  203) = (   0.3333333   0.4166667   0.0000000), wk =   0.0034722
        k(  204) = (   0.3333333   0.4583333   0.0000000), wk =   0.0034722
        k(  205) = (   0.3333333  -0.5000000   0.0000000), wk =   0.0034722
        k(  206) = (   0.3333333  -0.4583333   0.0000000), wk =   0.0034722
        k(  207) = (   0.3333333  -0.4166667   0.0000000), wk =   0.0034722
        k(  208) = (   0.3333333  -0.3750000   0.0000000), wk =   0.0034722
        k(  209) = (   0.3333333  -0.3333333   0.0000000), wk =   0.0034722
        k(  210) = (   0.3333333  -0.2916667   0.0000000), wk =   0.0034722
        k(  211) = (   0.3333333  -0.2500000   0.0000000), wk =   0.0034722
        k(  212) = (   0.3333333  -0.2083333   0.0000000), wk =   0.0034722
        k(  213) = (   0.3333333  -0.1666667   0.0000000), wk =   0.0034722
        k(  214) = (   0.3333333  -0.1250000   0.0000000), wk =   0.0034722
        k(  215) = (   0.3333333  -0.0833333   0.0000000), wk =   0.0034722
        k(  216) = (   0.3333333  -0.0416667   0.0000000), wk =   0.0034722
        k(  217) = (   0.3750000  -0.0000000   0.0000000), wk =   0.0034722
        k(  218) = (   0.3750000   0.0416667   0.0000000), wk =   0.0034722
        k(  219) = (   0.3750000   0.0833333   0.0000000), wk =   0.0034722
        k(  220) = (   0.3750000   0.1250000   0.0000000), wk =   0.0034722
        k(  221) = (   0.3750000   0.1666667   0.0000000), wk =   0.0034722
        k(  222) = (   0.3750000   0.2083333   0.0000000), wk =   0.0034722
        k(  223) = (   0.3750000   0.2500000   0.0000000), wk =   0.0034722
        k(  224) = (   0.3750000   0.2916667   0.0000000), wk =   0.0034722
        k(  225) = (   0.3750000   0.3333333   0.0000000), wk =   0.0034722
        k(  226) = (   0.3750000   0.3750000   0.0000000), wk =   0.0034722
        k(  227) = (   0.3750000   0.4166667   0.0000000), wk =   0.0034722
        k(  228) = (   0.3750000   0.4583333   0.0000000), wk =   0.0034722
        k(  229) = (   0.3750000  -0.5000000   0.0000000), wk =   0.0034722
        k(  230) = (   0.3750000  -0.4583333   0.0000000), wk =   0.0034722
        k(  231) = (   0.3750000  -0.4166667   0.0000000), wk =   0.0034722
        k(  232) = (   0.3750000  -0.3750000   0.0000000), wk =   0.0034722
        k(  233) = (   0.3750000  -0.3333333   0.0000000), wk =   0.0034722
        k(  234) = (   0.3750000  -0.2916667   0.0000000), wk =   0.0034722
        k(  235) = (   0.3750000  -0.2500000   0.0000000), wk =   0.0034722
        k(  236) = (   0.3750000  -0.2083333   0.0000000), wk =   0.0034722
        k(  237) = (   0.3750000  -0.1666667   0.0000000), wk =   0.0034722
        k(  238) = (   0.3750000  -0.1250000   0.0000000), wk =   0.0034722
        k(  239) = (   0.3750000  -0.0833333   0.0000000), wk =   0.0034722
        k(  240) = (   0.3750000  -0.0416667   0.0000000), wk =   0.0034722
        k(  241) = (   0.4166667   0.0000000   0.0000000), wk =   0.0034722
        k(  242) = (   0.4166667   0.0416667   0.0000000), wk =   0.0034722
        k(  243) = (   0.4166667   0.0833333   0.0000000), wk =   0.0034722
        k(  244) = (   0.4166667   0.1250000   0.0000000), wk =   0.0034722
        k(  245) = (   0.4166667   0.1666667   0.0000000), wk =   0.0034722
        k(  246) = (   0.4166667   0.2083333   0.0000000), wk =   0.0034722
        k(  247) = (   0.4166667   0.2500000   0.0000000), wk =   0.0034722
        k(  248) = (   0.4166667   0.2916667   0.0000000), wk =   0.0034722
        k(  249) = (   0.4166667   0.3333333   0.0000000), wk =   0.0034722
        k(  250) = (   0.4166667   0.3750000   0.0000000), wk =   0.0034722
        k(  251) = (   0.4166667   0.4166667   0.0000000), wk =   0.0034722
        k(  252) = (   0.4166667   0.4583333   0.0000000), wk =   0.0034722
        k(  253) = (   0.4166667  -0.5000000   0.0000000), wk =   0.0034722
        k(  254) = (   0.4166667  -0.4583333   0.0000000), wk =   0.0034722
        k(  255) = (   0.4166667  -0.4166667   0.0000000), wk =   0.0034722
        k(  256) = (   0.4166667  -0.3750000   0.0000000), wk =   0.0034722
        k(  257) = (   0.4166667  -0.3333333   0.0000000), wk =   0.0034722
        k(  258) = (   0.4166667  -0.2916667   0.0000000), wk =   0.0034722
        k(  259) = (   0.4166667  -0.2500000   0.0000000), wk =   0.0034722
        k(  260) = (   0.4166667  -0.2083333   0.0000000), wk =   0.0034722
        k(  261) = (   0.4166667  -0.1666667   0.0000000), wk =   0.0034722
        k(  262) = (   0.4166667  -0.1250000   0.0000000), wk =   0.0034722
        k(  263) = (   0.4166667  -0.0833333   0.0000000), wk =   0.0034722
        k(  264) = (   0.4166667  -0.0416667   0.0000000), wk =   0.0034722
        k(  265) = (   0.4583333   0.0000000   0.0000000), wk =   0.0034722
        k(  266) = (   0.4583333   0.0416667   0.0000000), wk =   0.0034722
        k(  267) = (   0.4583333   0.0833333   0.0000000), wk =   0.0034722
        k(  268) = (   0.4583333   0.1250000   0.0000000), wk =   0.0034722
        k(  269) = (   0.4583333   0.1666667   0.0000000), wk =   0.0034722
        k(  270) = (   0.4583333   0.2083333   0.0000000), wk =   0.0034722
        k(  271) = (   0.4583333   0.2500000   0.0000000), wk =   0.0034722
        k(  272) = (   0.4583333   0.2916667   0.0000000), wk =   0.0034722
        k(  273) = (   0.4583333   0.3333333   0.0000000), wk =   0.0034722
        k(  274) = (   0.4583333   0.3750000   0.0000000), wk =   0.0034722
        k(  275) = (   0.4583333   0.4166667   0.0000000), wk =   0.0034722
        k(  276) = (   0.4583333   0.4583333   0.0000000), wk =   0.0034722
        k(  277) = (   0.4583333  -0.5000000   0.0000000), wk =   0.0034722
        k(  278) = (   0.4583333  -0.4583333   0.0000000), wk =   0.0034722
        k(  279) = (   0.4583333  -0.4166667   0.0000000), wk =   0.0034722
        k(  280) = (   0.4583333  -0.3750000   0.0000000), wk =   0.0034722
        k(  281) = (   0.4583333  -0.3333333   0.0000000), wk =   0.0034722
        k(  282) = (   0.4583333  -0.2916667   0.0000000), wk =   0.0034722
        k(  283) = (   0.4583333  -0.2500000   0.0000000), wk =   0.0034722
        k(  284) = (   0.4583333  -0.2083333   0.0000000), wk =   0.0034722
        k(  285) = (   0.4583333  -0.1666667   0.0000000), wk =   0.0034722
        k(  286) = (   0.4583333  -0.1250000   0.0000000), wk =   0.0034722
        k(  287) = (   0.4583333  -0.0833333   0.0000000), wk =   0.0034722
        k(  288) = (   0.4583333  -0.0416667   0.0000000), wk =   0.0034722
        k(  289) = (  -0.5000000   0.0000000   0.0000000), wk =   0.0034722
        k(  290) = (  -0.5000000   0.0416667   0.0000000), wk =   0.0034722
        k(  291) = (  -0.5000000   0.0833333   0.0000000), wk =   0.0034722
        k(  292) = (  -0.5000000   0.1250000   0.0000000), wk =   0.0034722
        k(  293) = (  -0.5000000   0.1666667   0.0000000), wk =   0.0034722
        k(  294) = (  -0.5000000   0.2083333   0.0000000), wk =   0.0034722
        k(  295) = (  -0.5000000   0.2500000   0.0000000), wk =   0.0034722
        k(  296) = (  -0.5000000   0.2916667   0.0000000), wk =   0.0034722
        k(  297) = (  -0.5000000   0.3333333   0.0000000), wk =   0.0034722
        k(  298) = (  -0.5000000   0.3750000   0.0000000), wk =   0.0034722
        k(  299) = (  -0.5000000   0.4166667   0.0000000), wk =   0.0034722
        k(  300) = (  -0.5000000   0.4583333   0.0000000), wk =   0.0034722
        k(  301) = (  -0.5000000  -0.5000000   0.0000000), wk =   0.0034722
        k(  302) = (  -0.5000000  -0.4583333   0.0000000), wk =   0.0034722
        k(  303) = (  -0.5000000  -0.4166667   0.0000000), wk =   0.0034722
        k(  304) = (  -0.5000000  -0.3750000   0.0000000), wk =   0.0034722
        k(  305) = (  -0.5000000  -0.3333333   0.0000000), wk =   0.0034722
        k(  306) = (  -0.5000000  -0.2916667   0.0000000), wk =   0.0034722
        k(  307) = (  -0.5000000  -0.2500000   0.0000000), wk =   0.0034722
        k(  308) = (  -0.5000000  -0.2083333   0.0000000), wk =   0.0034722
        k(  309) = (  -0.5000000  -0.1666667   0.0000000), wk =   0.0034722
        k(  310) = (  -0.5000000  -0.1250000   0.0000000), wk =   0.0034722
        k(  311) = (  -0.5000000  -0.0833333   0.0000000), wk =   0.0034722
        k(  312) = (  -0.5000000  -0.0416667   0.0000000), wk =   0.0034722
        k(  313) = (  -0.4583333   0.0000000   0.0000000), wk =   0.0034722
        k(  314) = (  -0.4583333   0.0416667   0.0000000), wk =   0.0034722
        k(  315) = (  -0.4583333   0.0833333   0.0000000), wk =   0.0034722
        k(  316) = (  -0.4583333   0.1250000   0.0000000), wk =   0.0034722
        k(  317) = (  -0.4583333   0.1666667   0.0000000), wk =   0.0034722
        k(  318) = (  -0.4583333   0.2083333   0.0000000), wk =   0.0034722
        k(  319) = (  -0.4583333   0.2500000   0.0000000), wk =   0.0034722
        k(  320) = (  -0.4583333   0.2916667   0.0000000), wk =   0.0034722
        k(  321) = (  -0.4583333   0.3333333   0.0000000), wk =   0.0034722
        k(  322) = (  -0.4583333   0.3750000   0.0000000), wk =   0.0034722
        k(  323) = (  -0.4583333   0.4166667   0.0000000), wk =   0.0034722
        k(  324) = (  -0.4583333   0.4583333   0.0000000), wk =   0.0034722
        k(  325) = (  -0.4583333  -0.5000000   0.0000000), wk =   0.0034722
        k(  326) = (  -0.4583333  -0.4583333   0.0000000), wk =   0.0034722
        k(  327) = (  -0.4583333  -0.4166667   0.0000000), wk =   0.0034722
        k(  328) = (  -0.4583333  -0.3750000   0.0000000), wk =   0.0034722
        k(  329) = (  -0.4583333  -0.3333333   0.0000000), wk =   0.0034722
        k(  330) = (  -0.4583333  -0.2916667   0.0000000), wk =   0.0034722
        k(  331) = (  -0.4583333  -0.2500000   0.0000000), wk =   0.0034722
        k(  332) = (  -0.4583333  -0.2083333   0.0000000), wk =   0.0034722
        k(  333) = (  -0.4583333  -0.1666667   0.0000000), wk =   0.0034722
        k(  334) = (  -0.4583333  -0.1250000   0.0000000), wk =   0.0034722
        k(  335) = (  -0.4583333  -0.0833333   0.0000000), wk =   0.0034722
        k(  336) = (  -0.4583333  -0.0416667   0.0000000), wk =   0.0034722
        k(  337) = (  -0.4166667  -0.0000000   0.0000000), wk =   0.0034722
        k(  338) = (  -0.4166667   0.0416667   0.0000000), wk =   0.0034722
        k(  339) = (  -0.4166667   0.0833333   0.0000000), wk =   0.0034722
        k(  340) = (  -0.4166667   0.1250000   0.0000000), wk =   0.0034722
        k(  341) = (  -0.4166667   0.1666667   0.0000000), wk =   0.0034722
        k(  342) = (  -0.4166667   0.2083333   0.0000000), wk =   0.0034722
        k(  343) = (  -0.4166667   0.2500000   0.0000000), wk =   0.0034722
        k(  344) = (  -0.4166667   0.2916667   0.0000000), wk =   0.0034722
        k(  345) = (  -0.4166667   0.3333333   0.0000000), wk =   0.0034722
        k(  346) = (  -0.4166667   0.3750000   0.0000000), wk =   0.0034722
        k(  347) = (  -0.4166667   0.4166667   0.0000000), wk =   0.0034722
        k(  348) = (  -0.4166667   0.4583333   0.0000000), wk =   0.0034722
        k(  349) = (  -0.4166667  -0.5000000   0.0000000), wk =   0.0034722
        k(  350) = (  -0.4166667  -0.4583333   0.0000000), wk =   0.0034722
        k(  351) = (  -0.4166667  -0.4166667   0.0000000), wk =   0.0034722
        k(  352) = (  -0.4166667  -0.3750000   0.0000000), wk =   0.0034722
        k(  353) = (  -0.4166667  -0.3333333   0.0000000), wk =   0.0034722
        k(  354) = (  -0.4166667  -0.2916667   0.0000000), wk =   0.0034722
        k(  355) = (  -0.4166667  -0.2500000   0.0000000), wk =   0.0034722
        k(  356) = (  -0.4166667  -0.2083333   0.0000000), wk =   0.0034722
        k(  357) = (  -0.4166667  -0.1666667   0.0000000), wk =   0.0034722
        k(  358) = (  -0.4166667  -0.1250000   0.0000000), wk =   0.0034722
        k(  359) = (  -0.4166667  -0.0833333   0.0000000), wk =   0.0034722
        k(  360) = (  -0.4166667  -0.0416667   0.0000000), wk =   0.0034722
        k(  361) = (  -0.3750000   0.0000000   0.0000000), wk =   0.0034722
        k(  362) = (  -0.3750000   0.0416667   0.0000000), wk =   0.0034722
        k(  363) = (  -0.3750000   0.0833333   0.0000000), wk =   0.0034722
        k(  364) = (  -0.3750000   0.1250000   0.0000000), wk =   0.0034722
        k(  365) = (  -0.3750000   0.1666667   0.0000000), wk =   0.0034722
        k(  366) = (  -0.3750000   0.2083333   0.0000000), wk =   0.0034722
        k(  367) = (  -0.3750000   0.2500000   0.0000000), wk =   0.0034722
        k(  368) = (  -0.3750000   0.2916667   0.0000000), wk =   0.0034722
        k(  369) = (  -0.3750000   0.3333333   0.0000000), wk =   0.0034722
        k(  370) = (  -0.3750000   0.3750000   0.0000000), wk =   0.0034722
        k(  371) = (  -0.3750000   0.4166667   0.0000000), wk =   0.0034722
        k(  372) = (  -0.3750000   0.4583333   0.0000000), wk =   0.0034722
        k(  373) = (  -0.3750000  -0.5000000   0.0000000), wk =   0.0034722
        k(  374) = (  -0.3750000  -0.4583333   0.0000000), wk =   0.0034722
        k(  375) = (  -0.3750000  -0.4166667   0.0000000), wk =   0.0034722
        k(  376) = (  -0.3750000  -0.3750000   0.0000000), wk =   0.0034722
        k(  377) = (  -0.3750000  -0.3333333   0.0000000), wk =   0.0034722
        k(  378) = (  -0.3750000  -0.2916667   0.0000000), wk =   0.0034722
        k(  379) = (  -0.3750000  -0.2500000   0.0000000), wk =   0.0034722
        k(  380) = (  -0.3750000  -0.2083333   0.0000000), wk =   0.0034722
        k(  381) = (  -0.3750000  -0.1666667   0.0000000), wk =   0.0034722
        k(  382) = (  -0.3750000  -0.1250000   0.0000000), wk =   0.0034722
        k(  383) = (  -0.3750000  -0.0833333   0.0000000), wk =   0.0034722
        k(  384) = (  -0.3750000  -0.0416667   0.0000000), wk =   0.0034722
        k(  385) = (  -0.3333333   0.0000000   0.0000000), wk =   0.0034722
        k(  386) = (  -0.3333333   0.0416667   0.0000000), wk =   0.0034722
        k(  387) = (  -0.3333333   0.0833333   0.0000000), wk =   0.0034722
        k(  388) = (  -0.3333333   0.1250000   0.0000000), wk =   0.0034722
        k(  389) = (  -0.3333333   0.1666667   0.0000000), wk =   0.0034722
        k(  390) = (  -0.3333333   0.2083333   0.0000000), wk =   0.0034722
        k(  391) = (  -0.3333333   0.2500000   0.0000000), wk =   0.0034722
        k(  392) = (  -0.3333333   0.2916667   0.0000000), wk =   0.0034722
        k(  393) = (  -0.3333333   0.3333333   0.0000000), wk =   0.0034722
        k(  394) = (  -0.3333333   0.3750000   0.0000000), wk =   0.0034722
        k(  395) = (  -0.3333333   0.4166667   0.0000000), wk =   0.0034722
        k(  396) = (  -0.3333333   0.4583333   0.0000000), wk =   0.0034722
        k(  397) = (  -0.3333333  -0.5000000   0.0000000), wk =   0.0034722
        k(  398) = (  -0.3333333  -0.4583333   0.0000000), wk =   0.0034722
        k(  399) = (  -0.3333333  -0.4166667   0.0000000), wk =   0.0034722
        k(  400) = (  -0.3333333  -0.3750000   0.0000000), wk =   0.0034722
        k(  401) = (  -0.3333333  -0.3333333   0.0000000), wk =   0.0034722
        k(  402) = (  -0.3333333  -0.2916667   0.0000000), wk =   0.0034722
        k(  403) = (  -0.3333333  -0.2500000   0.0000000), wk =   0.0034722
        k(  404) = (  -0.3333333  -0.2083333   0.0000000), wk =   0.0034722
        k(  405) = (  -0.3333333  -0.1666667   0.0000000), wk =   0.0034722
        k(  406) = (  -0.3333333  -0.1250000   0.0000000), wk =   0.0034722
        k(  407) = (  -0.3333333  -0.0833333   0.0000000), wk =   0.0034722
        k(  408) = (  -0.3333333  -0.0416667   0.0000000), wk =   0.0034722
        k(  409) = (  -0.2916667  -0.0000000   0.0000000), wk =   0.0034722
        k(  410) = (  -0.2916667   0.0416667   0.0000000), wk =   0.0034722
        k(  411) = (  -0.2916667   0.0833333   0.0000000), wk =   0.0034722
        k(  412) = (  -0.2916667   0.1250000   0.0000000), wk =   0.0034722
        k(  413) = (  -0.2916667   0.1666667   0.0000000), wk =   0.0034722
        k(  414) = (  -0.2916667   0.2083333   0.0000000), wk =   0.0034722
        k(  415) = (  -0.2916667   0.2500000   0.0000000), wk =   0.0034722
        k(  416) = (  -0.2916667   0.2916667   0.0000000), wk =   0.0034722
        k(  417) = (  -0.2916667   0.3333333   0.0000000), wk =   0.0034722
        k(  418) = (  -0.2916667   0.3750000   0.0000000), wk =   0.0034722
        k(  419) = (  -0.2916667   0.4166667   0.0000000), wk =   0.0034722
        k(  420) = (  -0.2916667   0.4583333   0.0000000), wk =   0.0034722
        k(  421) = (  -0.2916667  -0.5000000   0.0000000), wk =   0.0034722
        k(  422) = (  -0.2916667  -0.4583333   0.0000000), wk =   0.0034722
        k(  423) = (  -0.2916667  -0.4166667   0.0000000), wk =   0.0034722
        k(  424) = (  -0.2916667  -0.3750000   0.0000000), wk =   0.0034722
        k(  425) = (  -0.2916667  -0.3333333   0.0000000), wk =   0.0034722
        k(  426) = (  -0.2916667  -0.2916667   0.0000000), wk =   0.0034722
        k(  427) = (  -0.2916667  -0.2500000   0.0000000), wk =   0.0034722
        k(  428) = (  -0.2916667  -0.2083333   0.0000000), wk =   0.0034722
        k(  429) = (  -0.2916667  -0.1666667   0.0000000), wk =   0.0034722
        k(  430) = (  -0.2916667  -0.1250000   0.0000000), wk =   0.0034722
        k(  431) = (  -0.2916667  -0.0833333   0.0000000), wk =   0.0034722
        k(  432) = (  -0.2916667  -0.0416667   0.0000000), wk =   0.0034722
        k(  433) = (  -0.2500000   0.0000000   0.0000000), wk =   0.0034722
        k(  434) = (  -0.2500000   0.0416667   0.0000000), wk =   0.0034722
        k(  435) = (  -0.2500000   0.0833333   0.0000000), wk =   0.0034722
        k(  436) = (  -0.2500000   0.1250000   0.0000000), wk =   0.0034722
        k(  437) = (  -0.2500000   0.1666667   0.0000000), wk =   0.0034722
        k(  438) = (  -0.2500000   0.2083333   0.0000000), wk =   0.0034722
        k(  439) = (  -0.2500000   0.2500000   0.0000000), wk =   0.0034722
        k(  440) = (  -0.2500000   0.2916667   0.0000000), wk =   0.0034722
        k(  441) = (  -0.2500000   0.3333333   0.0000000), wk =   0.0034722
        k(  442) = (  -0.2500000   0.3750000   0.0000000), wk =   0.0034722
        k(  443) = (  -0.2500000   0.4166667   0.0000000), wk =   0.0034722
        k(  444) = (  -0.2500000   0.4583333   0.0000000), wk =   0.0034722
        k(  445) = (  -0.2500000  -0.5000000   0.0000000), wk =   0.0034722
        k(  446) = (  -0.2500000  -0.4583333   0.0000000), wk =   0.0034722
        k(  447) = (  -0.2500000  -0.4166667   0.0000000), wk =   0.0034722
        k(  448) = (  -0.2500000  -0.3750000   0.0000000), wk =   0.0034722
        k(  449) = (  -0.2500000  -0.3333333   0.0000000), wk =   0.0034722
        k(  450) = (  -0.2500000  -0.2916667   0.0000000), wk =   0.0034722
        k(  451) = (  -0.2500000  -0.2500000   0.0000000), wk =   0.0034722
        k(  452) = (  -0.2500000  -0.2083333   0.0000000), wk =   0.0034722
        k(  453) = (  -0.2500000  -0.1666667   0.0000000), wk =   0.0034722
        k(  454) = (  -0.2500000  -0.1250000   0.0000000), wk =   0.0034722
        k(  455) = (  -0.2500000  -0.0833333   0.0000000), wk =   0.0034722
        k(  456) = (  -0.2500000  -0.0416667   0.0000000), wk =   0.0034722
        k(  457) = (  -0.2083333  -0.0000000   0.0000000), wk =   0.0034722
        k(  458) = (  -0.2083333   0.0416667   0.0000000), wk =   0.0034722
        k(  459) = (  -0.2083333   0.0833333   0.0000000), wk =   0.0034722
        k(  460) = (  -0.2083333   0.1250000   0.0000000), wk =   0.0034722
        k(  461) = (  -0.2083333   0.1666667   0.0000000), wk =   0.0034722
        k(  462) = (  -0.2083333   0.2083333   0.0000000), wk =   0.0034722
        k(  463) = (  -0.2083333   0.2500000   0.0000000), wk =   0.0034722
        k(  464) = (  -0.2083333   0.2916667   0.0000000), wk =   0.0034722
        k(  465) = (  -0.2083333   0.3333333   0.0000000), wk =   0.0034722
        k(  466) = (  -0.2083333   0.3750000   0.0000000), wk =   0.0034722
        k(  467) = (  -0.2083333   0.4166667   0.0000000), wk =   0.0034722
        k(  468) = (  -0.2083333   0.4583333   0.0000000), wk =   0.0034722
        k(  469) = (  -0.2083333  -0.5000000   0.0000000), wk =   0.0034722
        k(  470) = (  -0.2083333  -0.4583333   0.0000000), wk =   0.0034722
        k(  471) = (  -0.2083333  -0.4166667   0.0000000), wk =   0.0034722
        k(  472) = (  -0.2083333  -0.3750000   0.0000000), wk =   0.0034722
        k(  473) = (  -0.2083333  -0.3333333   0.0000000), wk =   0.0034722
        k(  474) = (  -0.2083333  -0.2916667   0.0000000), wk =   0.0034722
        k(  475) = (  -0.2083333  -0.2500000   0.0000000), wk =   0.0034722
        k(  476) = (  -0.2083333  -0.2083333   0.0000000), wk =   0.0034722
        k(  477) = (  -0.2083333  -0.1666667   0.0000000), wk =   0.0034722
        k(  478) = (  -0.2083333  -0.1250000   0.0000000), wk =   0.0034722
        k(  479) = (  -0.2083333  -0.0833333   0.0000000), wk =   0.0034722
        k(  480) = (  -0.2083333  -0.0416667   0.0000000), wk =   0.0034722
        k(  481) = (  -0.1666667  -0.0000000   0.0000000), wk =   0.0034722
        k(  482) = (  -0.1666667   0.0416667   0.0000000), wk =   0.0034722
        k(  483) = (  -0.1666667   0.0833333   0.0000000), wk =   0.0034722
        k(  484) = (  -0.1666667   0.1250000   0.0000000), wk =   0.0034722
        k(  485) = (  -0.1666667   0.1666667   0.0000000), wk =   0.0034722
        k(  486) = (  -0.1666667   0.2083333   0.0000000), wk =   0.0034722
        k(  487) = (  -0.1666667   0.2500000   0.0000000), wk =   0.0034722
        k(  488) = (  -0.1666667   0.2916667   0.0000000), wk =   0.0034722
        k(  489) = (  -0.1666667   0.3333333   0.0000000), wk =   0.0034722
        k(  490) = (  -0.1666667   0.3750000   0.0000000), wk =   0.0034722
        k(  491) = (  -0.1666667   0.4166667   0.0000000), wk =   0.0034722
        k(  492) = (  -0.1666667   0.4583333   0.0000000), wk =   0.0034722
        k(  493) = (  -0.1666667  -0.5000000   0.0000000), wk =   0.0034722
        k(  494) = (  -0.1666667  -0.4583333   0.0000000), wk =   0.0034722
        k(  495) = (  -0.1666667  -0.4166667   0.0000000), wk =   0.0034722
        k(  496) = (  -0.1666667  -0.3750000   0.0000000), wk =   0.0034722
        k(  497) = (  -0.1666667  -0.3333333   0.0000000), wk =   0.0034722
        k(  498) = (  -0.1666667  -0.2916667   0.0000000), wk =   0.0034722
        k(  499) = (  -0.1666667  -0.2500000   0.0000000), wk =   0.0034722
        k(  500) = (  -0.1666667  -0.2083333   0.0000000), wk =   0.0034722
        k(  501) = (  -0.1666667  -0.1666667   0.0000000), wk =   0.0034722
        k(  502) = (  -0.1666667  -0.1250000   0.0000000), wk =   0.0034722
        k(  503) = (  -0.1666667  -0.0833333   0.0000000), wk =   0.0034722
        k(  504) = (  -0.1666667  -0.0416667   0.0000000), wk =   0.0034722
        k(  505) = (  -0.1250000   0.0000000   0.0000000), wk =   0.0034722
        k(  506) = (  -0.1250000   0.0416667   0.0000000), wk =   0.0034722
        k(  507) = (  -0.1250000   0.0833333   0.0000000), wk =   0.0034722
        k(  508) = (  -0.1250000   0.1250000   0.0000000), wk =   0.0034722
        k(  509) = (  -0.1250000   0.1666667   0.0000000), wk =   0.0034722
        k(  510) = (  -0.1250000   0.2083333   0.0000000), wk =   0.0034722
        k(  511) = (  -0.1250000   0.2500000   0.0000000), wk =   0.0034722
        k(  512) = (  -0.1250000   0.2916667   0.0000000), wk =   0.0034722
        k(  513) = (  -0.1250000   0.3333333   0.0000000), wk =   0.0034722
        k(  514) = (  -0.1250000   0.3750000   0.0000000), wk =   0.0034722
        k(  515) = (  -0.1250000   0.4166667   0.0000000), wk =   0.0034722
        k(  516) = (  -0.1250000   0.4583333   0.0000000), wk =   0.0034722
        k(  517) = (  -0.1250000  -0.5000000   0.0000000), wk =   0.0034722
        k(  518) = (  -0.1250000  -0.4583333   0.0000000), wk =   0.0034722
        k(  519) = (  -0.1250000  -0.4166667   0.0000000), wk =   0.0034722
        k(  520) = (  -0.1250000  -0.3750000   0.0000000), wk =   0.0034722
        k(  521) = (  -0.1250000  -0.3333333   0.0000000), wk =   0.0034722
        k(  522) = (  -0.1250000  -0.2916667   0.0000000), wk =   0.0034722
        k(  523) = (  -0.1250000  -0.2500000   0.0000000), wk =   0.0034722
        k(  524) = (  -0.1250000  -0.2083333   0.0000000), wk =   0.0034722
        k(  525) = (  -0.1250000  -0.1666667   0.0000000), wk =   0.0034722
        k(  526) = (  -0.1250000  -0.1250000   0.0000000), wk =   0.0034722
        k(  527) = (  -0.1250000  -0.0833333   0.0000000), wk =   0.0034722
        k(  528) = (  -0.1250000  -0.0416667   0.0000000), wk =   0.0034722
        k(  529) = (  -0.0833333   0.0000000   0.0000000), wk =   0.0034722
        k(  530) = (  -0.0833333   0.0416667   0.0000000), wk =   0.0034722
        k(  531) = (  -0.0833333   0.0833333   0.0000000), wk =   0.0034722
        k(  532) = (  -0.0833333   0.1250000   0.0000000), wk =   0.0034722
        k(  533) = (  -0.0833333   0.1666667   0.0000000), wk =   0.0034722
        k(  534) = (  -0.0833333   0.2083333   0.0000000), wk =   0.0034722
        k(  535) = (  -0.0833333   0.2500000   0.0000000), wk =   0.0034722
        k(  536) = (  -0.0833333   0.2916667   0.0000000), wk =   0.0034722
        k(  537) = (  -0.0833333   0.3333333   0.0000000), wk =   0.0034722
        k(  538) = (  -0.0833333   0.3750000   0.0000000), wk =   0.0034722
        k(  539) = (  -0.0833333   0.4166667   0.0000000), wk =   0.0034722
        k(  540) = (  -0.0833333   0.4583333   0.0000000), wk =   0.0034722
        k(  541) = (  -0.0833333  -0.5000000   0.0000000), wk =   0.0034722
        k(  542) = (  -0.0833333  -0.4583333   0.0000000), wk =   0.0034722
        k(  543) = (  -0.0833333  -0.4166667   0.0000000), wk =   0.0034722
        k(  544) = (  -0.0833333  -0.3750000   0.0000000), wk =   0.0034722
        k(  545) = (  -0.0833333  -0.3333333   0.0000000), wk =   0.0034722
        k(  546) = (  -0.0833333  -0.2916667   0.0000000), wk =   0.0034722
        k(  547) = (  -0.0833333  -0.2500000   0.0000000), wk =   0.0034722
        k(  548) = (  -0.0833333  -0.2083333   0.0000000), wk =   0.0034722
        k(  549) = (  -0.0833333  -0.1666667   0.0000000), wk =   0.0034722
        k(  550) = (  -0.0833333  -0.1250000   0.0000000), wk =   0.0034722
        k(  551) = (  -0.0833333  -0.0833333   0.0000000), wk =   0.0034722
        k(  552) = (  -0.0833333  -0.0416667   0.0000000), wk =   0.0034722
        k(  553) = (  -0.0416667  -0.0000000   0.0000000), wk =   0.0034722
        k(  554) = (  -0.0416667   0.0416667   0.0000000), wk =   0.0034722
        k(  555) = (  -0.0416667   0.0833333   0.0000000), wk =   0.0034722
        k(  556) = (  -0.0416667   0.1250000   0.0000000), wk =   0.0034722
        k(  557) = (  -0.0416667   0.1666667   0.0000000), wk =   0.0034722
        k(  558) = (  -0.0416667   0.2083333   0.0000000), wk =   0.0034722
        k(  559) = (  -0.0416667   0.2500000   0.0000000), wk =   0.0034722
        k(  560) = (  -0.0416667   0.2916667   0.0000000), wk =   0.0034722
        k(  561) = (  -0.0416667   0.3333333   0.0000000), wk =   0.0034722
        k(  562) = (  -0.0416667   0.3750000   0.0000000), wk =   0.0034722
        k(  563) = (  -0.0416667   0.4166667   0.0000000), wk =   0.0034722
        k(  564) = (  -0.0416667   0.4583333   0.0000000), wk =   0.0034722
        k(  565) = (  -0.0416667  -0.5000000   0.0000000), wk =   0.0034722
        k(  566) = (  -0.0416667  -0.4583333   0.0000000), wk =   0.0034722
        k(  567) = (  -0.0416667  -0.4166667   0.0000000), wk =   0.0034722
        k(  568) = (  -0.0416667  -0.3750000   0.0000000), wk =   0.0034722
        k(  569) = (  -0.0416667  -0.3333333   0.0000000), wk =   0.0034722
        k(  570) = (  -0.0416667  -0.2916667   0.0000000), wk =   0.0034722
        k(  571) = (  -0.0416667  -0.2500000   0.0000000), wk =   0.0034722
        k(  572) = (  -0.0416667  -0.2083333   0.0000000), wk =   0.0034722
        k(  573) = (  -0.0416667  -0.1666667   0.0000000), wk =   0.0034722
        k(  574) = (  -0.0416667  -0.1250000   0.0000000), wk =   0.0034722
        k(  575) = (  -0.0416667  -0.0833333   0.0000000), wk =   0.0034722
        k(  576) = (  -0.0416667  -0.0416667   0.0000000), wk =   0.0034722

     Dense  grid:    21519 G-vectors     FFT dimensions: (  24,  20, 120)

     Dynamical RAM for                 wfc:       0.33 MB

     Dynamical RAM for     wfc (w. buffer):      23.95 MB

     Dynamical RAM for           str. fact:       0.33 MB

     Dynamical RAM for           local pot:       0.00 MB

     Dynamical RAM for          nlocal pot:       0.66 MB

     Dynamical RAM for                qrad:       0.29 MB

     Dynamical RAM for          rho,v,vnew:       2.30 MB

     Dynamical RAM for               rhoin:       0.77 MB

     Dynamical RAM for            rho*nmix:       5.25 MB

     Dynamical RAM for           G-vectors:       1.40 MB

     Dynamical RAM for          h,s,v(r/c):       0.01 MB

     Dynamical RAM for          <psi|beta>:       0.00 MB

     Dynamical RAM for                 psi:       0.66 MB

     Dynamical RAM for                hpsi:       0.66 MB

     Dynamical RAM for      wfcinit/wfcrot:       0.66 MB

     Estimated static dynamical RAM per process >      32.55 MB

     Estimated max dynamical RAM per process >      39.13 MB

     Estimated total dynamical RAM >     276.25 MB

     Initial potential from superposition of free atoms

     starting charge       7.9999, renormalised to       8.0000

     negative rho (up, down):  3.722E-04 0.000E+00
     Starting wfcs are    8 randomized atomic wfcs

     total cpu time spent up to now is        1.5 secs

     per-process dynamical memory:    39.0 Mb

     Self-consistent Calculation

     iteration #  1     ecut=    40.00 Ry     beta= 0.70
     Davidson diagonalization with overlap

---- Real-time Memory Report at c_bands before calling an iterative solver
            69 MiB given to the printing process from OS
            38 MiB allocation reported by mallinfo(arena+hblkhd)
         18925 MiB available memory on the node where the printing process lives
------------------
     ethr =  1.00E-02,  avg # of iterations =  6.0

     negative rho (up, down):  8.348E-05 0.000E+00

     total cpu time spent up to now is        3.2 secs

     total energy              =     -23.85544731 Ry
     estimated scf accuracy    <       0.12990173 Ry

     iteration #  2     ecut=    40.00 Ry     beta= 0.70
     Davidson diagonalization with overlap

---- Real-time Memory Report at c_bands before calling an iterative solver
            77 MiB given to the printing process from OS
            45 MiB allocation reported by mallinfo(arena+hblkhd)
         18893 MiB available memory on the node where the printing process lives
------------------
     ethr =  1.62E-03,  avg # of iterations =  2.8

     negative rho (up, down):  1.446E-05 0.000E+00

     total cpu time spent up to now is        4.4 secs

     total energy              =     -23.87542109 Ry
     estimated scf accuracy    <       0.00197514 Ry

     iteration #  3     ecut=    40.00 Ry     beta= 0.70
     Davidson diagonalization with overlap

---- Real-time Memory Report at c_bands before calling an iterative solver
            78 MiB given to the printing process from OS
            46 MiB allocation reported by mallinfo(arena+hblkhd)
         18894 MiB available memory on the node where the printing process lives
------------------
     c_bands:  1 eigenvalues not converged
     c_bands:  1 eigenvalues not converged
     ethr =  2.47E-05,  avg # of iterations = 12.9

     total cpu time spent up to now is        6.9 secs

     total energy              =     -23.87566908 Ry
     estimated scf accuracy    <       0.00014920 Ry

     iteration #  4     ecut=    40.00 Ry     beta= 0.70
     Davidson diagonalization with overlap

---- Real-time Memory Report at c_bands before calling an iterative solver
            78 MiB given to the printing process from OS
            46 MiB allocation reported by mallinfo(arena+hblkhd)
         18898 MiB available memory on the node where the printing process lives
------------------
     ethr =  1.87E-06,  avg # of iterations =  5.4

     total cpu time spent up to now is        8.4 secs

     total energy              =     -23.87567923 Ry
     estimated scf accuracy    <       0.00000232 Ry

     iteration #  5     ecut=    40.00 Ry     beta= 0.70
     Davidson diagonalization with overlap

---- Real-time Memory Report at c_bands before calling an iterative solver
            79 MiB given to the printing process from OS
            47 MiB allocation reported by mallinfo(arena+hblkhd)
         18900 MiB available memory on the node where the printing process lives
------------------
     ethr =  2.90E-08,  avg # of iterations =  2.8

     total cpu time spent up to now is        9.7 secs

     total energy              =     -23.87568019 Ry
     estimated scf accuracy    <       0.00000005 Ry

     iteration #  6     ecut=    40.00 Ry     beta= 0.70
     Davidson diagonalization with overlap

---- Real-time Memory Report at c_bands before calling an iterative solver
            80 MiB given to the printing process from OS
            48 MiB allocation reported by mallinfo(arena+hblkhd)
         18901 MiB available memory on the node where the printing process lives
------------------
     ethr =  6.54E-10,  avg # of iterations =  3.0

     total cpu time spent up to now is       10.9 secs

     total energy              =     -23.87568021 Ry
     estimated scf accuracy    <       0.00000004 Ry

     iteration #  7     ecut=    40.00 Ry     beta= 0.70
     Davidson diagonalization with overlap

---- Real-time Memory Report at c_bands before calling an iterative solver
            80 MiB given to the printing process from OS
            48 MiB allocation reported by mallinfo(arena+hblkhd)
         18901 MiB available memory on the node where the printing process lives
------------------
     ethr =  4.56E-10,  avg # of iterations =  1.1

     total cpu time spent up to now is       11.7 secs

     End of self-consistent calculation

          k = 0.0000 0.0000 0.0000 (  2687 PWs)   bands (ev):

   -20.4658  -8.9790  -6.1235  -5.2739   1.1250   1.2302   2.0726   2.1629

     occupation numbers 
     1.0000   1.0000   1.0000   1.0000   0.0000   0.0000   0.0000   0.0000

          k = 0.0000 0.0627 0.0000 (  2669 PWs)   bands (ev):

   -20.4197  -8.9241  -6.2035  -5.4520   1.0995   1.2959   2.2233   2.3418

     occupation numbers 
     1.0000   1.0000   1.0000   1.0000   0.0000   0.0000   0.0000   0.0000

          k = 0.0000 0.1253 0.0000 (  2669 PWs)   bands (ev):

   -20.2869  -8.7713  -6.4584  -5.9205   1.0011   1.4802   2.4020   3.0782

     occupation numbers 
     1.0000   1.0000   1.0000   1.0000   0.0000   0.0000   0.0000   0.0000

          k = 0.0000 0.1880 0.0000 (  2667 PWs)   bands (ev):

   -20.0652  -8.5112  -6.8653  -6.5444   0.7956   1.7836   2.6959   3.1544

     occupation numbers 
     1.0000   1.0000   1.0000   1.0000   0.0000   0.0000   0.0000   0.0000

          k = 0.0000 0.2507 0.0000 (  2676 PWs)   bands (ev):

   -19.7565  -8.1511  -7.4119  -7.2201   0.4454   2.2088   3.0806   3.5923

     occupation numbers 
     1.0000   1.0000   1.0000   1.0000   0.0000   0.0000   0.0000   0.0000

          k = 0.0000 0.3133 0.0000 (  2690 PWs)   bands (ev):

   -19.3667  -8.0653  -7.8851  -7.6892  -0.0155   2.7562   3.2803   3.9412

     occupation numbers 
     1.0000   1.0000   1.0000   1.0000   0.0000   0.0000   0.0000   0.0000

          k = 0.0000 0.3760 0.0000 (  2690 PWs)   bands (ev):

   -18.8937  -8.8061  -8.4987  -7.1327  -0.5345   2.7268   3.4257   4.4428

     occupation numbers 
     1.0000   1.0000   1.0000   1.0000   0.0000   0.0000   0.0000   0.0000

          k = 0.0000 0.4387 0.0000 (  2698 PWs)   bands (ev):

   -18.3431  -9.6191  -9.0383  -6.4906  -1.0571   1.9923   4.2162   5.1906

     occupation numbers 
     1.0000   1.0000   1.0000   1.0000   0.0000   0.0000   0.0000   0.0000

          k = 0.0000 0.5013 0.0000 (  2686 PWs)   bands (ev):

   -17.7218 -10.4865  -9.4876  -5.7679  -1.5208   1.2056   5.1257   6.0556

     occupation numbers 
     1.0000   1.0000   1.0000   1.0000   0.0000   0.0000   0.0000   0.0000

          k = 0.0000 0.5640 0.0000 (  2694 PWs)   bands (ev):

   -17.0411 -11.3951  -9.8451  -4.9759  -1.9022   0.3715   6.1511   6.9988

     occupation numbers 
     1.0000   1.0000   1.0000   1.0000   0.0002   0.0000   0.0000   0.0000

          k = 0.0000 0.6267 0.0000 (  2708 PWs)   bands (ev):

   -16.3305 -12.2809 -10.1017  -4.1328  -2.1872  -0.4997   7.2852   7.9374

     occupation numbers 
     1.0000   1.0000   1.0000   1.0000   0.0293   0.0000   0.0000   0.0000

          k = 0.0000 0.6893 0.0000 (  2700 PWs)   bands (ev):

   -15.6522 -13.0681 -10.2553  -3.2542  -2.3541  -1.3910   8.5151   8.6540

     occupation numbers 
     1.0000   1.0000   1.0000   1.0021   0.1807   0.0000   0.0000   0.0000

          k = 0.0000-0.7520 0.0000 (  2706 PWs)   bands (ev):

   -15.2986 -13.4628 -10.3084  -2.4919  -2.4127  -2.1551   8.8969   9.6524

     occupation numbers 
     1.0000   1.0000   1.0000   0.4841   0.2903   0.0191   0.0000   0.0000

          k = 0.0000-0.6893 0.0000 (  2700 PWs)   bands (ev):

   -15.6522 -13.0681 -10.2553  -3.2542  -2.3541  -1.3910   8.5151   8.6540

     occupation numbers 
     1.0000   1.0000   1.0000   1.0021   0.1807   0.0000   0.0000   0.0000

          k = 0.0000-0.6267 0.0000 (  2708 PWs)   bands (ev):

   -16.3305 -12.2809 -10.1017  -4.1328  -2.1872  -0.4997   7.2852   7.9373

     occupation numbers 
     1.0000   1.0000   1.0000   1.0000   0.0293   0.0000   0.0000   0.0000

          k = 0.0000-0.5640 0.0000 (  2694 PWs)   bands (ev):

   -17.0411 -11.3951  -9.8451  -4.9759  -1.9022   0.3715   6.1511   6.9988

     occupation numbers 
     1.0000   1.0000   1.0000   1.0000   0.0002   0.0000   0.0000   0.0000

          k = 0.0000-0.5013 0.0000 (  2686 PWs)   bands (ev):

   -17.7218 -10.4865  -9.4876  -5.7679  -1.5208   1.2056   5.1257   6.0558

     occupation numbers 
     1.0000   1.0000   1.0000   1.0000   0.0000   0.0000   0.0000   0.0000

          k = 0.0000-0.4387 0.0000 (  2698 PWs)   bands (ev):

   -18.3431  -9.6191  -9.0383  -6.4906  -1.0571   1.9923   4.2162   5.1906

     occupation numbers 
     1.0000   1.0000   1.0000   1.0000   0.0000   0.0000   0.0000   0.0000

          k = 0.0000-0.3760 0.0000 (  2690 PWs)   bands (ev):

   -18.8937  -8.8061  -8.4987  -7.1327  -0.5345   2.7268   3.4257   4.4429

     occupation numbers 
     1.0000   1.0000   1.0000   1.0000   0.0000   0.0000   0.0000   0.0000

          k = 0.0000-0.3133 0.0000 (  2690 PWs)   bands (ev):

   -19.3667  -8.0653  -7.8851  -7.6892  -0.0155   2.7562   3.2803   3.9412

     occupation numbers 
     1.0000   1.0000   1.0000   1.0000   0.0000   0.0000   0.0000   0.0000

          k = 0.0000-0.2507 0.0000 (  2676 PWs)   bands (ev):

   -19.7565  -8.1511  -7.4119  -7.2201   0.4454   2.2088   3.0805   3.5922

     occupation numbers 
     1.0000   1.0000   1.0000   1.0000   0.0000   0.0000   0.0000   0.0000

          k = 0.0000-0.1880 0.0000 (  2667 PWs)   bands (ev):

   -20.0652  -8.5112  -6.8653  -6.5444   0.7956   1.7837   2.6959   3.1548

     occupation numbers 
     1.0000   1.0000   1.0000   1.0000   0.0000   0.0000   0.0000   0.0000

          k = 0.0000-0.1253 0.0000 (  2669 PWs)   bands (ev):

   -20.2869  -8.7713  -6.4584  -5.9205   1.0011   1.4802   2.4019   3.0782

     occupation numbers 
     1.0000   1.0000   1.0000   1.0000   0.0000   0.0000   0.0000   0.0000

          k = 0.0000-0.0627 0.0000 (  2669 PWs)   bands (ev):

   -20.4197  -8.9241  -6.2035  -5.4520   1.0995   1.2959   2.2233   2.3418

     occupation numbers 
     1.0000   1.0000   1.0000   1.0000   0.0000   0.0000   0.0000   0.0000

          k = 0.0417-0.0313 0.0000 (  2673 PWs)   bands (ev):

   -20.4342  -8.9425  -6.2193  -5.4125   1.2491   1.2716   2.2049   2.2220

     occupation numbers 
     1.0000   1.0000   1.0000   1.0000   0.0000   0.0000   0.0000   0.0000

          k = 0.0417 0.0313 0.0000 (  2673 PWs)   bands (ev):

   -20.4342  -8.9425  -6.2193  -5.4125   1.2491   1.2716   2.2049   2.2220

     occupation numbers 
     1.0000   1.0000   1.0000   1.0000   0.0000   0.0000   0.0000   0.0000

          k = 0.0417 0.0940 0.0000 (  2665 PWs)   bands (ev):

   -20.3446  -8.8379  -6.4586  -5.6573   1.1623   1.3953   2.3246   2.7196

     occupation numbers 
     1.0000   1.0000   1.0000   1.0000   0.0000   0.0000   0.0000   0.0000

          k = 0.0417 0.1567 0.0000 (  2663 PWs)   bands (ev):

   -20.1673  -8.6319  -6.9036  -6.0754   0.9991   1.6410   2.5611   3.0084

     occupation numbers 
     1.0000   1.0000   1.0000   1.0000   0.0000   0.0000   0.0000   0.0000

          k = 0.0417 0.2193 0.0000 (  2680 PWs)   bands (ev):

   -19.9030  -8.3227  -7.4929  -6.6107   0.7205   2.0067   2.9037   3.3849

     occupation numbers 
     1.0000   1.0000   1.0000   1.0000   0.0000   0.0000   0.0000   0.0000

          k = 0.0417 0.2820 0.0000 (  2684 PWs)   bands (ev):

   -19.5530  -8.1380  -7.9110  -7.2255   0.3197   2.4937   3.2640   3.8856

     occupation numbers 
     1.0000   1.0000   1.0000   1.0000   0.0000   0.0000   0.0000   0.0000

          k = 0.0417 0.3447 0.0000 (  2692 PWs)   bands (ev):

   -19.1208  -8.8022  -7.8948  -7.4038  -0.1739   2.9915   3.1026   4.1574

     occupation numbers 
     1.0000   1.0000   1.0000   1.0000   0.0000   0.0000   0.0000   0.0000

          k = 0.0417 0.4073 0.0000 (  2690 PWs)   bands (ev):

   -18.6087  -9.4818  -8.5720  -6.8034  -0.6930   2.3098   3.8329   4.8260

     occupation numbers 
     1.0000   1.0000   1.0000   1.0000   0.0000   0.0000   0.0000   0.0000

          k = 0.0417 0.4700 0.0000 (  2685 PWs)   bands (ev):

   -18.0241 -10.2028  -9.1825  -6.1220  -1.1829   1.5549   4.6830   5.6375

     occupation numbers 
     1.0000   1.0000   1.0000   1.0000   0.0000   0.0000   0.0000   0.0000

          k = 0.0417 0.5327 0.0000 (  2684 PWs)   bands (ev):

   -17.3730 -11.0132  -9.6707  -5.3671  -1.6040   0.7547   5.6508   6.5447

     occupation numbers 
     1.0000   1.0000   1.0000   1.0000   0.0000   0.0000   0.0000   0.0000

          k = 0.0417 0.5953 0.0000 (  2704 PWs)   bands (ev):

   -16.6763 -11.8729 -10.0260  -4.5494  -1.9360  -0.0921   6.7312   7.4924

     occupation numbers 
     1.0000   1.0000   1.0000   1.0000   0.0005   0.0000   0.0000   0.0000

          k = 0.0417 0.6580 0.0000 (  2699 PWs)   bands (ev):

   -15.9691 -12.6988 -10.2541  -3.6876  -2.1583  -0.9649   7.9156   8.3239

     occupation numbers 
     1.0000   1.0000   1.0000   1.0000   0.0199   0.0000   0.0000   0.0000

          k = 0.0417-0.7833 0.0000 (  2710 PWs)   bands (ev):

   -15.4007 -13.3364 -10.3694  -2.8055  -2.2698  -1.8530   8.7560   9.1745

     occupation numbers 
     1.0000   1.0000   1.0000   1.0776   0.0788   0.0001   0.0000   0.0000

          k = 0.0417-0.7207 0.0000 (  2710 PWs)   bands (ev):

   -15.4007 -13.3364 -10.3694  -2.8055  -2.2698  -1.8530   8.7560   9.1745

     occupation numbers 
     1.0000   1.0000   1.0000   1.0776   0.0788   0.0001   0.0000   0.0000

          k = 0.0417-0.6580 0.0000 (  2699 PWs)   bands (ev):

   -15.9691 -12.6988 -10.2541  -3.6876  -2.1583  -0.9649   7.9156   8.3239

     occupation numbers 
     1.0000   1.0000   1.0000   1.0000   0.0199   0.0000   0.0000   0.0000

          k = 0.0417-0.5953 0.0000 (  2704 PWs)   bands (ev):

   -16.6763 -11.8729 -10.0260  -4.5494  -1.9360  -0.0921   6.7312   7.4923

     occupation numbers 
     1.0000   1.0000   1.0000   1.0000   0.0005   0.0000   0.0000   0.0000

          k = 0.0417-0.5327 0.0000 (  2684 PWs)   bands (ev):

   -17.3730 -11.0132  -9.6707  -5.3671  -1.6040   0.7547   5.6508   6.5447

     occupation numbers 
     1.0000   1.0000   1.0000   1.0000   0.0000   0.0000   0.0000   0.0000

          k = 0.0417-0.4700 0.0000 (  2685 PWs)   bands (ev):

   -18.0241 -10.2028  -9.1826  -6.1221  -1.1829   1.5549   4.6830   5.6375

     occupation numbers 
     1.0000   1.0000   1.0000   1.0000   0.0000   0.0000   0.0000   0.0000

          k = 0.0417-0.4073 0.0000 (  2690 PWs)   bands (ev):

   -18.6087  -9.4817  -8.5720  -6.8034  -0.6929   2.3098   3.8329   4.8260

     occupation numbers 
     1.0000   1.0000   1.0000   1.0000   0.0000   0.0000   0.0000   0.0000

          k = 0.0417-0.3447 0.0000 (  2692 PWs)   bands (ev):

   -19.1208  -8.8022  -7.8948  -7.4038  -0.1739   2.9915   3.1026   4.1573

     occupation numbers 
     1.0000   1.0000   1.0000   1.0000   0.0000   0.0000   0.0000   0.0000

          k = 0.0417-0.2820 0.0000 (  2684 PWs)   bands (ev):

   -19.5530  -8.1380  -7.9110  -7.2255   0.3197   2.4937   3.2641   3.8856

     occupation numbers 
     1.0000   1.0000   1.0000   1.0000   0.0000   0.0000   0.0000   0.0000

          k = 0.0417-0.2193 0.0000 (  2680 PWs)   bands (ev):

   -19.9030  -8.3227  -7.4929  -6.6107   0.7205   2.0067   2.9037   3.3849

     occupation numbers 
     1.0000   1.0000   1.0000   1.0000   0.0000   0.0000   0.0000   0.0000

          k = 0.0417-0.1567 0.0000 (  2663 PWs)   bands (ev):

   -20.1673  -8.6319  -6.9035  -6.0754   0.9991   1.6410   2.5611   3.0083

     occupation numbers 
     1.0000   1.0000   1.0000   1.0000   0.0000   0.0000   0.0000   0.0000

          k = 0.0417-0.0940 0.0000 (  2665 PWs)   bands (ev):

   -20.3446  -8.8379  -6.4586  -5.6574   1.1623   1.3953   2.3246   2.7178

     occupation numbers 
     1.0000   1.0000   1.0000   1.0000   0.0000   0.0000   0.0000   0.0000

          k = 0.0833-0.0627 0.0000 (  2665 PWs)   bands (ev):

   -20.3417  -8.8372  -6.5991  -5.6841   1.3844   1.5417   2.3301   2.6406

     occupation numbers 
     1.0000   1.0000   1.0000   1.0000   0.0000   0.0000   0.0000   0.0000

          k = 0.0833 0.0000 0.0000 (  2665 PWs)   bands (ev):

   -20.3862  -8.8887  -6.3891  -5.6756   1.3195   1.6601   2.2706   2.3643

     occupation numbers 
     1.0000   1.0000   1.0000   1.0000   0.0000   0.0000   0.0000   0.0000

          k = 0.0833 0.0627 0.0000 (  2665 PWs)   bands (ev):

   -20.3417  -8.8372  -6.5991  -5.6841   1.3843   1.5417   2.3301   2.6412

     occupation numbers 
     1.0000   1.0000   1.0000   1.0000   0.0000   0.0000   0.0000   0.0000

          k = 0.0833 0.1253 0.0000 (  2669 PWs)   bands (ev):

   -20.2088  -8.6832  -7.0871  -5.8077   1.3547   1.5746   2.5072   2.9420

     occupation numbers 
     1.0000   1.0000   1.0000   1.0000   0.0000   0.0000   0.0000   0.0000

          k = 0.0833 0.1880 0.0000 (  2667 PWs)   bands (ev):

   -19.9875  -8.4249  -7.6970  -6.1225   1.1251   1.8849   2.7946   3.2618

     occupation numbers 
     1.0000   1.0000   1.0000   1.0000   0.0000   0.0000   0.0000   0.0000

          k = 0.0833 0.2507 0.0000 (  2682 PWs)   bands (ev):

   -19.6816  -8.3542  -8.0658  -6.6150   0.7916   2.3139   3.1462   3.7022

     occupation numbers 
     1.0000   1.0000   1.0000   1.0000   0.0000   0.0000   0.0000   0.0000

          k = 0.0833 0.3133 0.0000 (  2688 PWs)   bands (ev):

   -19.2912  -9.0078  -7.6091  -7.2353   0.3588   2.8632   3.1002   3.9724

     occupation numbers 
     1.0000   1.0000   1.0000   1.0000   0.0000   0.0000   0.0000   0.0000

          k = 0.0833 0.3760 0.0000 (  2696 PWs)   bands (ev):

   -18.8210  -9.6405  -7.9380  -7.0588  -0.1350   2.4927   3.5332   4.5462

     occupation numbers 
     1.0000   1.0000   1.0000   1.0000   0.0000   0.0000   0.0000   0.0000

          k = 0.0833 0.4387 0.0000 (  2680 PWs)   bands (ev):

   -18.2741 -10.2557  -8.6592  -6.4199  -0.6243   1.7829   4.3236   5.2988

     occupation numbers 
     1.0000   1.0000   1.0000   1.0000   0.0000   0.0000   0.0000   0.0000

          k = 0.0833 0.5013 0.0000 (  2684 PWs)   bands (ev):

   -17.6585 -10.8915  -9.3444  -5.7074  -1.0696   1.0209   5.2325   6.1591

     occupation numbers 
     1.0000   1.0000   1.0000   1.0000   0.0000   0.0000   0.0000   0.0000

          k = 0.0833 0.5640 0.0000 (  2687 PWs)   bands (ev):

   -16.9886 -11.5916  -9.9020  -4.9266  -1.4346   0.2277   6.2565   7.0824

     occupation numbers 
     1.0000   1.0000   1.0000   1.0000   0.0000   0.0000   0.0000   0.0000

          k = 0.0833 0.6267 0.0000 (  2705 PWs)   bands (ev):

   -16.2927 -12.3413 -10.2923  -4.0983  -1.7047  -0.6014   7.3886   7.9428

     occupation numbers 
     1.0000   1.0000   1.0000   1.0000   0.0000   0.0000   0.0000   0.0000

          k = 0.0833-0.8147 0.0000 (  2708 PWs)   bands (ev):

   -15.6409 -13.0399 -10.5135  -3.2305  -1.8677  -1.4604   8.4503   8.6137

     occupation numbers 
     1.0000   1.0000   1.0000   1.0030   0.0001   0.0000   0.0000   0.0000

          k = 0.0833-0.7520 0.0000 (  2712 PWs)   bands (ev):

   -15.3134 -13.3886 -10.5849  -2.4005  -2.2895  -1.9214   8.5618   9.7363

     occupation numbers 
     1.0000   1.0000   1.0000   0.2649   0.0972   0.0004   0.0000   0.0000

          k = 0.0833-0.6893 0.0000 (  2708 PWs)   bands (ev):

   -15.6409 -13.0399 -10.5135  -3.2305  -1.8677  -1.4604   8.4503   8.6137

     occupation numbers 
     1.0000   1.0000   1.0000   1.0030   0.0001   0.0000   0.0000   0.0000

          k = 0.0833-0.6267 0.0000 (  2705 PWs)   bands (ev):

   -16.2927 -12.3413 -10.2923  -4.0983  -1.7047  -0.6014   7.3886   7.9427

     occupation numbers 
     1.0000   1.0000   1.0000   1.0000   0.0000   0.0000   0.0000   0.0000

          k = 0.0833-0.5640 0.0000 (  2687 PWs)   bands (ev):

   -16.9886 -11.5916  -9.9020  -4.9266  -1.4346   0.2277   6.2565   7.0824

     occupation numbers 
     1.0000   1.0000   1.0000   1.0000   0.0000   0.0000   0.0000   0.0000

          k = 0.0833-0.5013 0.0000 (  2684 PWs)   bands (ev):

   -17.6585 -10.8915  -9.3444  -5.7074  -1.0696   1.0209   5.2325   6.1592

     occupation numbers 
     1.0000   1.0000   1.0000   1.0000   0.0000   0.0000   0.0000   0.0000

          k = 0.0833-0.4387 0.0000 (  2680 PWs)   bands (ev):

   -18.2741 -10.2557  -8.6592  -6.4199  -0.6243   1.7829   4.3236   5.2988

     occupation numbers 
     1.0000   1.0000   1.0000   1.0000   0.0000   0.0000   0.0000   0.0000

          k = 0.0833-0.3760 0.0000 (  2696 PWs)   bands (ev):

   -18.8210  -9.6405  -7.9380  -7.0588  -0.1350   2.4927   3.5332   4.5462

     occupation numbers 
     1.0000   1.0000   1.0000   1.0000   0.0000   0.0000   0.0000   0.0000

          k = 0.0833-0.3133 0.0000 (  2688 PWs)   bands (ev):

   -19.2912  -9.0078  -7.6091  -7.2354   0.3588   2.8632   3.1002   3.9722

     occupation numbers 
     1.0000   1.0000   1.0000   1.0000   0.0000   0.0000   0.0000   0.0000

          k = 0.0833-0.2507 0.0000 (  2682 PWs)   bands (ev):

   -19.6816  -8.3541  -8.0658  -6.6150   0.7916   2.3139   3.1462   3.7017

     occupation numbers 
     1.0000   1.0000   1.0000   1.0000   0.0000   0.0000   0.0000   0.0000

          k = 0.0833-0.1880 0.0000 (  2667 PWs)   bands (ev):

   -19.9875  -8.4249  -7.6970  -6.1226   1.1251   1.8849   2.7946   3.2618

     occupation numbers 
     1.0000   1.0000   1.0000   1.0000   0.0000   0.0000   0.0000   0.0000

          k = 0.0833-0.1253 0.0000 (  2669 PWs)   bands (ev):

   -20.2088  -8.6832  -7.0870  -5.8078   1.3547   1.5746   2.5072   2.9414

     occupation numbers 
     1.0000   1.0000   1.0000   1.0000   0.0000   0.0000   0.0000   0.0000

          k = 0.1250-0.0940 0.0000 (  2667 PWs)   bands (ev):

   -20.1887  -8.6637  -7.2999  -5.8975   1.5836   1.8900   2.5363   2.9600

     occupation numbers 
     1.0000   1.0000   1.0000   1.0000   0.0000   0.0000   0.0000   0.0000

          k = 0.1250-0.0313 0.0000 (  2671 PWs)   bands (ev):

   -20.2777  -8.7679  -6.7961  -6.0600   1.4563   2.1650   2.4191   2.7426

     occupation numbers 
     1.0000   1.0000   1.0000   1.0000   0.0000   0.0000   0.0000   0.0000

          k = 0.1250 0.0313 0.0000 (  2671 PWs)   bands (ev):

   -20.2777  -8.7679  -6.7961  -6.0600   1.4564   2.1650   2.4191   2.7416

     occupation numbers 
     1.0000   1.0000   1.0000   1.0000   0.0000   0.0000   0.0000   0.0000

          k = 0.1250 0.0940 0.0000 (  2667 PWs)   bands (ev):

   -20.1887  -8.6637  -7.3000  -5.8975   1.5836   1.8900   2.5363   2.9588

     occupation numbers 
     1.0000   1.0000   1.0000   1.0000   0.0000   0.0000   0.0000   0.0000

          k = 0.1250 0.1567 0.0000 (  2663 PWs)   bands (ev):

   -20.0113  -8.4566  -7.9356  -5.9290   1.6326   1.8452   2.7643   3.2223

     occupation numbers 
     1.0000   1.0000   1.0000   1.0000   0.0000   0.0000   0.0000   0.0000

          k = 0.1250 0.2193 0.0000 (  2678 PWs)   bands (ev):

   -19.7503  -8.6086  -8.1502  -6.2058   1.3614   2.2152   3.0661   3.6028

     occupation numbers 
     1.0000   1.0000   1.0000   1.0000   0.0000   0.0000   0.0000   0.0000

          k = 0.1250 0.2820 0.0000 (  2692 PWs)   bands (ev):

   -19.4041  -9.2703  -7.7474  -6.6890   1.0026   2.7065   3.0883   3.8619

     occupation numbers 
     1.0000   1.0000   1.0000   1.0000   0.0000   0.0000   0.0000   0.0000

          k = 0.1250 0.3447 0.0000 (  2680 PWs)   bands (ev):

   -18.9738  -9.8950  -7.3299  -7.2455   0.5688   2.5399   3.3174   4.3504

     occupation numbers 
     1.0000   1.0000   1.0000   1.0000   0.0000   0.0000   0.0000   0.0000

          k = 0.1250 0.4073 0.0000 (  2693 PWs)   bands (ev):

   -18.4681 -10.4818  -8.0706  -6.6613   0.0975   1.8663   4.0478   5.0412

     occupation numbers 
     1.0000   1.0000   1.0000   1.0000   0.0000   0.0000   0.0000   0.0000

          k = 0.1250 0.4700 0.0000 (  2677 PWs)   bands (ev):

   -17.8927 -11.0285  -8.8411  -5.9926  -0.3462   1.1668   4.8972   5.8512

     occupation numbers 
     1.0000   1.0000   1.0000   1.0000   0.0000   0.0000   0.0000   0.0000

          k = 0.1250 0.5327 0.0000 (  2686 PWs)   bands (ev):

   -17.2589 -11.5691  -9.5884  -5.2585  -0.7362   0.4327   5.8630   6.7389

     occupation numbers 
     1.0000   1.0000   1.0000   1.0000   0.0000   0.0000   0.0000   0.0000

          k = 0.1250 0.5953 0.0000 (  2693 PWs)   bands (ev):

   -16.5864 -12.1377 -10.2115  -4.4704  -1.0386  -0.3249   6.9402   7.6024

     occupation numbers 
     1.0000   1.0000   1.0000   1.0000   0.0000   0.0000   0.0000   0.0000

          k = 0.1250-0.8460 0.0000 (  2710 PWs)   bands (ev):

   -15.9258 -12.7369 -10.6365  -3.6439  -1.2490  -1.1194   8.1176   8.1441

     occupation numbers 
     1.0000   1.0000   1.0000   1.0000   0.0000   0.0000   0.0000   0.0000

          k = 0.1250-0.7833 0.0000 (  2702 PWs)   bands (ev):

   -15.4227 -13.2145 -10.8405  -2.7996  -1.9352  -1.3515   8.2520   9.3603

     occupation numbers 
     1.0000   1.0000   1.0000   1.0756   0.0005   0.0000   0.0000   0.0000

          k = 0.1250-0.7207 0.0000 (  2702 PWs)   bands (ev):

   -15.4227 -13.2145 -10.8405  -2.7996  -1.9351  -1.3515   8.2520   9.3603

     occupation numbers 
     1.0000   1.0000   1.0000   1.0756   0.0005   0.0000   0.0000   0.0000

          k = 0.1250-0.6580 0.0000 (  2710 PWs)   bands (ev):

   -15.9258 -12.7369 -10.6365  -3.6439  -1.2490  -1.1193   8.1176   8.1441

     occupation numbers 
     1.0000   1.0000   1.0000   1.0000   0.0000   0.0000   0.0000   0.0000

          k = 0.1250-0.5953 0.0000 (  2693 PWs)   bands (ev):

   -16.5864 -12.1376 -10.2116  -4.4704  -1.0386  -0.3249   6.9402   7.6024

     occupation numbers 
     1.0000   1.0000   1.0000   1.0000   0.0000   0.0000   0.0000   0.0000

          k = 0.1250-0.5327 0.0000 (  2686 PWs)   bands (ev):

   -17.2589 -11.5691  -9.5885  -5.2585  -0.7362   0.4327   5.8630   6.7387

     occupation numbers 
     1.0000   1.0000   1.0000   1.0000   0.0000   0.0000   0.0000   0.0000

          k = 0.1250-0.4700 0.0000 (  2677 PWs)   bands (ev):

   -17.8927 -11.0285  -8.8411  -5.9926  -0.3462   1.1668   4.8971   5.8511

     occupation numbers 
     1.0000   1.0000   1.0000   1.0000   0.0000   0.0000   0.0000   0.0000

          k = 0.1250-0.4073 0.0000 (  2693 PWs)   bands (ev):

   -18.4681 -10.4817  -8.0707  -6.6613   0.0976   1.8663   4.0478   5.0410

     occupation numbers 
     1.0000   1.0000   1.0000   1.0000   0.0000   0.0000   0.0000   0.0000

          k = 0.1250-0.3447 0.0000 (  2680 PWs)   bands (ev):

   -18.9738  -9.8950  -7.3299  -7.2455   0.5688   2.5399   3.3173   4.3498

     occupation numbers 
     1.0000   1.0000   1.0000   1.0000   0.0000   0.0000   0.0000   0.0000

          k = 0.1250-0.2820 0.0000 (  2692 PWs)   bands (ev):

   -19.4041  -9.2703  -7.7474  -6.6890   1.0026   2.7064   3.0883   3.8628

     occupation numbers 
     1.0000   1.0000   1.0000   1.0000   0.0000   0.0000   0.0000   0.0000

          k = 0.1250-0.2193 0.0000 (  2678 PWs)   bands (ev):

   -19.7503  -8.6085  -8.1502  -6.2058   1.3614   2.2152   3.0662   3.6029

     occupation numbers 
     1.0000   1.0000   1.0000   1.0000   0.0000   0.0000   0.0000   0.0000

          k = 0.1250-0.1567 0.0000 (  2663 PWs)   bands (ev):

   -20.0113  -8.4566  -7.9355  -5.9291   1.6326   1.8452   2.7643   3.2225

     occupation numbers 
     1.0000   1.0000   1.0000   1.0000   0.0000   0.0000   0.0000   0.0000

          k = 0.1667-0.1253 0.0000 (  2663 PWs)   bands (ev):

   -19.9746  -8.4200  -8.1803  -6.0746   1.8660   2.2786   2.8158   3.2719

     occupation numbers 
     1.0000   1.0000   1.0000   1.0000   0.0000   0.0000   0.0000   0.0000

          k = 0.1667-0.0627 0.0000 (  2673 PWs)   bands (ev):

   -20.1080  -8.5749  -7.5198  -6.3325   1.6795   2.5993   2.6491   3.0794

     occupation numbers 
     1.0000   1.0000   1.0000   1.0000   0.0000   0.0000   0.0000   0.0000

          k = 0.1667 0.0000 0.0000 (  2669 PWs)   bands (ev):

   -20.1516  -8.6236  -7.0915  -6.6310   1.6164   2.5923   2.9425   2.9594

     occupation numbers 
     1.0000   1.0000   1.0000   1.0000   0.0000   0.0000   0.0000   0.0000

          k = 0.1667 0.0627 0.0000 (  2673 PWs)   bands (ev):

   -20.1080  -8.5749  -7.5198  -6.3325   1.6795   2.5993   2.6491   3.0789

     occupation numbers 
     1.0000   1.0000   1.0000   1.0000   0.0000   0.0000   0.0000   0.0000

          k = 0.1667 0.1253 0.0000 (  2663 PWs)   bands (ev):

   -19.9746  -8.4200  -8.1803  -6.0746   1.8660   2.2785   2.8156   3.2720

     occupation numbers 
     1.0000   1.0000   1.0000   1.0000   0.0000   0.0000   0.0000   0.0000

          k = 0.1667 0.1880 0.0000 (  2675 PWs)   bands (ev):

   -19.7580  -8.8738  -8.1672  -6.0679   1.9784   2.2103   3.0504   3.5890

     occupation numbers 
     1.0000   1.0000   1.0000   1.0000   0.0000   0.0000   0.0000   0.0000

          k = 0.1667 0.2507 0.0000 (  2682 PWs)   bands (ev):

   -19.4560  -9.5487  -7.8159  -6.3338   1.7025   2.6321   3.0133   3.7916

     occupation numbers 
     1.0000   1.0000   1.0000   1.0000   0.0000   0.0000   0.0000   0.0000

          k = 0.1667 0.3133 0.0000 (  2670 PWs)   bands (ev):

   -19.0707 -10.1859  -7.3681  -6.8209   1.3504   2.4852   3.1840   4.2297

     occupation numbers 
     1.0000   1.0000   1.0000   1.0000   0.0000   0.0000   0.0000   0.0000

          k = 0.1667 0.3760 0.0000 (  2674 PWs)   bands (ev):

   -18.6074 -10.7696  -7.4918  -6.8372   0.9313   1.8489   3.8553   4.8649

     occupation numbers 
     1.0000   1.0000   1.0000   1.0000   0.0000   0.0000   0.0000   0.0000

          k = 0.1667 0.4387 0.0000 (  2667 PWs)   bands (ev):

   -18.0729 -11.2948  -8.2691  -6.2195   0.5044   1.1898   4.6450   5.6228

     occupation numbers 
     1.0000   1.0000   1.0000   1.0000   0.0000   0.0000   0.0000   0.0000

          k = 0.1667 0.5013 0.0000 (  2672 PWs)   bands (ev):

   -17.4787 -11.7626  -9.0900  -5.5355   0.1077   0.5215   5.5519   6.4708

     occupation numbers 
     1.0000   1.0000   1.0000   1.0000   0.0000   0.0000   0.0000   0.0000

          k = 0.1667 0.5640 0.0000 (  2689 PWs)   bands (ev):

   -16.8432 -12.1913  -9.8907  -4.7976  -0.2209  -0.1605   6.5720   7.3307

     occupation numbers 
     1.0000   1.0000   1.0000   1.0000   0.0000   0.0000   0.0000   0.0000

          k = 0.1667-0.8773 0.0000 (  2698 PWs)   bands (ev):

   -16.2033 -12.5966 -10.5672  -4.0275  -0.8601  -0.4634   7.6969   7.9187

     occupation numbers 
     1.0000   1.0000   1.0000   1.0000   0.0000   0.0000   0.0000   0.0000

          k = 0.1667-0.8147 0.0000 (  2710 PWs)   bands (ev):

   -15.6512 -12.9789 -11.0159  -3.2495  -1.5809  -0.6140   7.9923   8.9051

     occupation numbers 
     1.0000   1.0000   1.0000   1.0023   0.0000   0.0000   0.0000   0.0000

          k = 0.1667-0.7520 0.0000 (  2708 PWs)   bands (ev):

   -15.4018 -13.1651 -11.1677  -2.6871  -2.1206  -0.6641   7.9524   9.9787

     occupation numbers 
     1.0000   1.0000   1.0000   0.9643   0.0116   0.0000   0.0000   0.0000

          k = 0.1667-0.6893 0.0000 (  2710 PWs)   bands (ev):

   -15.6512 -12.9788 -11.0159  -3.2495  -1.5809  -0.6140   7.9923   8.9051

     occupation numbers 
     1.0000   1.0000   1.0000   1.0023   0.0000   0.0000   0.0000   0.0000

          k = 0.1667-0.6267 0.0000 (  2698 PWs)   bands (ev):

   -16.2033 -12.5966 -10.5672  -4.0276  -0.8601  -0.4634   7.6969   7.9187

     occupation numbers 
     1.0000   1.0000   1.0000   1.0000   0.0000   0.0000   0.0000   0.0000

          k = 0.1667-0.5640 0.0000 (  2689 PWs)   bands (ev):

   -16.8432 -12.1912  -9.8908  -4.7976  -0.2209  -0.1605   6.5720   7.3308

     occupation numbers 
     1.0000   1.0000   1.0000   1.0000   0.0000   0.0000   0.0000   0.0000

          k = 0.1667-0.5013 0.0000 (  2672 PWs)   bands (ev):

   -17.4787 -11.7626  -9.0900  -5.5355   0.1077   0.5215   5.5519   6.4708

     occupation numbers 
     1.0000   1.0000   1.0000   1.0000   0.0000   0.0000   0.0000   0.0000

          k = 0.1667-0.4387 0.0000 (  2667 PWs)   bands (ev):

   -18.0729 -11.2948  -8.2691  -6.2195   0.5044   1.1898   4.6450   5.6228

     occupation numbers 
     1.0000   1.0000   1.0000   1.0000   0.0000   0.0000   0.0000   0.0000

          k = 0.1667-0.3760 0.0000 (  2674 PWs)   bands (ev):

   -18.6074 -10.7696  -7.4918  -6.8372   0.9313   1.8489   3.8553   4.8647

     occupation numbers 
     1.0000   1.0000   1.0000   1.0000   0.0000   0.0000   0.0000   0.0000

          k = 0.1667-0.3133 0.0000 (  2670 PWs)   bands (ev):

   -19.0707 -10.1859  -7.3681  -6.8210   1.3504   2.4853   3.1841   4.2297

     occupation numbers 
     1.0000   1.0000   1.0000   1.0000   0.0000   0.0000   0.0000   0.0000

          k = 0.1667-0.2507 0.0000 (  2682 PWs)   bands (ev):

   -19.4560  -9.5487  -7.8159  -6.3338   1.7025   2.6321   3.0133   3.7916

     occupation numbers 
     1.0000   1.0000   1.0000   1.0000   0.0000   0.0000   0.0000   0.0000

          k = 0.1667-0.1880 0.0000 (  2675 PWs)   bands (ev):

   -19.7580  -8.8738  -8.1672  -6.0679   1.9784   2.2103   3.0504   3.5888

     occupation numbers 
     1.0000   1.0000   1.0000   1.0000   0.0000   0.0000   0.0000   0.0000

          k = 0.2083-0.1567 0.0000 (  2673 PWs)   bands (ev):

   -19.7064  -9.1290  -8.1126  -6.2412   2.2269   2.6914   3.0937   3.6687

     occupation numbers 
     1.0000   1.0000   1.0000   1.0000   0.0000   0.0000   0.0000   0.0000

          k = 0.2083-0.0940 0.0000 (  2674 PWs)   bands (ev):

   -19.8796  -8.4148  -8.3143  -6.5320   1.9865   2.9484   2.9966   3.4304

     occupation numbers 
     1.0000   1.0000   1.0000   1.0000   0.0000   0.0000   0.0000   0.0000

          k = 0.2083-0.0313 0.0000 (  2670 PWs)   bands (ev):

   -19.9665  -8.4142  -7.7356  -7.0106   1.8629   2.8461   3.2145   3.5056

     occupation numbers 
     1.0000   1.0000   1.0000   1.0000   0.0000   0.0000   0.0000   0.0000

          k = 0.2083 0.0313 0.0000 (  2670 PWs)   bands (ev):

   -19.9665  -8.4142  -7.7356  -7.0106   1.8630   2.8461   3.2145   3.5055

     occupation numbers 
     1.0000   1.0000   1.0000   1.0000   0.0000   0.0000   0.0000   0.0000

          k = 0.2083 0.0940 0.0000 (  2674 PWs)   bands (ev):

   -19.8796  -8.4149  -8.3143  -6.5319   1.9865   2.9484   2.9966   3.4302

     occupation numbers 
     1.0000   1.0000   1.0000   1.0000   0.0000   0.0000   0.0000   0.0000

          k = 0.2083 0.1567 0.0000 (  2673 PWs)   bands (ev):

   -19.7064  -9.1290  -8.1125  -6.2412   2.2269   2.6914   3.0936   3.6680

     occupation numbers 
     1.0000   1.0000   1.0000   1.0000   0.0000   0.0000   0.0000   0.0000

          k = 0.2083 0.2193 0.0000 (  2677 PWs)   bands (ev):

   -19.4484  -9.8286  -7.8158  -6.2248   2.3711   2.6648   2.8977   3.7638

     occupation numbers 
     1.0000   1.0000   1.0000   1.0000   0.0000   0.0000   0.0000   0.0000

          k = 0.2083 0.2820 0.0000 (  2687 PWs)   bands (ev):

   -19.1095 -10.4888  -7.4247  -6.4945   2.1227   2.3479   3.1346   4.1822

     occupation numbers 
     1.0000   1.0000   1.0000   1.0000   0.0000   0.0000   0.0000   0.0000

          k = 0.2083 0.3447 0.0000 (  2674 PWs)   bands (ev):

   -18.6897 -11.0849  -7.0102  -6.9453   1.7349   1.7977   3.7456   4.7667

     occupation numbers 
     1.0000   1.0000   1.0000   1.0000   0.0000   0.0000   0.0000   0.0000

          k = 0.2083 0.4073 0.0000 (  2676 PWs)   bands (ev):

   -18.1996 -11.6138  -7.7079  -6.3890   1.1117   1.4176   4.4761   5.4726

     occupation numbers 
     1.0000   1.0000   1.0000   1.0000   0.0000   0.0000   0.0000   0.0000

          k = 0.2083 0.4700 0.0000 (  2679 PWs)   bands (ev):

   -17.6475 -12.0631  -8.5214  -5.7614   0.4955   1.0389   5.3236   6.2781

     occupation numbers 
     1.0000   1.0000   1.0000   1.0000   0.0000   0.0000   0.0000   0.0000

          k = 0.2083 0.5327 0.0000 (  2685 PWs)   bands (ev):

   -17.0549 -12.4282  -9.3807  -5.0820  -0.1020   0.6954   6.2853   7.1283

     occupation numbers 
     1.0000   1.0000   1.0000   1.0000   0.0000   0.0000   0.0000   0.0000

          k = 0.2083-0.9087 0.0000 (  2701 PWs)   bands (ev):

   -16.4550 -12.7065 -10.2196  -4.3767  -0.7052   0.4243   7.3547   7.7882

     occupation numbers 
     1.0000   1.0000   1.0000   1.0000   0.0000   0.0000   0.0000   0.0000

          k = 0.2083-0.8460 0.0000 (  2708 PWs)   bands (ev):

   -15.9136 -12.8950 -10.9337  -3.6763  -1.2999   0.2425   7.8580   8.5160

     occupation numbers 
     1.0000   1.0000   1.0000   1.0000   0.0000   0.0000   0.0000   0.0000

          k = 0.2083-0.7833 0.0000 (  2710 PWs)   bands (ev):

   -15.5638 -12.9879 -11.3738  -3.0957  -1.8140   0.1489   7.7203   9.7148

     occupation numbers 
     1.0000   1.0000   1.0000   1.0174   0.0000   0.0000   0.0000   0.0000

          k = 0.2083-0.7207 0.0000 (  2710 PWs)   bands (ev):

   -15.5638 -12.9879 -11.3739  -3.0957  -1.8140   0.1489   7.7203   9.7148

     occupation numbers 
     1.0000   1.0000   1.0000   1.0174   0.0000   0.0000   0.0000   0.0000

          k = 0.2083-0.6580 0.0000 (  2708 PWs)   bands (ev):

   -15.9136 -12.8950 -10.9337  -3.6763  -1.2999   0.2425   7.8580   8.5160

     occupation numbers 
     1.0000   1.0000   1.0000   1.0000   0.0000   0.0000   0.0000   0.0000

          k = 0.2083-0.5953 0.0000 (  2701 PWs)   bands (ev):

   -16.4550 -12.7065 -10.2196  -4.3767  -0.7052   0.4243   7.3547   7.7882

     occupation numbers 
     1.0000   1.0000   1.0000   1.0000   0.0000   0.0000   0.0000   0.0000

          k = 0.2083-0.5327 0.0000 (  2685 PWs)   bands (ev):

   -17.0549 -12.4282  -9.3807  -5.0820  -0.1020   0.6954   6.2853   7.1284

     occupation numbers 
     1.0000   1.0000   1.0000   1.0000   0.0000   0.0000   0.0000   0.0000

          k = 0.2083-0.4700 0.0000 (  2679 PWs)   bands (ev):

   -17.6475 -12.0631  -8.5214  -5.7614   0.4955   1.0389   5.3236   6.2781

     occupation numbers 
     1.0000   1.0000   1.0000   1.0000   0.0000   0.0000   0.0000   0.0000

          k = 0.2083-0.4073 0.0000 (  2676 PWs)   bands (ev):

   -18.1996 -11.6138  -7.7080  -6.3890   1.1117   1.4176   4.4761   5.4727

     occupation numbers 
     1.0000   1.0000   1.0000   1.0000   0.0000   0.0000   0.0000   0.0000

          k = 0.2083-0.3447 0.0000 (  2674 PWs)   bands (ev):

   -18.6897 -11.0848  -7.0102  -6.9453   1.7350   1.7977   3.7456   4.7666

     occupation numbers 
     1.0000   1.0000   1.0000   1.0000   0.0000   0.0000   0.0000   0.0000

          k = 0.2083-0.2820 0.0000 (  2687 PWs)   bands (ev):

   -19.1095 -10.4888  -7.4247  -6.4946   2.1228   2.3479   3.1347   4.1823

     occupation numbers 
     1.0000   1.0000   1.0000   1.0000   0.0000   0.0000   0.0000   0.0000

          k = 0.2083-0.2193 0.0000 (  2677 PWs)   bands (ev):

   -19.4484  -9.8286  -7.8158  -6.2248   2.3711   2.6648   2.8977   3.7640

     occupation numbers 
     1.0000   1.0000   1.0000   1.0000   0.0000   0.0000   0.0000   0.0000

          k = 0.2500-0.1880 0.0000 (  2680 PWs)   bands (ev):

   -19.3830 -10.0896  -7.7481  -6.3986   2.6598   2.7349   3.1195   3.8066

     occupation numbers 
     1.0000   1.0000   1.0000   1.0000   0.0000   0.0000   0.0000   0.0000

          k = 0.2500-0.1253 0.0000 (  2673 PWs)   bands (ev):

   -19.5950  -9.3632  -7.9906  -6.6973   2.3739   3.1349   3.3838   3.6180

     occupation numbers 
     1.0000   1.0000   1.0000   1.0000   0.0000   0.0000   0.0000   0.0000

          k = 0.2500-0.0627 0.0000 (  2672 PWs)   bands (ev):

   -19.7231  -8.6229  -8.1384  -7.2136   2.1929   3.1610   3.5542   3.7796

     occupation numbers 
     1.0000   1.0000   1.0000   1.0000   0.0000   0.0000   0.0000   0.0000

          k = 0.2500 0.0000 0.0000 (  2674 PWs)   bands (ev):

   -19.7668  -8.1875  -8.0115  -7.7550   2.1316   3.1255   3.5248   3.8955

     occupation numbers 
     1.0000   1.0000   1.0000   1.0000   0.0000   0.0000   0.0000   0.0000

          k = 0.2500 0.0627 0.0000 (  2672 PWs)   bands (ev):

   -19.7231  -8.6229  -8.1384  -7.2136   2.1929   3.1610   3.5537   3.7795

     occupation numbers 
     1.0000   1.0000   1.0000   1.0000   0.0000   0.0000   0.0000   0.0000

          k = 0.2500 0.1253 0.0000 (  2673 PWs)   bands (ev):

   -19.5950  -9.3632  -7.9906  -6.6973   2.3739   3.1349   3.3838   3.6183

     occupation numbers 
     1.0000   1.0000   1.0000   1.0000   0.0000   0.0000   0.0000   0.0000

          k = 0.2500 0.1880 0.0000 (  2680 PWs)   bands (ev):

   -19.3830 -10.0896  -7.7481  -6.3986   2.6599   2.7349   3.1196   3.8077

     occupation numbers 
     1.0000   1.0000   1.0000   1.0000   0.0000   0.0000   0.0000   0.0000

          k = 0.2500 0.2507 0.0000 (  2690 PWs)   bands (ev):

   -19.0883 -10.7747  -7.4137  -6.3913   2.1635   2.7887   3.1984   4.2086

     occupation numbers 
     1.0000   1.0000   1.0000   1.0000   0.0000   0.0000   0.0000   0.0000

          k = 0.2500 0.3133 0.0000 (  2686 PWs)   bands (ev):

   -18.7147 -11.3946  -6.9902  -6.6783   1.5592   2.5975   3.7214   4.7454

     occupation numbers 
     1.0000   1.0000   1.0000   1.0000   0.0000   0.0000   0.0000   0.0000

          k = 0.2500 0.3760 0.0000 (  2678 PWs)   bands (ev):

   -18.2697 -11.9389  -7.2184  -6.4899   0.9647   2.3207   4.3900   5.4009

     occupation numbers 
     1.0000   1.0000   1.0000   1.0000   0.0000   0.0000   0.0000   0.0000

          k = 0.2500 0.4387 0.0000 (  2676 PWs)   bands (ev):

   -17.7653 -12.3902  -7.9459  -5.9256   0.3921   1.9903   5.1778   6.1611

     occupation numbers 
     1.0000   1.0000   1.0000   1.0000   0.0000   0.0000   0.0000   0.0000

          k = 0.2500 0.5013 0.0000 (  2688 PWs)   bands (ev):

   -17.2207 -12.7449  -8.7900  -5.3142  -0.1419   1.6636   6.0804   6.9906

     occupation numbers 
     1.0000   1.0000   1.0000   1.0000   0.0000   0.0000   0.0000   0.0000

          k = 0.2500-0.9400 0.0000 (  2700 PWs)   bands (ev):

   -16.6714 -12.9712  -9.6779  -4.6825  -0.6391   1.3815   7.0924   7.7274

     occupation numbers 
     1.0000   1.0000   1.0000   1.0000   0.0000   0.0000   0.0000   0.0000

          k = 0.2500-0.8773 0.0000 (  2706 PWs)   bands (ev):

   -16.1740 -13.0366 -10.5404  -4.0734  -1.0997   1.1696   7.8651   8.2017

     occupation numbers 
     1.0000   1.0000   1.0000   1.0000   0.0000   0.0000   0.0000   0.0000

          k = 0.2500-0.8147 0.0000 (  2718 PWs)   bands (ev):

   -15.8205 -12.9285 -11.2749  -3.5603  -1.4894   1.0383   7.6212   9.3679

     occupation numbers 
     1.0000   1.0000   1.0000   1.0000   0.0000   0.0000   0.0000   0.0000

          k = 0.2500-0.7520 0.0000 (  2720 PWs)   bands (ev):

   -15.6917 -12.7981 -11.6256  -3.3333  -1.6714   0.9928   7.5042  10.1322

     occupation numbers 
     1.0000   1.0000   1.0000   1.0006   0.0000   0.0000   0.0000   0.0000

          k = 0.2500-0.6893 0.0000 (  2718 PWs)   bands (ev):

   -15.8205 -12.9285 -11.2750  -3.5604  -1.4894   1.0383   7.6212   9.3680

     occupation numbers 
     1.0000   1.0000   1.0000   1.0000   0.0000   0.0000   0.0000   0.0000

          k = 0.2500-0.6267 0.0000 (  2706 PWs)   bands (ev):

   -16.1740 -13.0366 -10.5404  -4.0734  -1.0997   1.1696   7.8651   8.2017

     occupation numbers 
     1.0000   1.0000   1.0000   1.0000   0.0000   0.0000   0.0000   0.0000

          k = 0.2500-0.5640 0.0000 (  2700 PWs)   bands (ev):

   -16.6714 -12.9712  -9.6779  -4.6826  -0.6390   1.3815   7.0924   7.7274

     occupation numbers 
     1.0000   1.0000   1.0000   1.0000   0.0000   0.0000   0.0000   0.0000

          k = 0.2500-0.5013 0.0000 (  2688 PWs)   bands (ev):

   -17.2207 -12.7449  -8.7900  -5.3142  -0.1419   1.6636   6.0804   6.9906

     occupation numbers 
     1.0000   1.0000   1.0000   1.0000   0.0000   0.0000   0.0000   0.0000

          k = 0.2500-0.4387 0.0000 (  2676 PWs)   bands (ev):

   -17.7653 -12.3902  -7.9459  -5.9256   0.3921   1.9904   5.1778   6.1610

     occupation numbers 
     1.0000   1.0000   1.0000   1.0000   0.0000   0.0000   0.0000   0.0000

          k = 0.2500-0.3760 0.0000 (  2678 PWs)   bands (ev):

   -18.2697 -11.9388  -7.2184  -6.4899   0.9647   2.3207   4.3900   5.4008

     occupation numbers 
     1.0000   1.0000   1.0000   1.0000   0.0000   0.0000   0.0000   0.0000

          k = 0.2500-0.3133 0.0000 (  2686 PWs)   bands (ev):

   -18.7147 -11.3946  -6.9902  -6.6784   1.5593   2.5975   3.7214   4.7453

     occupation numbers 
     1.0000   1.0000   1.0000   1.0000   0.0000   0.0000   0.0000   0.0000

          k = 0.2500-0.2507 0.0000 (  2690 PWs)   bands (ev):

   -19.0883 -10.7747  -7.4138  -6.3914   2.1635   2.7887   3.1984   4.2086

     occupation numbers 
     1.0000   1.0000   1.0000   1.0000   0.0000   0.0000   0.0000   0.0000

          k = 0.2917-0.2193 0.0000 (  2686 PWs)   bands (ev):

   -19.0082 -11.0295  -7.3326  -6.5456   1.9519   3.1357   3.5573   4.3118

     occupation numbers 
     1.0000   1.0000   1.0000   1.0000   0.0000   0.0000   0.0000   0.0000

          k = 0.2917-0.1567 0.0000 (  2680 PWs)   bands (ev):

   -19.2570 -10.3192  -7.6112  -6.8397   2.5130   2.8346   3.7538   3.9394

     occupation numbers 
     1.0000   1.0000   1.0000   1.0000   0.0000   0.0000   0.0000   0.0000

          k = 0.2917-0.0940 0.0000 (  2673 PWs)   bands (ev):

   -19.4244  -9.5648  -7.7997  -7.3631   2.6018   2.9821   3.6793   3.9468

     occupation numbers 
     1.0000   1.0000   1.0000   1.0000   0.0000   0.0000   0.0000   0.0000

          k = 0.2917-0.0313 0.0000 (  2670 PWs)   bands (ev):

   -19.5082  -8.8015  -8.0299  -7.8966   2.4831   3.2915   3.5119   3.8936

     occupation numbers 
     1.0000   1.0000   1.0000   1.0000   0.0000   0.0000   0.0000   0.0000

          k = 0.2917 0.0313 0.0000 (  2670 PWs)   bands (ev):

   -19.5082  -8.8015  -8.0299  -7.8966   2.4831   3.2915   3.5119   3.8935

     occupation numbers 
     1.0000   1.0000   1.0000   1.0000   0.0000   0.0000   0.0000   0.0000

          k = 0.2917 0.0940 0.0000 (  2673 PWs)   bands (ev):

   -19.4244  -9.5648  -7.7997  -7.3631   2.6018   2.9821   3.6793   3.9470

     occupation numbers 
     1.0000   1.0000   1.0000   1.0000   0.0000   0.0000   0.0000   0.0000

          k = 0.2917 0.1567 0.0000 (  2680 PWs)   bands (ev):

   -19.2570 -10.3193  -7.6112  -6.8397   2.5130   2.8346   3.7538   3.9394

     occupation numbers 
     1.0000   1.0000   1.0000   1.0000   0.0000   0.0000   0.0000   0.0000

          k = 0.2917 0.2193 0.0000 (  2686 PWs)   bands (ev):

   -19.0082 -11.0295  -7.3326  -6.5456   1.9518   3.1357   3.5573   4.3121

     occupation numbers 
     1.0000   1.0000   1.0000   1.0000   0.0000   0.0000   0.0000   0.0000

          k = 0.2917 0.2820 0.0000 (  2680 PWs)   bands (ev):

   -18.6815 -11.6748  -6.9670  -6.5499   1.3586   3.2063   3.8072   4.8017

     occupation numbers 
     1.0000   1.0000   1.0000   1.0000   0.0000   0.0000   0.0000   0.0000

          k = 0.2917 0.3447 0.0000 (  2682 PWs)   bands (ev):

   -18.2848 -12.2432  -6.8655  -6.5282   0.7770   3.0830   4.3897   5.4061

     occupation numbers 
     1.0000   1.0000   1.0000   1.0000   0.0000   0.0000   0.0000   0.0000

          k = 0.2917 0.4073 0.0000 (  2683 PWs)   bands (ev):

   -17.8306 -12.7120  -7.4345  -6.0291   0.2368   2.8750   5.1141   6.1187

     occupation numbers 
     1.0000   1.0000   1.0000   1.0000   0.0000   0.0000   0.0000   0.0000

          k = 0.2917 0.4700 0.0000 (  2689 PWs)   bands (ev):

   -17.3390 -13.0687  -8.1932  -5.4892  -0.2443   2.6089   5.9571   6.9176

     occupation numbers 
     1.0000   1.0000   1.0000   1.0000   0.0000   0.0000   0.0000   0.0000

          k = 0.2917-0.9713 0.0000 (  2698 PWs)   bands (ev):

   -16.8481 -13.2762  -9.0581  -4.9417  -0.6527   2.3458   6.9106   7.7039

     occupation numbers 
     1.0000   1.0000   1.0000   1.0000   0.0000   0.0000   0.0000   0.0000

          k = 0.2917-0.9087 0.0000 (  2707 PWs)   bands (ev):

   -16.4152 -13.2877  -9.9642  -4.4271  -0.9832   2.1203   7.9639   7.9832

     occupation numbers 
     1.0000   1.0000   1.0000   1.0000   0.0000   0.0000   0.0000   0.0000

          k = 0.2917-0.8460 0.0000 (  2711 PWs)   bands (ev):

   -16.1092 -13.0643 -10.8356  -4.0093  -1.2243   1.9637   7.6602   9.0673

     occupation numbers 
     1.0000   1.0000   1.0000   1.0000   0.0000   0.0000   0.0000   0.0000

          k = 0.2917-0.7833 0.0000 (  2716 PWs)   bands (ev):

   -15.9589 -12.6681 -11.5592  -3.7626  -1.3601   1.8811   7.4005   9.2925

     occupation numbers 
     1.0000   1.0000   1.0000   1.0000   0.0000   0.0000   0.0000   0.0000

          k = 0.2917-0.7207 0.0000 (  2716 PWs)   bands (ev):

   -15.9589 -12.6681 -11.5592  -3.7626  -1.3601   1.8811   7.4005   9.2925

     occupation numbers 
     1.0000   1.0000   1.0000   1.0000   0.0000   0.0000   0.0000   0.0000

          k = 0.2917-0.6580 0.0000 (  2711 PWs)   bands (ev):

   -16.1092 -13.0643 -10.8356  -4.0093  -1.2243   1.9637   7.6602   9.0676

     occupation numbers 
     1.0000   1.0000   1.0000   1.0000   0.0000   0.0000   0.0000   0.0000

          k = 0.2917-0.5953 0.0000 (  2707 PWs)   bands (ev):

   -16.4152 -13.2877  -9.9642  -4.4272  -0.9832   2.1203   7.9639   7.9831

     occupation numbers 
     1.0000   1.0000   1.0000   1.0000   0.0000   0.0000   0.0000   0.0000

          k = 0.2917-0.5327 0.0000 (  2698 PWs)   bands (ev):

   -16.8481 -13.2762  -9.0581  -4.9418  -0.6527   2.3458   6.9106   7.7039

     occupation numbers 
     1.0000   1.0000   1.0000   1.0000   0.0000   0.0000   0.0000   0.0000

          k = 0.2917-0.4700 0.0000 (  2689 PWs)   bands (ev):

   -17.3390 -13.0687  -8.1932  -5.4892  -0.2442   2.6089   5.9571   6.9177

     occupation numbers 
     1.0000   1.0000   1.0000   1.0000   0.0000   0.0000   0.0000   0.0000

          k = 0.2917-0.4073 0.0000 (  2683 PWs)   bands (ev):

   -17.8306 -12.7120  -7.4345  -6.0291   0.2368   2.8751   5.1141   6.1185

     occupation numbers 
     1.0000   1.0000   1.0000   1.0000   0.0000   0.0000   0.0000   0.0000

          k = 0.2917-0.3447 0.0000 (  2682 PWs)   bands (ev):

   -18.2848 -12.2432  -6.8655  -6.5282   0.7770   3.0831   4.3897   5.4061

     occupation numbers 
     1.0000   1.0000   1.0000   1.0000   0.0000   0.0000   0.0000   0.0000

          k = 0.2917-0.2820 0.0000 (  2680 PWs)   bands (ev):

   -18.6815 -11.6748  -6.9670  -6.5499   1.3586   3.2064   3.8072   4.8019

     occupation numbers 
     1.0000   1.0000   1.0000   1.0000   0.0000   0.0000   0.0000   0.0000

          k = 0.3333-0.2507 0.0000 (  2685 PWs)   bands (ev):

   -18.5910 -11.9209  -6.8778  -6.6761   1.1397   3.5694   4.0639   4.9349

     occupation numbers 
     1.0000   1.0000   1.0000   1.0000   0.0000   0.0000   0.0000   0.0000

          k = 0.3333-0.1880 0.0000 (  2685 PWs)   bands (ev):

   -18.8710 -11.2474  -7.1865  -6.9504   1.7169   3.3459   4.0943   4.4937

     occupation numbers 
     1.0000   1.0000   1.0000   1.0000   0.0000   0.0000   0.0000   0.0000

          k = 0.3333-0.1253 0.0000 (  2675 PWs)   bands (ev):

   -19.0744 -10.5073  -7.4755  -7.4084   2.2459   3.0816   4.1639   4.3397

     occupation numbers 
     1.0000   1.0000   1.0000   1.0000   0.0000   0.0000   0.0000   0.0000

          k = 0.3333-0.0627 0.0000 (  2667 PWs)   bands (ev):

   -19.1969  -9.7250  -8.1591  -7.5446   2.6434   2.9103   3.9457   4.3299

     occupation numbers 
     1.0000   1.0000   1.0000   1.0000   0.0000   0.0000   0.0000   0.0000

          k = 0.3333 0.0000 0.0000 (  2670 PWs)   bands (ev):

   -19.2369  -8.9872  -8.8749  -7.5916   2.7972   2.8524   3.8624   4.2861

     occupation numbers 
     1.0000   1.0000   1.0000   1.0000   0.0000   0.0000   0.0000   0.0000

          k = 0.3333 0.0627 0.0000 (  2667 PWs)   bands (ev):

   -19.1969  -9.7250  -8.1591  -7.5446   2.6434   2.9103   3.9457   4.3296

     occupation numbers 
     1.0000   1.0000   1.0000   1.0000   0.0000   0.0000   0.0000   0.0000

          k = 0.3333 0.1253 0.0000 (  2675 PWs)   bands (ev):

   -19.0744 -10.5073  -7.4755  -7.4084   2.2459   3.0816   4.1639   4.3393

     occupation numbers 
     1.0000   1.0000   1.0000   1.0000   0.0000   0.0000   0.0000   0.0000

          k = 0.3333 0.1880 0.0000 (  2685 PWs)   bands (ev):

   -18.8710 -11.2474  -7.1865  -6.9503   1.7169   3.3458   4.0943   4.4938

     occupation numbers 
     1.0000   1.0000   1.0000   1.0000   0.0000   0.0000   0.0000   0.0000

          k = 0.3333 0.2507 0.0000 (  2685 PWs)   bands (ev):

   -18.5910 -11.9209  -6.8778  -6.6760   1.1397   3.5694   4.0639   4.9348

     occupation numbers 
     1.0000   1.0000   1.0000   1.0000   0.0000   0.0000   0.0000   0.0000

          k = 0.3333 0.3133 0.0000 (  2700 PWs)   bands (ev):

   -18.2457 -12.5152  -6.7081  -6.5046   0.5718   3.5743   4.4899   5.4880

     occupation numbers 
     1.0000   1.0000   1.0000   1.0000   0.0000   0.0000   0.0000   0.0000

          k = 0.3333 0.3760 0.0000 (  2696 PWs)   bands (ev):

   -17.8429 -13.0048  -7.0488  -6.0731   0.0560   3.5333   5.1348   6.1509

     occupation numbers 
     1.0000   1.0000   1.0000   1.0000   0.0000   0.0000   0.0000   0.0000

          k = 0.3333 0.4387 0.0000 (  2687 PWs)   bands (ev):

   -17.4094 -13.3707  -7.6440  -5.6115  -0.3803   3.4203   5.9144   6.9107

     occupation numbers 
     1.0000   1.0000   1.0000   1.0000   0.0000   0.0000   0.0000   0.0000

          k = 0.3333-1.0027 0.0000 (  2697 PWs)   bands (ev):

   -16.9879 -13.5698  -8.4247  -5.1547  -0.7149   3.2343   6.8084   8.1342

     occupation numbers 
     1.0000   1.0000   1.0000   1.0000   0.0000   0.0000   0.0000   0.0000

          k = 0.3333-0.9400 0.0000 (  2690 PWs)   bands (ev):

   -16.6333 -13.5476  -9.3036  -4.7387  -0.9266   3.0374   7.8027   8.1489

     occupation numbers 
     1.0000   1.0000   1.0000   1.0000   0.0000   0.0000   0.0000   0.0000

          k = 0.3333-0.8773 0.0000 (  2704 PWs)   bands (ev):

   -16.4017 -13.2696 -10.2164  -4.4209  -1.0265   2.8709   7.7834   8.6040

     occupation numbers 
     1.0000   1.0000   1.0000   1.0000   0.0000   0.0000   0.0000   0.0000

          k = 0.3333-0.8147 0.0000 (  2716 PWs)   bands (ev):

   -16.2900 -12.7596 -11.0896  -4.2305  -1.0473   2.7614   7.3939   8.4721

     occupation numbers 
     1.0000   1.0000   1.0000   1.0000   0.0000   0.0000   0.0000   0.0000

          k = 0.3333-0.7520 0.0000 (  2724 PWs)   bands (ev):

   -16.2586 -12.2874 -11.6855  -4.1639  -1.0460   2.7246   7.2452   8.4174

     occupation numbers 
     1.0000   1.0000   1.0000   1.0000   0.0000   0.0000   0.0000   0.0000

          k = 0.3333-0.6893 0.0000 (  2716 PWs)   bands (ev):

   -16.2900 -12.7596 -11.0896  -4.2305  -1.0473   2.7614   7.3939   8.4721

     occupation numbers 
     1.0000   1.0000   1.0000   1.0000   0.0000   0.0000   0.0000   0.0000

          k = 0.3333-0.6267 0.0000 (  2704 PWs)   bands (ev):

   -16.4017 -13.2695 -10.2164  -4.4209  -1.0265   2.8710   7.7835   8.6041

     occupation numbers 
     1.0000   1.0000   1.0000   1.0000   0.0000   0.0000   0.0000   0.0000

          k = 0.3333-0.5640 0.0000 (  2690 PWs)   bands (ev):

   -16.6333 -13.5476  -9.3036  -4.7387  -0.9266   3.0374   7.8027   8.1490

     occupation numbers 
     1.0000   1.0000   1.0000   1.0000   0.0000   0.0000   0.0000   0.0000

          k = 0.3333-0.5013 0.0000 (  2697 PWs)   bands (ev):

   -16.9879 -13.5698  -8.4247  -5.1547  -0.7149   3.2343   6.8084   8.1342

     occupation numbers 
     1.0000   1.0000   1.0000   1.0000   0.0000   0.0000   0.0000   0.0000

          k = 0.3333-0.4387 0.0000 (  2687 PWs)   bands (ev):

   -17.4094 -13.3707  -7.6440  -5.6115  -0.3803   3.4203   5.9144   6.9107

     occupation numbers 
     1.0000   1.0000   1.0000   1.0000   0.0000   0.0000   0.0000   0.0000

          k = 0.3333-0.3760 0.0000 (  2696 PWs)   bands (ev):

   -17.8429 -13.0048  -7.0488  -6.0731   0.0561   3.5333   5.1348   6.1511

     occupation numbers 
     1.0000   1.0000   1.0000   1.0000   0.0000   0.0000   0.0000   0.0000

          k = 0.3333-0.3133 0.0000 (  2700 PWs)   bands (ev):

   -18.2457 -12.5152  -6.7082  -6.5046   0.5718   3.5744   4.4899   5.4883

     occupation numbers 
     1.0000   1.0000   1.0000   1.0000   0.0000   0.0000   0.0000   0.0000

          k = 0.3750-0.2820 0.0000 (  2700 PWs)   bands (ev):

   -18.1505 -12.7422  -6.7809  -6.4151   0.3694   3.8643   4.7030   5.6467

     occupation numbers 
     1.0000   1.0000   1.0000   1.0000   0.0000   0.0000   0.0000   0.0000

          k = 0.3750-0.2193 0.0000 (  2683 PWs)   bands (ev):

   -18.4462 -12.1207  -7.0331  -6.7241   0.9166   3.8296   4.4709   5.1446

     occupation numbers 
     1.0000   1.0000   1.0000   1.0000   0.0000   0.0000   0.0000   0.0000

          k = 0.3750-0.1567 0.0000 (  2676 PWs)   bands (ev):

   -18.6771 -11.4167  -7.5506  -6.9697   1.4617   3.6098   4.6599   4.7528

     occupation numbers 
     1.0000   1.0000   1.0000   1.0000   0.0000   0.0000   0.0000   0.0000

          k = 0.3750-0.0940 0.0000 (  2682 PWs)   bands (ev):

   -18.8355 -10.6533  -8.2429  -7.1406   1.9238   3.4020   4.4746   4.7954

     occupation numbers 
     1.0000   1.0000   1.0000   1.0000   0.0000   0.0000   0.0000   0.0000

          k = 0.3750-0.0313 0.0000 (  2663 PWs)   bands (ev):

   -18.9148  -9.8423  -9.0243  -7.2276   2.2094   3.2920   4.3227   4.7433

     occupation numbers 
     1.0000   1.0000   1.0000   1.0000   0.0000   0.0000   0.0000   0.0000

          k = 0.3750 0.0313 0.0000 (  2663 PWs)   bands (ev):

   -18.9148  -9.8424  -9.0243  -7.2276   2.2094   3.2920   4.3227   4.7433

     occupation numbers 
     1.0000   1.0000   1.0000   1.0000   0.0000   0.0000   0.0000   0.0000

          k = 0.3750 0.0940 0.0000 (  2682 PWs)   bands (ev):

   -18.8355 -10.6534  -8.2429  -7.1406   1.9238   3.4020   4.4746   4.7955

     occupation numbers 
     1.0000   1.0000   1.0000   1.0000   0.0000   0.0000   0.0000   0.0000

          k = 0.3750 0.1567 0.0000 (  2676 PWs)   bands (ev):

   -18.6771 -11.4168  -7.5506  -6.9697   1.4617   3.6098   4.6599   4.7528

     occupation numbers 
     1.0000   1.0000   1.0000   1.0000   0.0000   0.0000   0.0000   0.0000

          k = 0.3750 0.2193 0.0000 (  2683 PWs)   bands (ev):

   -18.4462 -12.1207  -7.0331  -6.7241   0.9166   3.8296   4.4709   5.1443

     occupation numbers 
     1.0000   1.0000   1.0000   1.0000   0.0000   0.0000   0.0000   0.0000

          k = 0.3750 0.2820 0.0000 (  2700 PWs)   bands (ev):

   -18.1505 -12.7422  -6.7809  -6.4151   0.3694   3.8643   4.7030   5.6467

     occupation numbers 
     1.0000   1.0000   1.0000   1.0000   0.0000   0.0000   0.0000   0.0000

          k = 0.3750 0.3447 0.0000 (  2702 PWs)   bands (ev):

   -17.8046 -13.2536  -6.8402  -6.0572  -0.1266   3.8660   5.2479   6.2589

     occupation numbers 
     1.0000   1.0000   1.0000   1.0000   0.0000   0.0000   0.0000   0.0000

          k = 0.3750 0.4073 0.0000 (  2695 PWs)   bands (ev):

   -17.4353 -13.6279  -7.2107  -5.6790  -0.5265   3.9131   5.9524   7.1959

     occupation numbers 
     1.0000   1.0000   1.0000   1.0000   0.0000   0.0000   0.0000   0.0000

          k = 0.3750-1.0340 0.0000 (  2698 PWs)   bands (ev):

   -17.0915 -13.8197  -7.8416  -5.3170  -0.7954   3.9012   6.7804   7.5922

     occupation numbers 
     1.0000   1.0000   1.0000   1.0000   0.0000   0.0000   0.0000   0.0000

          k = 0.3750-0.9713 0.0000 (  2704 PWs)   bands (ev):

   -16.8313 -13.7711  -8.6369  -5.0170  -0.9107   3.8082   7.7008   8.0848

     occupation numbers 
     1.0000   1.0000   1.0000   1.0000   0.0000   0.0000   0.0000   0.0000

          k = 0.3750-0.9087 0.0000 (  2704 PWs)   bands (ev):

   -16.6872 -13.4556  -9.5197  -4.7987  -0.8845   3.6815   7.8499   7.9285

     occupation numbers 
     1.0000   1.0000   1.0000   1.0000   0.0000   0.0000   0.0000   0.0000

          k = 0.3750-0.8460 0.0000 (  2706 PWs)   bands (ev):

   -16.6344 -12.9075 -10.4280  -4.6782  -0.7768   3.5773   7.3897   7.7405

     occupation numbers 
     1.0000   1.0000   1.0000   1.0000   0.0000   0.0000   0.0000   0.0000

          k = 0.3750-0.7833 0.0000 (  2714 PWs)   bands (ev):

   -16.6250 -12.2214 -11.2895  -4.6246  -0.6852   3.5152   7.1156   7.6349

     occupation numbers 
     1.0000   1.0000   1.0000   1.0000   0.0000   0.0000   0.0000   0.0000

          k = 0.3750-0.7207 0.0000 (  2714 PWs)   bands (ev):

   -16.6250 -12.2214 -11.2895  -4.6246  -0.6852   3.5152   7.1157   7.6349

     occupation numbers 
     1.0000   1.0000   1.0000   1.0000   0.0000   0.0000   0.0000   0.0000

          k = 0.3750-0.6580 0.0000 (  2706 PWs)   bands (ev):

   -16.6344 -12.9075 -10.4281  -4.6782  -0.7768   3.5773   7.3897   7.7405

     occupation numbers 
     1.0000   1.0000   1.0000   1.0000   0.0000   0.0000   0.0000   0.0000

          k = 0.3750-0.5953 0.0000 (  2704 PWs)   bands (ev):

   -16.6872 -13.4555  -9.5197  -4.7987  -0.8845   3.6815   7.8499   7.9283

     occupation numbers 
     1.0000   1.0000   1.0000   1.0000   0.0000   0.0000   0.0000   0.0000

          k = 0.3750-0.5327 0.0000 (  2704 PWs)   bands (ev):

   -16.8313 -13.7710  -8.6370  -5.0170  -0.9107   3.8082   7.7008   8.0848

     occupation numbers 
     1.0000   1.0000   1.0000   1.0000   0.0000   0.0000   0.0000   0.0000

          k = 0.3750-0.4700 0.0000 (  2698 PWs)   bands (ev):

   -17.0915 -13.8197  -7.8417  -5.3171  -0.7954   3.9013   6.7804   7.5922

     occupation numbers 
     1.0000   1.0000   1.0000   1.0000   0.0000   0.0000   0.0000   0.0000

          k = 0.3750-0.4073 0.0000 (  2695 PWs)   bands (ev):

   -17.4353 -13.6279  -7.2107  -5.6790  -0.5264   3.9132   5.9523   7.1959

     occupation numbers 
     1.0000   1.0000   1.0000   1.0000   0.0000   0.0000   0.0000   0.0000

          k = 0.3750-0.3447 0.0000 (  2702 PWs)   bands (ev):

   -17.8046 -13.2536  -6.8402  -6.0572  -0.1266   3.8660   5.2479   6.2588

     occupation numbers 
     1.0000   1.0000   1.0000   1.0000   0.0000   0.0000   0.0000   0.0000

          k = 0.4167-0.3133 0.0000 (  2698 PWs)   bands (ev):

   -17.7155 -13.4487  -6.8553  -5.9813  -0.2966   4.0434   5.4537   6.4411

     occupation numbers 
     1.0000   1.0000   1.0000   1.0000   0.0000   0.0000   0.0000   0.0000

          k = 0.4167-0.2507 0.0000 (  2694 PWs)   bands (ev):

   -18.0030 -12.9169  -7.0858  -6.2619   0.1739   4.1294   5.0264   5.8794

     occupation numbers 
     1.0000   1.0000   1.0000   1.0000   0.0000   0.0000   0.0000   0.0000

          k = 0.4167-0.1880 0.0000 (  2675 PWs)   bands (ev):

   -18.2456 -12.2707  -7.5874  -6.5035   0.6930   4.1086   4.9712   5.4266

     occupation numbers 
     1.0000   1.0000   1.0000   1.0000   0.0000   0.0000   0.0000   0.0000

          k = 0.4167-0.1253 0.0000 (  2685 PWs)   bands (ev):

   -18.4313 -11.5417  -8.2818  -6.6947   1.1835   3.9281   5.0850   5.1764

     occupation numbers 
     1.0000   1.0000   1.0000   1.0000   0.0000   0.0000   0.0000   0.0000

          k = 0.4167-0.0627 0.0000 (  2681 PWs)   bands (ev):

   -18.5445 -10.7455  -9.0760  -6.8122   1.5585   3.7812   4.8640   5.2222

     occupation numbers 
     1.0000   1.0000   1.0000   1.0000   0.0000   0.0000   0.0000   0.0000

          k = 0.4167 0.0000 0.0000 (  2676 PWs)   bands (ev):

   -18.5831  -9.9124  -9.9099  -6.8521   1.7013   3.7290   4.7851   5.1999

     occupation numbers 
     1.0000   1.0000   1.0000   1.0000   0.0000   0.0000   0.0000   0.0000

          k = 0.4167 0.0627 0.0000 (  2681 PWs)   bands (ev):

   -18.5445 -10.7455  -9.0760  -6.8122   1.5585   3.7812   4.8640   5.2222

     occupation numbers 
     1.0000   1.0000   1.0000   1.0000   0.0000   0.0000   0.0000   0.0000

          k = 0.4167 0.1253 0.0000 (  2685 PWs)   bands (ev):

   -18.4313 -11.5417  -8.2818  -6.6947   1.1835   3.9281   5.0849   5.1762

     occupation numbers 
     1.0000   1.0000   1.0000   1.0000   0.0000   0.0000   0.0000   0.0000

          k = 0.4167 0.1880 0.0000 (  2675 PWs)   bands (ev):

   -18.2456 -12.2707  -7.5874  -6.5035   0.6930   4.1086   4.9712   5.4266

     occupation numbers 
     1.0000   1.0000   1.0000   1.0000   0.0000   0.0000   0.0000   0.0000

          k = 0.4167 0.2507 0.0000 (  2694 PWs)   bands (ev):

   -18.0030 -12.9169  -7.0857  -6.2619   0.1738   4.1294   5.0264   5.8793

     occupation numbers 
     1.0000   1.0000   1.0000   1.0000   0.0000   0.0000   0.0000   0.0000

          k = 0.4167 0.3133 0.0000 (  2698 PWs)   bands (ev):

   -17.7155 -13.4488  -6.8553  -5.9813  -0.2966   4.0434   5.4537   6.4411

     occupation numbers 
     1.0000   1.0000   1.0000   1.0000   0.0000   0.0000   0.0000   0.0000

          k = 0.4167 0.3760 0.0000 (  2694 PWs)   bands (ev):

   -17.4174 -13.8302  -6.9463  -5.6934  -0.6583   4.0760   6.0745   7.1080

     occupation numbers 
     1.0000   1.0000   1.0000   1.0000   0.0000   0.0000   0.0000   0.0000

          k = 0.4167-1.0653 0.0000 (  2694 PWs)   bands (ev):

   -17.1626 -14.0092  -7.3529  -5.4345  -0.8671   4.1987   6.8194   7.4172

     occupation numbers 
     1.0000   1.0000   1.0000   1.0000   0.0000   0.0000   0.0000   0.0000

          k = 0.4167-1.0027 0.0000 (  2700 PWs)   bands (ev):

   -17.0035 -13.9319  -8.0051  -5.2458  -0.9029   4.2850   7.3723   7.7634

     occupation numbers 
     1.0000   1.0000   1.0000   1.0000   0.0000   0.0000   0.0000   0.0000

          k = 0.4167-0.9400 0.0000 (  2706 PWs)   bands (ev):

   -16.9554 -13.5882  -8.8108  -5.1355  -0.7741   4.2729   7.2845   7.6904

     occupation numbers 
     1.0000   1.0000   1.0000   1.0000   0.0000   0.0000   0.0000   0.0000

          k = 0.4167-0.8773 0.0000 (  2706 PWs)   bands (ev):

   -16.9725 -13.0272  -9.6951  -5.0902  -0.5537   4.2153   7.0989   7.2361

     occupation numbers 
     1.0000   1.0000   1.0000   1.0000   0.0000   0.0000   0.0000   0.0000

          k = 0.4167-0.8147 0.0000 (  2712 PWs)   bands (ev):

   -17.0047 -12.3187 -10.5957  -5.0842  -0.3464   4.1591   6.9084   6.9639

     occupation numbers 
     1.0000   1.0000   1.0000   1.0000   0.0000   0.0000   0.0000   0.0000

          k = 0.4167-0.7520 0.0000 (  2706 PWs)   bands (ev):

   -17.0186 -11.6308 -11.3425  -5.0823  -0.2592   4.1365   6.7859   6.9166

     occupation numbers 
     1.0000   1.0000   1.0000   1.0000   0.0000   0.0000   0.0000   0.0000

          k = 0.4167-0.6893 0.0000 (  2712 PWs)   bands (ev):

   -17.0047 -12.3187 -10.5957  -5.0842  -0.3464   4.1591   6.9084   6.9639

     occupation numbers 
     1.0000   1.0000   1.0000   1.0000   0.0000   0.0000   0.0000   0.0000

          k = 0.4167-0.6267 0.0000 (  2706 PWs)   bands (ev):

   -16.9725 -13.0272  -9.6951  -5.0902  -0.5537   4.2153   7.0989   7.2361

     occupation numbers 
     1.0000   1.0000   1.0000   1.0000   0.0000   0.0000   0.0000   0.0000

          k = 0.4167-0.5640 0.0000 (  2706 PWs)   bands (ev):

   -16.9554 -13.5882  -8.8108  -5.1355  -0.7741   4.2729   7.2845   7.6904

     occupation numbers 
     1.0000   1.0000   1.0000   1.0000   0.0000   0.0000   0.0000   0.0000

          k = 0.4167-0.5013 0.0000 (  2700 PWs)   bands (ev):

   -17.0035 -13.9319  -8.0051  -5.2458  -0.9029   4.2850   7.3723   7.7634

     occupation numbers 
     1.0000   1.0000   1.0000   1.0000   0.0000   0.0000   0.0000   0.0000

          k = 0.4167-0.4387 0.0000 (  2694 PWs)   bands (ev):

   -17.1626 -14.0092  -7.3529  -5.4345  -0.8671   4.1988   6.8194   7.4172

     occupation numbers 
     1.0000   1.0000   1.0000   1.0000   0.0000   0.0000   0.0000   0.0000

          k = 0.4167-0.3760 0.0000 (  2694 PWs)   bands (ev):

   -17.4174 -13.8302  -6.9463  -5.6935  -0.6583   4.0761   6.0745   7.1080

     occupation numbers 
     1.0000   1.0000   1.0000   1.0000   0.0000   0.0000   0.0000   0.0000

          k = 0.4583-0.3447 0.0000 (  2690 PWs)   bands (ev):

   -17.3611 -13.9653  -6.8978  -5.6518  -0.7637   4.1415   6.2757   7.3135

     occupation numbers 
     1.0000   1.0000   1.0000   1.0000   0.0000   0.0000   0.0000   0.0000

          k = 0.4583-0.2820 0.0000 (  2700 PWs)   bands (ev):

   -17.5831 -13.5836  -7.1028  -5.8500  -0.4455   4.2503   5.7539   6.6940

     occupation numbers 
     1.0000   1.0000   1.0000   1.0000   0.0000   0.0000   0.0000   0.0000

          k = 0.4583-0.2193 0.0000 (  2688 PWs)   bands (ev):

   -17.8063 -13.0362  -7.5833  -6.0508  -0.0090   4.4030   5.4620   6.1796

     occupation numbers 
     1.0000   1.0000   1.0000   1.0000   0.0000   0.0000   0.0000   0.0000

          k = 0.4583-0.1567 0.0000 (  2681 PWs)   bands (ev):

   -17.9980 -12.3658  -8.2729  -6.2274   0.4658   4.3870   5.4875   5.7738

     occupation numbers 
     1.0000   1.0000   1.0000   1.0000   0.0000   0.0000   0.0000   0.0000

          k = 0.4583-0.0940 0.0000 (  2679 PWs)   bands (ev):

   -18.1342 -11.6091  -9.0770  -6.3584   0.8850   4.2637   5.4815   5.6043

     occupation numbers 
     1.0000   1.0000   1.0000   1.0000   0.0000   0.0000   0.0000   0.0000

          k = 0.4583-0.0313 0.0000 (  2692 PWs)   bands (ev):

   -18.2063 -10.7905  -9.9324  -6.4311   1.1359   4.1787   5.3218   5.6272

     occupation numbers 
     1.0000   1.0000   1.0000   1.0000   0.0000   0.0000   0.0000   0.0000

          k = 0.4583 0.0313 0.0000 (  2692 PWs)   bands (ev):

   -18.2063 -10.7905  -9.9324  -6.4311   1.1359   4.1787   5.3218   5.6272

     occupation numbers 
     1.0000   1.0000   1.0000   1.0000   0.0000   0.0000   0.0000   0.0000

          k = 0.4583 0.0940 0.0000 (  2679 PWs)   bands (ev):

   -18.1342 -11.6091  -9.0770  -6.3584   0.8850   4.2637   5.4815   5.6043

     occupation numbers 
     1.0000   1.0000   1.0000   1.0000   0.0000   0.0000   0.0000   0.0000

          k = 0.4583 0.1567 0.0000 (  2681 PWs)   bands (ev):

   -17.9980 -12.3658  -8.2728  -6.2274   0.4658   4.3870   5.4874   5.7737

     occupation numbers 
     1.0000   1.0000   1.0000   1.0000   0.0000   0.0000   0.0000   0.0000

          k = 0.4583 0.2193 0.0000 (  2688 PWs)   bands (ev):

   -17.8063 -13.0362  -7.5833  -6.0508  -0.0090   4.4030   5.4620   6.1797

     occupation numbers 
     1.0000   1.0000   1.0000   1.0000   0.0000   0.0000   0.0000   0.0000

          k = 0.4583 0.2820 0.0000 (  2700 PWs)   bands (ev):

   -17.5831 -13.5836  -7.1028  -5.8500  -0.4455   4.2502   5.7539   6.6940

     occupation numbers 
     1.0000   1.0000   1.0000   1.0000   0.0000   0.0000   0.0000   0.0000

          k = 0.4583 0.3447 0.0000 (  2690 PWs)   bands (ev):

   -17.3611 -13.9653  -6.8978  -5.6517  -0.7637   4.1415   6.2757   7.3135

     occupation numbers 
     1.0000   1.0000   1.0000   1.0000   0.0000   0.0000   0.0000   0.0000

          k = 0.4583-1.0967 0.0000 (  2695 PWs)   bands (ev):

   -17.2027 -14.1274  -7.0268  -5.5067  -0.9207   4.2056   6.9165   7.3583

     occupation numbers 
     1.0000   1.0000   1.0000   1.0000   0.0000   0.0000   0.0000   0.0000

          k = 0.4583-1.0340 0.0000 (  2698 PWs)   bands (ev):

   -17.1513 -14.0194  -7.4671  -5.4288  -0.8836   4.3827   6.9110   7.7896

     occupation numbers 
     1.0000   1.0000   1.0000   1.0000   0.0000   0.0000   0.0000   0.0000

          k = 0.4583-0.9713 0.0000 (  2697 PWs)   bands (ev):

   -17.1957 -13.6552  -8.1314  -5.4215  -0.6754   4.5287   6.6819   7.3627

     occupation numbers 
     1.0000   1.0000   1.0000   1.0000   0.0000   0.0000   0.0000   0.0000

          k = 0.4583-0.9087 0.0000 (  2696 PWs)   bands (ev):

   -17.2847 -13.0903  -8.9465  -5.4594  -0.3580   4.5664   6.5254   6.9140

     occupation numbers 
     1.0000   1.0000   1.0000   1.0000   0.0000   0.0000   0.0000   0.0000

          k = 0.4583-0.8460 0.0000 (  2700 PWs)   bands (ev):

   -17.3689 -12.3887  -9.8229  -5.5094  -0.0421   4.5394   6.4163   6.5714

     occupation numbers 
     1.0000   1.0000   1.0000   1.0000   0.0000   0.0000   0.0000   0.0000

          k = 0.4583-0.7833 0.0000 (  2694 PWs)   bands (ev):

   -17.4162 -11.5924 -10.7087  -5.5406   0.1591   4.5091   6.3568   6.3763

     occupation numbers 
     1.0000   1.0000   1.0000   1.0000   0.0000   0.0000   0.0000   0.0000

          k = 0.4583-0.7207 0.0000 (  2694 PWs)   bands (ev):

   -17.4162 -11.5924 -10.7088  -5.5406   0.1591   4.5091   6.3568   6.3763

     occupation numbers 
     1.0000   1.0000   1.0000   1.0000   0.0000   0.0000   0.0000   0.0000

          k = 0.4583-0.6580 0.0000 (  2700 PWs)   bands (ev):

   -17.3689 -12.3887  -9.8229  -5.5094  -0.0421   4.5394   6.4163   6.5714

     occupation numbers 
     1.0000   1.0000   1.0000   1.0000   0.0000   0.0000   0.0000   0.0000

          k = 0.4583-0.5953 0.0000 (  2696 PWs)   bands (ev):

   -17.2847 -13.0903  -8.9465  -5.4594  -0.3580   4.5664   6.5254   6.9140

     occupation numbers 
     1.0000   1.0000   1.0000   1.0000   0.0000   0.0000   0.0000   0.0000

          k = 0.4583-0.5327 0.0000 (  2697 PWs)   bands (ev):

   -17.1957 -13.6552  -8.1315  -5.4215  -0.6754   4.5287   6.6819   7.3627

     occupation numbers 
     1.0000   1.0000   1.0000   1.0000   0.0000   0.0000   0.0000   0.0000

          k = 0.4583-0.4700 0.0000 (  2698 PWs)   bands (ev):

   -17.1513 -14.0193  -7.4672  -5.4288  -0.8836   4.3827   6.9110   7.7896

     occupation numbers 
     1.0000   1.0000   1.0000   1.0000   0.0000   0.0000   0.0000   0.0000

          k = 0.4583-0.4073 0.0000 (  2695 PWs)   bands (ev):

   -17.2027 -14.1274  -7.0268  -5.5067  -0.9207   4.2056   6.9164   7.3583

     occupation numbers 
     1.0000   1.0000   1.0000   1.0000   0.0000   0.0000   0.0000   0.0000

          k =-0.5000 0.3760 0.0000 (  2692 PWs)   bands (ev):

   -17.2150 -14.1680  -6.9126  -5.5254  -0.9446   4.1776   6.9914   7.2882

     occupation numbers 
     1.0000   1.0000   1.0000   1.0000   0.0000   0.0000   0.0000   0.0000

          k =-0.5000 0.4387 0.0000 (  2698 PWs)   bands (ev):

   -17.2716 -14.0304  -7.0841  -5.5646  -0.8416   4.2639   6.5527   7.5851

     occupation numbers 
     1.0000   1.0000   1.0000   1.0000   0.0000   0.0000   0.0000   0.0000

          k =-0.5000 0.5013 0.0000 (  2698 PWs)   bands (ev):

   -17.4085 -13.6524  -7.5446  -5.6634  -0.5682   4.4613   6.1617   7.0089

     occupation numbers 
     1.0000   1.0000   1.0000   1.0000   0.0000   0.0000   0.0000   0.0000

          k =-0.5000 0.5640 0.0000 (  2687 PWs)   bands (ev):

   -17.5656 -13.0942  -8.2221  -5.7817  -0.1811   4.5947   5.9797   6.5358

     occupation numbers 
     1.0000   1.0000   1.0000   1.0000   0.0000   0.0000   0.0000   0.0000

          k =-0.5000 0.6267 0.0000 (  2694 PWs)   bands (ev):

   -17.7034 -12.4059  -9.0374  -5.8941   0.2245   4.5806   5.9557   6.1682

     occupation numbers 
     1.0000   1.0000   1.0000   1.0000   0.0000   0.0000   0.0000   0.0000

          k =-0.5000 0.6893 0.0000 (  2695 PWs)   bands (ev):

   -17.7947 -11.6254  -9.9029  -5.9747   0.5423   4.5184   5.9227   5.9616

     occupation numbers 
     1.0000   1.0000   1.0000   1.0000   0.0000   0.0000   0.0000   0.0000

          k =-0.5000 0.7520 0.0000 (  2688 PWs)   bands (ev):

   -17.8261 -10.8381 -10.7197  -6.0002   0.6649   4.4902   5.8344   5.9615

     occupation numbers 
     1.0000   1.0000   1.0000   1.0000   0.0000   0.0000   0.0000   0.0000

          k =-0.5000 0.8147 0.0000 (  2695 PWs)   bands (ev):

   -17.7947 -11.6255  -9.9029  -5.9747   0.5423   4.5184   5.9227   5.9616

     occupation numbers 
     1.0000   1.0000   1.0000   1.0000   0.0000   0.0000   0.0000   0.0000

          k =-0.5000 0.8773 0.0000 (  2694 PWs)   bands (ev):

   -17.7034 -12.4059  -9.0374  -5.8941   0.2245   4.5806   5.9557   6.1682

     occupation numbers 
     1.0000   1.0000   1.0000   1.0000   0.0000   0.0000   0.0000   0.0000

          k =-0.5000 0.9400 0.0000 (  2687 PWs)   bands (ev):

   -17.5656 -13.0942  -8.2221  -5.7817  -0.1811   4.5947   5.9797   6.5358

     occupation numbers 
     1.0000   1.0000   1.0000   1.0000   0.0000   0.0000   0.0000   0.0000

          k =-0.5000 1.0027 0.0000 (  2698 PWs)   bands (ev):

   -17.4085 -13.6524  -7.5445  -5.6634  -0.5683   4.4612   6.1617   7.0089

     occupation numbers 
     1.0000   1.0000   1.0000   1.0000   0.0000   0.0000   0.0000   0.0000

          k =-0.5000 1.0653 0.0000 (  2698 PWs)   bands (ev):

   -17.2716 -14.0304  -7.0841  -5.5646  -0.8416   4.2639   6.5527   7.5845

     occupation numbers 
     1.0000   1.0000   1.0000   1.0000   0.0000   0.0000   0.0000   0.0000

          k =-0.5000-0.3760 0.0000 (  2692 PWs)   bands (ev):

   -17.2150 -14.1680  -6.9125  -5.5254  -0.9446   4.1775   6.9914   7.2882

     occupation numbers 
     1.0000   1.0000   1.0000   1.0000   0.0000   0.0000   0.0000   0.0000

          k =-0.5000-0.3133 0.0000 (  2698 PWs)   bands (ev):

   -17.2716 -14.0304  -7.0841  -5.5646  -0.8416   4.2639   6.5527   7.5844

     occupation numbers 
     1.0000   1.0000   1.0000   1.0000   0.0000   0.0000   0.0000   0.0000

          k =-0.5000-0.2507 0.0000 (  2698 PWs)   bands (ev):

   -17.4085 -13.6524  -7.5445  -5.6634  -0.5683   4.4612   6.1617   7.0091

     occupation numbers 
     1.0000   1.0000   1.0000   1.0000   0.0000   0.0000   0.0000   0.0000

          k =-0.5000-0.1880 0.0000 (  2687 PWs)   bands (ev):

   -17.5656 -13.0942  -8.2221  -5.7817  -0.1811   4.5947   5.9797   6.5357

     occupation numbers 
     1.0000   1.0000   1.0000   1.0000   0.0000   0.0000   0.0000   0.0000

          k =-0.5000-0.1253 0.0000 (  2694 PWs)   bands (ev):

   -17.7034 -12.4059  -9.0374  -5.8941   0.2245   4.5806   5.9558   6.1684

     occupation numbers 
     1.0000   1.0000   1.0000   1.0000   0.0000   0.0000   0.0000   0.0000

          k =-0.5000-0.0627 0.0000 (  2695 PWs)   bands (ev):

   -17.7947 -11.6255  -9.9029  -5.9747   0.5423   4.5184   5.9227   5.9616

     occupation numbers 
     1.0000   1.0000   1.0000   1.0000   0.0000   0.0000   0.0000   0.0000

          k =-0.5000-0.0000 0.0000 (  2688 PWs)   bands (ev):

   -17.8261 -10.8381 -10.7197  -6.0002   0.6649   4.4902   5.8345   5.9615

     occupation numbers 
     1.0000   1.0000   1.0000   1.0000   0.0000   0.0000   0.0000   0.0000

          k =-0.5000 0.0627 0.0000 (  2695 PWs)   bands (ev):

   -17.7947 -11.6254  -9.9029  -5.9747   0.5423   4.5184   5.9227   5.9616

     occupation numbers 
     1.0000   1.0000   1.0000   1.0000   0.0000   0.0000   0.0000   0.0000

          k =-0.5000 0.1253 0.0000 (  2694 PWs)   bands (ev):

   -17.7034 -12.4059  -9.0374  -5.8941   0.2245   4.5806   5.9557   6.1682

     occupation numbers 
     1.0000   1.0000   1.0000   1.0000   0.0000   0.0000   0.0000   0.0000

          k =-0.5000 0.1880 0.0000 (  2687 PWs)   bands (ev):

   -17.5656 -13.0942  -8.2221  -5.7817  -0.1811   4.5947   5.9797   6.5357

     occupation numbers 
     1.0000   1.0000   1.0000   1.0000   0.0000   0.0000   0.0000   0.0000

          k =-0.5000 0.2507 0.0000 (  2698 PWs)   bands (ev):

   -17.4085 -13.6524  -7.5446  -5.6634  -0.5682   4.4613   6.1617   7.0089

     occupation numbers 
     1.0000   1.0000   1.0000   1.0000   0.0000   0.0000   0.0000   0.0000

          k =-0.5000 0.3133 0.0000 (  2698 PWs)   bands (ev):

   -17.2716 -14.0304  -7.0841  -5.5646  -0.8416   4.2639   6.5527   7.8405

     occupation numbers 
     1.0000   1.0000   1.0000   1.0000   0.0000   0.0000   0.0000   0.0000

          k =-0.4583 0.3447 0.0000 (  2690 PWs)   bands (ev):

   -17.3611 -13.9653  -6.8978  -5.6518  -0.7637   4.1415   6.2757   7.3135

     occupation numbers 
     1.0000   1.0000   1.0000   1.0000   0.0000   0.0000   0.0000   0.0000

          k =-0.4583 0.4073 0.0000 (  2695 PWs)   bands (ev):

   -17.2027 -14.1274  -7.0268  -5.5067  -0.9207   4.2056   6.9165   7.3582

     occupation numbers 
     1.0000   1.0000   1.0000   1.0000   0.0000   0.0000   0.0000   0.0000

          k =-0.4583 0.4700 0.0000 (  2698 PWs)   bands (ev):

   -17.1513 -14.0193  -7.4672  -5.4288  -0.8836   4.3827   6.9109   7.7896

     occupation numbers 
     1.0000   1.0000   1.0000   1.0000   0.0000   0.0000   0.0000   0.0000

          k =-0.4583 0.5327 0.0000 (  2697 PWs)   bands (ev):

   -17.1957 -13.6552  -8.1315  -5.4215  -0.6754   4.5287   6.6819   7.3628

     occupation numbers 
     1.0000   1.0000   1.0000   1.0000   0.0000   0.0000   0.0000   0.0000

          k =-0.4583 0.5953 0.0000 (  2696 PWs)   bands (ev):

   -17.2847 -13.0903  -8.9465  -5.4594  -0.3580   4.5664   6.5254   6.9140

     occupation numbers 
     1.0000   1.0000   1.0000   1.0000   0.0000   0.0000   0.0000   0.0000

          k =-0.4583 0.6580 0.0000 (  2700 PWs)   bands (ev):

   -17.3689 -12.3887  -9.8229  -5.5094  -0.0421   4.5394   6.4163   6.5714

     occupation numbers 
     1.0000   1.0000   1.0000   1.0000   0.0000   0.0000   0.0000   0.0000

          k =-0.4583 0.7207 0.0000 (  2694 PWs)   bands (ev):

   -17.4162 -11.5924 -10.7088  -5.5406   0.1591   4.5091   6.3568   6.3763

     occupation numbers 
     1.0000   1.0000   1.0000   1.0000   0.0000   0.0000   0.0000   0.0000

          k =-0.4583 0.7833 0.0000 (  2694 PWs)   bands (ev):

   -17.4162 -11.5924 -10.7087  -5.5406   0.1591   4.5091   6.3568   6.3763

     occupation numbers 
     1.0000   1.0000   1.0000   1.0000   0.0000   0.0000   0.0000   0.0000

          k =-0.4583 0.8460 0.0000 (  2700 PWs)   bands (ev):

   -17.3689 -12.3887  -9.8229  -5.5094  -0.0421   4.5394   6.4163   6.5714

     occupation numbers 
     1.0000   1.0000   1.0000   1.0000   0.0000   0.0000   0.0000   0.0000

          k =-0.4583 0.9087 0.0000 (  2696 PWs)   bands (ev):

   -17.2847 -13.0903  -8.9465  -5.4594  -0.3580   4.5664   6.5254   6.9140

     occupation numbers 
     1.0000   1.0000   1.0000   1.0000   0.0000   0.0000   0.0000   0.0000

          k =-0.4583 0.9713 0.0000 (  2697 PWs)   bands (ev):

   -17.1957 -13.6552  -8.1314  -5.4215  -0.6754   4.5287   6.6819   7.3627

     occupation numbers 
     1.0000   1.0000   1.0000   1.0000   0.0000   0.0000   0.0000   0.0000

          k =-0.4583 1.0340 0.0000 (  2698 PWs)   bands (ev):

   -17.1513 -14.0194  -7.4671  -5.4288  -0.8836   4.3826   6.9110   7.7896

     occupation numbers 
     1.0000   1.0000   1.0000   1.0000   0.0000   0.0000   0.0000   0.0000

          k =-0.4583-0.4073 0.0000 (  2695 PWs)   bands (ev):

   -17.2027 -14.1274  -7.0268  -5.5067  -0.9207   4.2056   6.9165   7.3582

     occupation numbers 
     1.0000   1.0000   1.0000   1.0000   0.0000   0.0000   0.0000   0.0000

          k =-0.4583-0.3447 0.0000 (  2690 PWs)   bands (ev):

   -17.3611 -13.9653  -6.8978  -5.6517  -0.7637   4.1415   6.2757   7.3135

     occupation numbers 
     1.0000   1.0000   1.0000   1.0000   0.0000   0.0000   0.0000   0.0000

          k =-0.4583-0.2820 0.0000 (  2700 PWs)   bands (ev):

   -17.5831 -13.5836  -7.1028  -5.8500  -0.4455   4.2502   5.7539   6.6940

     occupation numbers 
     1.0000   1.0000   1.0000   1.0000   0.0000   0.0000   0.0000   0.0000

          k =-0.4583-0.2193 0.0000 (  2688 PWs)   bands (ev):

   -17.8063 -13.0362  -7.5833  -6.0508  -0.0090   4.4030   5.4620   6.1797

     occupation numbers 
     1.0000   1.0000   1.0000   1.0000   0.0000   0.0000   0.0000   0.0000

          k =-0.4583-0.1567 0.0000 (  2681 PWs)   bands (ev):

   -17.9980 -12.3658  -8.2728  -6.2274   0.4658   4.3870   5.4874   5.7737

     occupation numbers 
     1.0000   1.0000   1.0000   1.0000   0.0000   0.0000   0.0000   0.0000

          k =-0.4583-0.0940 0.0000 (  2679 PWs)   bands (ev):

   -18.1342 -11.6091  -9.0770  -6.3584   0.8850   4.2637   5.4815   5.6043

     occupation numbers 
     1.0000   1.0000   1.0000   1.0000   0.0000   0.0000   0.0000   0.0000

          k =-0.4583-0.0313 0.0000 (  2692 PWs)   bands (ev):

   -18.2063 -10.7905  -9.9324  -6.4311   1.1359   4.1787   5.3218   5.6273

     occupation numbers 
     1.0000   1.0000   1.0000   1.0000   0.0000   0.0000   0.0000   0.0000

          k =-0.4583 0.0313 0.0000 (  2692 PWs)   bands (ev):

   -18.2063 -10.7905  -9.9324  -6.4311   1.1359   4.1787   5.3218   5.6272

     occupation numbers 
     1.0000   1.0000   1.0000   1.0000   0.0000   0.0000   0.0000   0.0000

          k =-0.4583 0.0940 0.0000 (  2679 PWs)   bands (ev):

   -18.1342 -11.6091  -9.0770  -6.3584   0.8850   4.2637   5.4817   5.6043

     occupation numbers 
     1.0000   1.0000   1.0000   1.0000   0.0000   0.0000   0.0000   0.0000

          k =-0.4583 0.1567 0.0000 (  2681 PWs)   bands (ev):

   -17.9980 -12.3658  -8.2729  -6.2274   0.4658   4.3870   5.4875   5.7737

     occupation numbers 
     1.0000   1.0000   1.0000   1.0000   0.0000   0.0000   0.0000   0.0000

          k =-0.4583 0.2193 0.0000 (  2688 PWs)   bands (ev):

   -17.8063 -13.0362  -7.5833  -6.0508  -0.0090   4.4030   5.4620   6.1796

     occupation numbers 
     1.0000   1.0000   1.0000   1.0000   0.0000   0.0000   0.0000   0.0000

          k =-0.4583 0.2820 0.0000 (  2700 PWs)   bands (ev):

   -17.5831 -13.5836  -7.1028  -5.8500  -0.4455   4.2503   5.7539   6.6940

     occupation numbers 
     1.0000   1.0000   1.0000   1.0000   0.0000   0.0000   0.0000   0.0000

          k =-0.4167 0.3133 0.0000 (  2698 PWs)   bands (ev):

   -17.7155 -13.4487  -6.8553  -5.9813  -0.2966   4.0434   5.4537   6.4411

     occupation numbers 
     1.0000   1.0000   1.0000   1.0000   0.0000   0.0000   0.0000   0.0000

          k =-0.4167 0.3760 0.0000 (  2694 PWs)   bands (ev):

   -17.4174 -13.8302  -6.9463  -5.6935  -0.6583   4.0761   6.0745   7.1080

     occupation numbers 
     1.0000   1.0000   1.0000   1.0000   0.0000   0.0000   0.0000   0.0000

          k =-0.4167 0.4387 0.0000 (  2694 PWs)   bands (ev):

   -17.1626 -14.0092  -7.3529  -5.4345  -0.8671   4.1988   6.8194   7.4172

     occupation numbers 
     1.0000   1.0000   1.0000   1.0000   0.0000   0.0000   0.0000   0.0000

          k =-0.4167 0.5013 0.0000 (  2700 PWs)   bands (ev):

   -17.0035 -13.9319  -8.0051  -5.2458  -0.9029   4.2850   7.3723   7.7634

     occupation numbers 
     1.0000   1.0000   1.0000   1.0000   0.0000   0.0000   0.0000   0.0000

          k =-0.4167 0.5640 0.0000 (  2706 PWs)   bands (ev):

   -16.9554 -13.5882  -8.8108  -5.1355  -0.7741   4.2729   7.2845   7.6904

     occupation numbers 
     1.0000   1.0000   1.0000   1.0000   0.0000   0.0000   0.0000   0.0000

          k =-0.4167 0.6267 0.0000 (  2706 PWs)   bands (ev):

   -16.9725 -13.0272  -9.6951  -5.0902  -0.5537   4.2153   7.0989   7.2361

     occupation numbers 
     1.0000   1.0000   1.0000   1.0000   0.0000   0.0000   0.0000   0.0000

          k =-0.4167 0.6893 0.0000 (  2712 PWs)   bands (ev):

   -17.0047 -12.3187 -10.5957  -5.0842  -0.3464   4.1591   6.9084   6.9638

     occupation numbers 
     1.0000   1.0000   1.0000   1.0000   0.0000   0.0000   0.0000   0.0000

          k =-0.4167 0.7520 0.0000 (  2706 PWs)   bands (ev):

   -17.0186 -11.6308 -11.3425  -5.0823  -0.2592   4.1365   6.7859   6.9166

     occupation numbers 
     1.0000   1.0000   1.0000   1.0000   0.0000   0.0000   0.0000   0.0000

          k =-0.4167 0.8147 0.0000 (  2712 PWs)   bands (ev):

   -17.0047 -12.3187 -10.5957  -5.0842  -0.3464   4.1591   6.9084   6.9638

     occupation numbers 
     1.0000   1.0000   1.0000   1.0000   0.0000   0.0000   0.0000   0.0000

          k =-0.4167 0.8773 0.0000 (  2706 PWs)   bands (ev):

   -16.9725 -13.0272  -9.6951  -5.0902  -0.5537   4.2153   7.0989   7.2361

     occupation numbers 
     1.0000   1.0000   1.0000   1.0000   0.0000   0.0000   0.0000   0.0000

          k =-0.4167 0.9400 0.0000 (  2706 PWs)   bands (ev):

   -16.9554 -13.5882  -8.8108  -5.1355  -0.7741   4.2729   7.2845   7.6904

     occupation numbers 
     1.0000   1.0000   1.0000   1.0000   0.0000   0.0000   0.0000   0.0000

          k =-0.4167 1.0027 0.0000 (  2700 PWs)   bands (ev):

   -17.0035 -13.9319  -8.0051  -5.2458  -0.9029   4.2850   7.3723   7.7634

     occupation numbers 
     1.0000   1.0000   1.0000   1.0000   0.0000   0.0000   0.0000   0.0000

          k =-0.4167-0.4387 0.0000 (  2694 PWs)   bands (ev):

   -17.1626 -14.0092  -7.3529  -5.4345  -0.8671   4.1987   6.8194   7.4172

     occupation numbers 
     1.0000   1.0000   1.0000   1.0000   0.0000   0.0000   0.0000   0.0000

          k =-0.4167-0.3760 0.0000 (  2694 PWs)   bands (ev):

   -17.4174 -13.8302  -6.9463  -5.6934  -0.6583   4.0760   6.0745   7.1080

     occupation numbers 
     1.0000   1.0000   1.0000   1.0000   0.0000   0.0000   0.0000   0.0000

          k =-0.4167-0.3133 0.0000 (  2698 PWs)   bands (ev):

   -17.7155 -13.4488  -6.8553  -5.9813  -0.2966   4.0434   5.4537   6.4411

     occupation numbers 
     1.0000   1.0000   1.0000   1.0000   0.0000   0.0000   0.0000   0.0000

          k =-0.4167-0.2507 0.0000 (  2694 PWs)   bands (ev):

   -18.0030 -12.9169  -7.0857  -6.2619   0.1738   4.1294   5.0264   5.8793

     occupation numbers 
     1.0000   1.0000   1.0000   1.0000   0.0000   0.0000   0.0000   0.0000

          k =-0.4167-0.1880 0.0000 (  2675 PWs)   bands (ev):

   -18.2456 -12.2707  -7.5874  -6.5035   0.6930   4.1086   4.9713   5.4266

     occupation numbers 
     1.0000   1.0000   1.0000   1.0000   0.0000   0.0000   0.0000   0.0000

          k =-0.4167-0.1253 0.0000 (  2685 PWs)   bands (ev):

   -18.4313 -11.5417  -8.2818  -6.6947   1.1835   3.9281   5.0849   5.1763

     occupation numbers 
     1.0000   1.0000   1.0000   1.0000   0.0000   0.0000   0.0000   0.0000

          k =-0.4167-0.0627 0.0000 (  2681 PWs)   bands (ev):

   -18.5445 -10.7455  -9.0760  -6.8122   1.5585   3.7812   4.8640   5.2222

     occupation numbers 
     1.0000   1.0000   1.0000   1.0000   0.0000   0.0000   0.0000   0.0000

          k =-0.4167-0.0000 0.0000 (  2676 PWs)   bands (ev):

   -18.5831  -9.9124  -9.9099  -6.8521   1.7013   3.7290   4.7852   5.1999

     occupation numbers 
     1.0000   1.0000   1.0000   1.0000   0.0000   0.0000   0.0000   0.0000

          k =-0.4167 0.0627 0.0000 (  2681 PWs)   bands (ev):

   -18.5445 -10.7455  -9.0760  -6.8122   1.5585   3.7812   4.8640   5.2222

     occupation numbers 
     1.0000   1.0000   1.0000   1.0000   0.0000   0.0000   0.0000   0.0000

          k =-0.4167 0.1253 0.0000 (  2685 PWs)   bands (ev):

   -18.4313 -11.5417  -8.2818  -6.6947   1.1835   3.9281   5.0849   5.1762

     occupation numbers 
     1.0000   1.0000   1.0000   1.0000   0.0000   0.0000   0.0000   0.0000

          k =-0.4167 0.1880 0.0000 (  2675 PWs)   bands (ev):

   -18.2456 -12.2707  -7.5874  -6.5035   0.6930   4.1086   4.9712   5.4266

     occupation numbers 
     1.0000   1.0000   1.0000   1.0000   0.0000   0.0000   0.0000   0.0000

          k =-0.4167 0.2507 0.0000 (  2694 PWs)   bands (ev):

   -18.0030 -12.9169  -7.0858  -6.2619   0.1739   4.1295   5.0264   5.8793

     occupation numbers 
     1.0000   1.0000   1.0000   1.0000   0.0000   0.0000   0.0000   0.0000

          k =-0.3750 0.2820 0.0000 (  2700 PWs)   bands (ev):

   -18.1505 -12.7422  -6.7809  -6.4151   0.3694   3.8643   4.7030   5.6467

     occupation numbers 
     1.0000   1.0000   1.0000   1.0000   0.0000   0.0000   0.0000   0.0000

          k =-0.3750 0.3447 0.0000 (  2702 PWs)   bands (ev):

   -17.8046 -13.2536  -6.8402  -6.0572  -0.1266   3.8660   5.2479   6.2588

     occupation numbers 
     1.0000   1.0000   1.0000   1.0000   0.0000   0.0000   0.0000   0.0000

          k =-0.3750 0.4073 0.0000 (  2695 PWs)   bands (ev):

   -17.4353 -13.6279  -7.2107  -5.6790  -0.5264   3.9132   5.9524   7.1959

     occupation numbers 
     1.0000   1.0000   1.0000   1.0000   0.0000   0.0000   0.0000   0.0000

          k =-0.3750 0.4700 0.0000 (  2698 PWs)   bands (ev):

   -17.0915 -13.8197  -7.8417  -5.3171  -0.7954   3.9013   6.7804   7.5922

     occupation numbers 
     1.0000   1.0000   1.0000   1.0000   0.0000   0.0000   0.0000   0.0000

          k =-0.3750 0.5327 0.0000 (  2704 PWs)   bands (ev):

   -16.8313 -13.7710  -8.6370  -5.0170  -0.9107   3.8082   7.7008   8.0849

     occupation numbers 
     1.0000   1.0000   1.0000   1.0000   0.0000   0.0000   0.0000   0.0000

          k =-0.3750 0.5953 0.0000 (  2704 PWs)   bands (ev):

   -16.6872 -13.4555  -9.5197  -4.7987  -0.8845   3.6815   7.8499   7.9284

     occupation numbers 
     1.0000   1.0000   1.0000   1.0000   0.0000   0.0000   0.0000   0.0000

          k =-0.3750 0.6580 0.0000 (  2706 PWs)   bands (ev):

   -16.6344 -12.9075 -10.4281  -4.6782  -0.7768   3.5773   7.3897   7.7405

     occupation numbers 
     1.0000   1.0000   1.0000   1.0000   0.0000   0.0000   0.0000   0.0000

          k =-0.3750 0.7207 0.0000 (  2714 PWs)   bands (ev):

   -16.6250 -12.2214 -11.2895  -4.6246  -0.6852   3.5152   7.1156   7.6349

     occupation numbers 
     1.0000   1.0000   1.0000   1.0000   0.0000   0.0000   0.0000   0.0000

          k =-0.3750 0.7833 0.0000 (  2714 PWs)   bands (ev):

   -16.6250 -12.2214 -11.2895  -4.6246  -0.6852   3.5152   7.1157   7.6349

     occupation numbers 
     1.0000   1.0000   1.0000   1.0000   0.0000   0.0000   0.0000   0.0000

          k =-0.3750 0.8460 0.0000 (  2706 PWs)   bands (ev):

   -16.6344 -12.9075 -10.4280  -4.6782  -0.7768   3.5773   7.3897   7.7405

     occupation numbers 
     1.0000   1.0000   1.0000   1.0000   0.0000   0.0000   0.0000   0.0000

          k =-0.3750 0.9087 0.0000 (  2704 PWs)   bands (ev):

   -16.6872 -13.4556  -9.5197  -4.7987  -0.8845   3.6815   7.8499   7.9283

     occupation numbers 
     1.0000   1.0000   1.0000   1.0000   0.0000   0.0000   0.0000   0.0000

          k =-0.3750 0.9713 0.0000 (  2704 PWs)   bands (ev):

   -16.8313 -13.7711  -8.6369  -5.0170  -0.9107   3.8082   7.7009   8.0848

     occupation numbers 
     1.0000   1.0000   1.0000   1.0000   0.0000   0.0000   0.0000   0.0000

          k =-0.3750-0.4700 0.0000 (  2698 PWs)   bands (ev):

   -17.0915 -13.8197  -7.8416  -5.3170  -0.7954   3.9012   6.7804   7.5923

     occupation numbers 
     1.0000   1.0000   1.0000   1.0000   0.0000   0.0000   0.0000   0.0000

          k =-0.3750-0.4073 0.0000 (  2695 PWs)   bands (ev):

   -17.4353 -13.6279  -7.2107  -5.6790  -0.5265   3.9131   5.9524   7.1959

     occupation numbers 
     1.0000   1.0000   1.0000   1.0000   0.0000   0.0000   0.0000   0.0000

          k =-0.3750-0.3447 0.0000 (  2702 PWs)   bands (ev):

   -17.8046 -13.2536  -6.8402  -6.0572  -0.1266   3.8660   5.2479   6.2588

     occupation numbers 
     1.0000   1.0000   1.0000   1.0000   0.0000   0.0000   0.0000   0.0000

          k =-0.3750-0.2820 0.0000 (  2700 PWs)   bands (ev):

   -18.1505 -12.7422  -6.7809  -6.4151   0.3694   3.8643   4.7030   5.6466

     occupation numbers 
     1.0000   1.0000   1.0000   1.0000   0.0000   0.0000   0.0000   0.0000

          k =-0.3750-0.2193 0.0000 (  2683 PWs)   bands (ev):

   -18.4462 -12.1207  -7.0331  -6.7241   0.9166   3.8296   4.4709   5.1448

     occupation numbers 
     1.0000   1.0000   1.0000   1.0000   0.0000   0.0000   0.0000   0.0000

          k =-0.3750-0.1567 0.0000 (  2676 PWs)   bands (ev):

   -18.6771 -11.4168  -7.5506  -6.9697   1.4617   3.6098   4.6599   4.7528

     occupation numbers 
     1.0000   1.0000   1.0000   1.0000   0.0000   0.0000   0.0000   0.0000

          k =-0.3750-0.0940 0.0000 (  2682 PWs)   bands (ev):

   -18.8355 -10.6534  -8.2429  -7.1406   1.9238   3.4020   4.4746   4.7954

     occupation numbers 
     1.0000   1.0000   1.0000   1.0000   0.0000   0.0000   0.0000   0.0000

          k =-0.3750-0.0313 0.0000 (  2663 PWs)   bands (ev):

   -18.9148  -9.8424  -9.0243  -7.2276   2.2094   3.2920   4.3228   4.7435

     occupation numbers 
     1.0000   1.0000   1.0000   1.0000   0.0000   0.0000   0.0000   0.0000

          k =-0.3750 0.0313 0.0000 (  2663 PWs)   bands (ev):

   -18.9148  -9.8423  -9.0243  -7.2276   2.2094   3.2920   4.3228   4.7436

     occupation numbers 
     1.0000   1.0000   1.0000   1.0000   0.0000   0.0000   0.0000   0.0000

          k =-0.3750 0.0940 0.0000 (  2682 PWs)   bands (ev):

   -18.8355 -10.6533  -8.2429  -7.1406   1.9238   3.4020   4.4747   4.7956

     occupation numbers 
     1.0000   1.0000   1.0000   1.0000   0.0000   0.0000   0.0000   0.0000

          k =-0.3750 0.1567 0.0000 (  2676 PWs)   bands (ev):

   -18.6771 -11.4167  -7.5506  -6.9697   1.4617   3.6098   4.6600   4.7529

     occupation numbers 
     1.0000   1.0000   1.0000   1.0000   0.0000   0.0000   0.0000   0.0000

          k =-0.3750 0.2193 0.0000 (  2683 PWs)   bands (ev):

   -18.4462 -12.1207  -7.0331  -6.7241   0.9166   3.8296   4.4709   5.1448

     occupation numbers 
     1.0000   1.0000   1.0000   1.0000   0.0000   0.0000   0.0000   0.0000

          k =-0.3333 0.2507 0.0000 (  2685 PWs)   bands (ev):

   -18.5910 -11.9209  -6.8778  -6.6761   1.1397   3.5694   4.0639   4.9348

     occupation numbers 
     1.0000   1.0000   1.0000   1.0000   0.0000   0.0000   0.0000   0.0000

          k =-0.3333 0.3133 0.0000 (  2700 PWs)   bands (ev):

   -18.2457 -12.5152  -6.7082  -6.5046   0.5718   3.5744   4.4899   5.4879

     occupation numbers 
     1.0000   1.0000   1.0000   1.0000   0.0000   0.0000   0.0000   0.0000

          k =-0.3333 0.3760 0.0000 (  2696 PWs)   bands (ev):

   -17.8429 -13.0048  -7.0488  -6.0731   0.0561   3.5333   5.1348   6.1515

     occupation numbers 
     1.0000   1.0000   1.0000   1.0000   0.0000   0.0000   0.0000   0.0000

          k =-0.3333 0.4387 0.0000 (  2687 PWs)   bands (ev):

   -17.4094 -13.3707  -7.6440  -5.6115  -0.3803   3.4203   5.9144   6.9107

     occupation numbers 
     1.0000   1.0000   1.0000   1.0000   0.0000   0.0000   0.0000   0.0000

          k =-0.3333 0.5013 0.0000 (  2697 PWs)   bands (ev):

   -16.9879 -13.5698  -8.4247  -5.1547  -0.7149   3.2343   6.8084   8.1341

     occupation numbers 
     1.0000   1.0000   1.0000   1.0000   0.0000   0.0000   0.0000   0.0000

          k =-0.3333 0.5640 0.0000 (  2690 PWs)   bands (ev):

   -16.6333 -13.5476  -9.3036  -4.7387  -0.9266   3.0374   7.8027   8.1487

     occupation numbers 
     1.0000   1.0000   1.0000   1.0000   0.0000   0.0000   0.0000   0.0000

          k =-0.3333 0.6267 0.0000 (  2704 PWs)   bands (ev):

   -16.4017 -13.2695 -10.2164  -4.4209  -1.0265   2.8710   7.7835   8.6041

     occupation numbers 
     1.0000   1.0000   1.0000   1.0000   0.0000   0.0000   0.0000   0.0000

          k =-0.3333 0.6893 0.0000 (  2716 PWs)   bands (ev):

   -16.2900 -12.7596 -11.0896  -4.2305  -1.0473   2.7614   7.3939   8.4721

     occupation numbers 
     1.0000   1.0000   1.0000   1.0000   0.0000   0.0000   0.0000   0.0000

          k =-0.3333 0.7520 0.0000 (  2724 PWs)   bands (ev):

   -16.2586 -12.2874 -11.6855  -4.1639  -1.0460   2.7246   7.2452   8.4174

     occupation numbers 
     1.0000   1.0000   1.0000   1.0000   0.0000   0.0000   0.0000   0.0000

          k =-0.3333 0.8147 0.0000 (  2716 PWs)   bands (ev):

   -16.2900 -12.7596 -11.0896  -4.2305  -1.0473   2.7614   7.3939   8.4721

     occupation numbers 
     1.0000   1.0000   1.0000   1.0000   0.0000   0.0000   0.0000   0.0000

          k =-0.3333 0.8773 0.0000 (  2704 PWs)   bands (ev):

   -16.4017 -13.2696 -10.2164  -4.4209  -1.0265   2.8709   7.7835   8.6040

     occupation numbers 
     1.0000   1.0000   1.0000   1.0000   0.0000   0.0000   0.0000   0.0000

          k =-0.3333 0.9400 0.0000 (  2690 PWs)   bands (ev):

   -16.6333 -13.5476  -9.3036  -4.7387  -0.9266   3.0374   7.8027   8.1488

     occupation numbers 
     1.0000   1.0000   1.0000   1.0000   0.0000   0.0000   0.0000   0.0000

          k =-0.3333-0.5013 0.0000 (  2697 PWs)   bands (ev):

   -16.9879 -13.5698  -8.4247  -5.1547  -0.7149   3.2343   6.8084   8.1335

     occupation numbers 
     1.0000   1.0000   1.0000   1.0000   0.0000   0.0000   0.0000   0.0000

          k =-0.3333-0.4387 0.0000 (  2687 PWs)   bands (ev):

   -17.4094 -13.3707  -7.6440  -5.6115  -0.3803   3.4203   5.9144   6.9107

     occupation numbers 
     1.0000   1.0000   1.0000   1.0000   0.0000   0.0000   0.0000   0.0000

          k =-0.3333-0.3760 0.0000 (  2696 PWs)   bands (ev):

   -17.8429 -13.0048  -7.0488  -6.0731   0.0560   3.5333   5.1348   6.1511

     occupation numbers 
     1.0000   1.0000   1.0000   1.0000   0.0000   0.0000   0.0000   0.0000

          k =-0.3333-0.3133 0.0000 (  2700 PWs)   bands (ev):

   -18.2457 -12.5152  -6.7081  -6.5046   0.5718   3.5743   4.4899   5.4880

     occupation numbers 
     1.0000   1.0000   1.0000   1.0000   0.0000   0.0000   0.0000   0.0000

          k =-0.3333-0.2507 0.0000 (  2685 PWs)   bands (ev):

   -18.5910 -11.9209  -6.8778  -6.6760   1.1397   3.5694   4.0639   4.9348

     occupation numbers 
     1.0000   1.0000   1.0000   1.0000   0.0000   0.0000   0.0000   0.0000

          k =-0.3333-0.1880 0.0000 (  2685 PWs)   bands (ev):

   -18.8710 -11.2474  -7.1865  -6.9503   1.7169   3.3458   4.0943   4.4938

     occupation numbers 
     1.0000   1.0000   1.0000   1.0000   0.0000   0.0000   0.0000   0.0000

          k =-0.3333-0.1253 0.0000 (  2675 PWs)   bands (ev):

   -19.0744 -10.5073  -7.4755  -7.4084   2.2459   3.0816   4.1639   4.3394

     occupation numbers 
     1.0000   1.0000   1.0000   1.0000   0.0000   0.0000   0.0000   0.0000

          k =-0.3333-0.0627 0.0000 (  2667 PWs)   bands (ev):

   -19.1969  -9.7250  -8.1591  -7.5446   2.6434   2.9103   3.9457   4.3296

     occupation numbers 
     1.0000   1.0000   1.0000   1.0000   0.0000   0.0000   0.0000   0.0000

          k =-0.3333-0.0000 0.0000 (  2670 PWs)   bands (ev):

   -19.2369  -8.9872  -8.8749  -7.5916   2.7972   2.8524   3.8624   4.2861

     occupation numbers 
     1.0000   1.0000   1.0000   1.0000   0.0000   0.0000   0.0000   0.0000

          k =-0.3333 0.0627 0.0000 (  2667 PWs)   bands (ev):

   -19.1969  -9.7250  -8.1591  -7.5446   2.6434   2.9103   3.9457   4.3296

     occupation numbers 
     1.0000   1.0000   1.0000   1.0000   0.0000   0.0000   0.0000   0.0000

          k =-0.3333 0.1253 0.0000 (  2675 PWs)   bands (ev):

   -19.0744 -10.5073  -7.4755  -7.4084   2.2459   3.0816   4.1641   4.3394

     occupation numbers 
     1.0000   1.0000   1.0000   1.0000   0.0000   0.0000   0.0000   0.0000

          k =-0.3333 0.1880 0.0000 (  2685 PWs)   bands (ev):

   -18.8710 -11.2474  -7.1865  -6.9504   1.7169   3.3459   4.0943   4.4941

     occupation numbers 
     1.0000   1.0000   1.0000   1.0000   0.0000   0.0000   0.0000   0.0000

          k =-0.2917 0.2193 0.0000 (  2686 PWs)   bands (ev):

   -19.0082 -11.0295  -7.3326  -6.5456   1.9519   3.1357   3.5573   4.3120

     occupation numbers 
     1.0000   1.0000   1.0000   1.0000   0.0000   0.0000   0.0000   0.0000

          k =-0.2917 0.2820 0.0000 (  2680 PWs)   bands (ev):

   -18.6815 -11.6748  -6.9670  -6.5499   1.3586   3.2064   3.8072   4.8017

     occupation numbers 
     1.0000   1.0000   1.0000   1.0000   0.0000   0.0000   0.0000   0.0000

          k =-0.2917 0.3447 0.0000 (  2682 PWs)   bands (ev):

   -18.2848 -12.2432  -6.8655  -6.5282   0.7770   3.0831   4.3897   5.4061

     occupation numbers 
     1.0000   1.0000   1.0000   1.0000   0.0000   0.0000   0.0000   0.0000

          k =-0.2917 0.4073 0.0000 (  2683 PWs)   bands (ev):

   -17.8306 -12.7120  -7.4345  -6.0291   0.2368   2.8751   5.1141   6.1185

     occupation numbers 
     1.0000   1.0000   1.0000   1.0000   0.0000   0.0000   0.0000   0.0000

          k =-0.2917 0.4700 0.0000 (  2689 PWs)   bands (ev):

   -17.3390 -13.0687  -8.1932  -5.4892  -0.2442   2.6089   5.9571   6.9176

     occupation numbers 
     1.0000   1.0000   1.0000   1.0000   0.0000   0.0000   0.0000   0.0000

          k =-0.2917 0.5327 0.0000 (  2698 PWs)   bands (ev):

   -16.8481 -13.2762  -9.0581  -4.9418  -0.6527   2.3458   6.9106   7.7039

     occupation numbers 
     1.0000   1.0000   1.0000   1.0000   0.0000   0.0000   0.0000   0.0000

          k =-0.2917 0.5953 0.0000 (  2707 PWs)   bands (ev):

   -16.4152 -13.2877  -9.9642  -4.4272  -0.9832   2.1203   7.9639   7.9831

     occupation numbers 
     1.0000   1.0000   1.0000   1.0000   0.0000   0.0000   0.0000   0.0000

          k =-0.2917 0.6580 0.0000 (  2711 PWs)   bands (ev):

   -16.1092 -13.0643 -10.8356  -4.0093  -1.2243   1.9637   7.6602   9.0674

     occupation numbers 
     1.0000   1.0000   1.0000   1.0000   0.0000   0.0000   0.0000   0.0000

          k =-0.2917 0.7207 0.0000 (  2716 PWs)   bands (ev):

   -15.9589 -12.6681 -11.5592  -3.7626  -1.3601   1.8811   7.4005   9.2925

     occupation numbers 
     1.0000   1.0000   1.0000   1.0000   0.0000   0.0000   0.0000   0.0000

          k =-0.2917 0.7833 0.0000 (  2716 PWs)   bands (ev):

   -15.9589 -12.6681 -11.5592  -3.7626  -1.3601   1.8811   7.4005   9.2926

     occupation numbers 
     1.0000   1.0000   1.0000   1.0000   0.0000   0.0000   0.0000   0.0000

          k =-0.2917 0.8460 0.0000 (  2711 PWs)   bands (ev):

   -16.1092 -13.0643 -10.8356  -4.0093  -1.2243   1.9637   7.6602   9.0678

     occupation numbers 
     1.0000   1.0000   1.0000   1.0000   0.0000   0.0000   0.0000   0.0000

          k =-0.2917 0.9087 0.0000 (  2707 PWs)   bands (ev):

   -16.4152 -13.2877  -9.9642  -4.4271  -0.9832   2.1203   7.9640   7.9831

     occupation numbers 
     1.0000   1.0000   1.0000   1.0000   0.0000   0.0000   0.0000   0.0000

          k =-0.2917-0.5327 0.0000 (  2698 PWs)   bands (ev):

   -16.8481 -13.2762  -9.0581  -4.9417  -0.6527   2.3458   6.9106   7.7039

     occupation numbers 
     1.0000   1.0000   1.0000   1.0000   0.0000   0.0000   0.0000   0.0000

          k =-0.2917-0.4700 0.0000 (  2689 PWs)   bands (ev):

   -17.3390 -13.0687  -8.1932  -5.4892  -0.2443   2.6089   5.9571   6.9176

     occupation numbers 
     1.0000   1.0000   1.0000   1.0000   0.0000   0.0000   0.0000   0.0000

          k =-0.2917-0.4073 0.0000 (  2683 PWs)   bands (ev):

   -17.8306 -12.7120  -7.4345  -6.0291   0.2368   2.8750   5.1141   6.1184

     occupation numbers 
     1.0000   1.0000   1.0000   1.0000   0.0000   0.0000   0.0000   0.0000

          k =-0.2917-0.3447 0.0000 (  2682 PWs)   bands (ev):

   -18.2848 -12.2432  -6.8655  -6.5282   0.7770   3.0830   4.3897   5.4061

     occupation numbers 
     1.0000   1.0000   1.0000   1.0000   0.0000   0.0000   0.0000   0.0000

          k =-0.2917-0.2820 0.0000 (  2680 PWs)   bands (ev):

   -18.6815 -11.6748  -6.9670  -6.5499   1.3586   3.2063   3.8072   4.8017

     occupation numbers 
     1.0000   1.0000   1.0000   1.0000   0.0000   0.0000   0.0000   0.0000

          k =-0.2917-0.2193 0.0000 (  2686 PWs)   bands (ev):

   -19.0082 -11.0295  -7.3326  -6.5456   1.9518   3.1357   3.5573   4.3119

     occupation numbers 
     1.0000   1.0000   1.0000   1.0000   0.0000   0.0000   0.0000   0.0000

          k =-0.2917-0.1567 0.0000 (  2680 PWs)   bands (ev):

   -19.2570 -10.3193  -7.6112  -6.8397   2.5130   2.8346   3.7539   3.9395

     occupation numbers 
     1.0000   1.0000   1.0000   1.0000   0.0000   0.0000   0.0000   0.0000

          k =-0.2917-0.0940 0.0000 (  2673 PWs)   bands (ev):

   -19.4244  -9.5648  -7.7997  -7.3631   2.6018   2.9821   3.6793   3.9468

     occupation numbers 
     1.0000   1.0000   1.0000   1.0000   0.0000   0.0000   0.0000   0.0000

          k =-0.2917-0.0313 0.0000 (  2670 PWs)   bands (ev):

   -19.5082  -8.8015  -8.0299  -7.8966   2.4831   3.2915   3.5119   3.8935

     occupation numbers 
     1.0000   1.0000   1.0000   1.0000   0.0000   0.0000   0.0000   0.0000

          k =-0.2917 0.0313 0.0000 (  2670 PWs)   bands (ev):

   -19.5082  -8.8015  -8.0299  -7.8966   2.4831   3.2915   3.5119   3.8937

     occupation numbers 
     1.0000   1.0000   1.0000   1.0000   0.0000   0.0000   0.0000   0.0000

          k =-0.2917 0.0940 0.0000 (  2673 PWs)   bands (ev):

   -19.4244  -9.5648  -7.7997  -7.3631   2.6018   2.9821   3.6793   3.9469

     occupation numbers 
     1.0000   1.0000   1.0000   1.0000   0.0000   0.0000   0.0000   0.0000

          k =-0.2917 0.1567 0.0000 (  2680 PWs)   bands (ev):

   -19.2570 -10.3192  -7.6112  -6.8397   2.5130   2.8346   3.7538   3.9395

     occupation numbers 
     1.0000   1.0000   1.0000   1.0000   0.0000   0.0000   0.0000   0.0000

          k =-0.2500 0.1880 0.0000 (  2680 PWs)   bands (ev):

   -19.3830 -10.0896  -7.7481  -6.3986   2.6598   2.7349   3.1195   3.8066

     occupation numbers 
     1.0000   1.0000   1.0000   1.0000   0.0000   0.0000   0.0000   0.0000

          k =-0.2500 0.2507 0.0000 (  2690 PWs)   bands (ev):

   -19.0883 -10.7747  -7.4138  -6.3914   2.1635   2.7887   3.1984   4.2089

     occupation numbers 
     1.0000   1.0000   1.0000   1.0000   0.0000   0.0000   0.0000   0.0000

          k =-0.2500 0.3133 0.0000 (  2686 PWs)   bands (ev):

   -18.7147 -11.3946  -6.9902  -6.6784   1.5593   2.5975   3.7214   4.7454

     occupation numbers 
     1.0000   1.0000   1.0000   1.0000   0.0000   0.0000   0.0000   0.0000

          k =-0.2500 0.3760 0.0000 (  2678 PWs)   bands (ev):

   -18.2697 -11.9388  -7.2184  -6.4899   0.9647   2.3207   4.3900   5.4009

     occupation numbers 
     1.0000   1.0000   1.0000   1.0000   0.0000   0.0000   0.0000   0.0000

          k =-0.2500 0.4387 0.0000 (  2676 PWs)   bands (ev):

   -17.7653 -12.3902  -7.9459  -5.9256   0.3921   1.9904   5.1778   6.1610

     occupation numbers 
     1.0000   1.0000   1.0000   1.0000   0.0000   0.0000   0.0000   0.0000

          k =-0.2500 0.5013 0.0000 (  2688 PWs)   bands (ev):

   -17.2207 -12.7449  -8.7900  -5.3142  -0.1419   1.6636   6.0804   6.9906

     occupation numbers 
     1.0000   1.0000   1.0000   1.0000   0.0000   0.0000   0.0000   0.0000

          k =-0.2500 0.5640 0.0000 (  2700 PWs)   bands (ev):

   -16.6714 -12.9712  -9.6779  -4.6826  -0.6390   1.3815   7.0924   7.7274

     occupation numbers 
     1.0000   1.0000   1.0000   1.0000   0.0000   0.0000   0.0000   0.0000

          k =-0.2500 0.6267 0.0000 (  2706 PWs)   bands (ev):

   -16.1740 -13.0366 -10.5404  -4.0734  -1.0997   1.1696   7.8652   8.2017

     occupation numbers 
     1.0000   1.0000   1.0000   1.0000   0.0000   0.0000   0.0000   0.0000

          k =-0.2500 0.6893 0.0000 (  2718 PWs)   bands (ev):

   -15.8205 -12.9285 -11.2750  -3.5604  -1.4894   1.0383   7.6212   9.3678

     occupation numbers 
     1.0000   1.0000   1.0000   1.0000   0.0000   0.0000   0.0000   0.0000

          k =-0.2500 0.7520 0.0000 (  2720 PWs)   bands (ev):

   -15.6917 -12.7981 -11.6256  -3.3333  -1.6714   0.9928   7.5042  10.1322

     occupation numbers 
     1.0000   1.0000   1.0000   1.0006   0.0000   0.0000   0.0000   0.0000

          k =-0.2500 0.8147 0.0000 (  2718 PWs)   bands (ev):

   -15.8205 -12.9285 -11.2749  -3.5603  -1.4894   1.0383   7.6212   9.3679

     occupation numbers 
     1.0000   1.0000   1.0000   1.0000   0.0000   0.0000   0.0000   0.0000

          k =-0.2500 0.8773 0.0000 (  2706 PWs)   bands (ev):

   -16.1740 -13.0366 -10.5404  -4.0734  -1.0997   1.1696   7.8651   8.2017

     occupation numbers 
     1.0000   1.0000   1.0000   1.0000   0.0000   0.0000   0.0000   0.0000

          k =-0.2500-0.5640 0.0000 (  2700 PWs)   bands (ev):

   -16.6714 -12.9712  -9.6779  -4.6825  -0.6391   1.3815   7.0924   7.7274

     occupation numbers 
     1.0000   1.0000   1.0000   1.0000   0.0000   0.0000   0.0000   0.0000

          k =-0.2500-0.5013 0.0000 (  2688 PWs)   bands (ev):

   -17.2207 -12.7449  -8.7900  -5.3142  -0.1419   1.6636   6.0804   6.9907

     occupation numbers 
     1.0000   1.0000   1.0000   1.0000   0.0000   0.0000   0.0000   0.0000

          k =-0.2500-0.4387 0.0000 (  2676 PWs)   bands (ev):

   -17.7653 -12.3902  -7.9459  -5.9256   0.3921   1.9903   5.1778   6.1610

     occupation numbers 
     1.0000   1.0000   1.0000   1.0000   0.0000   0.0000   0.0000   0.0000

          k =-0.2500-0.3760 0.0000 (  2678 PWs)   bands (ev):

   -18.2697 -11.9389  -7.2184  -6.4899   0.9647   2.3207   4.3900   5.4009

     occupation numbers 
     1.0000   1.0000   1.0000   1.0000   0.0000   0.0000   0.0000   0.0000

          k =-0.2500-0.3133 0.0000 (  2686 PWs)   bands (ev):

   -18.7147 -11.3946  -6.9902  -6.6783   1.5592   2.5975   3.7214   4.7453

     occupation numbers 
     1.0000   1.0000   1.0000   1.0000   0.0000   0.0000   0.0000   0.0000

          k =-0.2500-0.2507 0.0000 (  2690 PWs)   bands (ev):

   -19.0883 -10.7747  -7.4137  -6.3913   2.1635   2.7887   3.1984   4.2086

     occupation numbers 
     1.0000   1.0000   1.0000   1.0000   0.0000   0.0000   0.0000   0.0000

          k =-0.2500-0.1880 0.0000 (  2680 PWs)   bands (ev):

   -19.3830 -10.0896  -7.7481  -6.3986   2.6598   2.7349   3.1195   3.8074

     occupation numbers 
     1.0000   1.0000   1.0000   1.0000   0.0000   0.0000   0.0000   0.0000

          k =-0.2500-0.1253 0.0000 (  2673 PWs)   bands (ev):

   -19.5950  -9.3632  -7.9906  -6.6973   2.3739   3.1349   3.3839   3.6180

     occupation numbers 
     1.0000   1.0000   1.0000   1.0000   0.0000   0.0000   0.0000   0.0000

          k =-0.2500-0.0627 0.0000 (  2672 PWs)   bands (ev):

   -19.7231  -8.6229  -8.1384  -7.2136   2.1930   3.1611   3.5537   3.7796

     occupation numbers 
     1.0000   1.0000   1.0000   1.0000   0.0000   0.0000   0.0000   0.0000

          k =-0.2500-0.0000 0.0000 (  2674 PWs)   bands (ev):

   -19.7668  -8.1875  -8.0115  -7.7550   2.1317   3.1254   3.5247   3.8955

     occupation numbers 
     1.0000   1.0000   1.0000   1.0000   0.0000   0.0000   0.0000   0.0000

          k =-0.2500 0.0627 0.0000 (  2672 PWs)   bands (ev):

   -19.7231  -8.6229  -8.1384  -7.2136   2.1929   3.1610   3.5538   3.7798

     occupation numbers 
     1.0000   1.0000   1.0000   1.0000   0.0000   0.0000   0.0000   0.0000

          k =-0.2500 0.1253 0.0000 (  2673 PWs)   bands (ev):

   -19.5950  -9.3632  -7.9906  -6.6973   2.3739   3.1349   3.3838   3.6179

     occupation numbers 
     1.0000   1.0000   1.0000   1.0000   0.0000   0.0000   0.0000   0.0000

          k =-0.2083 0.1567 0.0000 (  2673 PWs)   bands (ev):

   -19.7064  -9.1290  -8.1126  -6.2412   2.2269   2.6914   3.0937   3.6685

     occupation numbers 
     1.0000   1.0000   1.0000   1.0000   0.0000   0.0000   0.0000   0.0000

          k =-0.2083 0.2193 0.0000 (  2677 PWs)   bands (ev):

   -19.4484  -9.8286  -7.8158  -6.2248   2.3711   2.6648   2.8977   3.7638

     occupation numbers 
     1.0000   1.0000   1.0000   1.0000   0.0000   0.0000   0.0000   0.0000

          k =-0.2083 0.2820 0.0000 (  2687 PWs)   bands (ev):

   -19.1095 -10.4888  -7.4247  -6.4946   2.1228   2.3479   3.1347   4.1825

     occupation numbers 
     1.0000   1.0000   1.0000   1.0000   0.0000   0.0000   0.0000   0.0000

          k =-0.2083 0.3447 0.0000 (  2674 PWs)   bands (ev):

   -18.6897 -11.0848  -7.0102  -6.9453   1.7350   1.7977   3.7456   4.7669

     occupation numbers 
     1.0000   1.0000   1.0000   1.0000   0.0000   0.0000   0.0000   0.0000

          k =-0.2083 0.4073 0.0000 (  2676 PWs)   bands (ev):

   -18.1996 -11.6138  -7.7080  -6.3890   1.1117   1.4176   4.4761   5.4726

     occupation numbers 
     1.0000   1.0000   1.0000   1.0000   0.0000   0.0000   0.0000   0.0000

          k =-0.2083 0.4700 0.0000 (  2679 PWs)   bands (ev):

   -17.6475 -12.0631  -8.5214  -5.7614   0.4955   1.0389   5.3236   6.2782

     occupation numbers 
     1.0000   1.0000   1.0000   1.0000   0.0000   0.0000   0.0000   0.0000

          k =-0.2083 0.5327 0.0000 (  2685 PWs)   bands (ev):

   -17.0549 -12.4282  -9.3807  -5.0820  -0.1020   0.6954   6.2853   7.1283

     occupation numbers 
     1.0000   1.0000   1.0000   1.0000   0.0000   0.0000   0.0000   0.0000

          k =-0.2083 0.5953 0.0000 (  2701 PWs)   bands (ev):

   -16.4550 -12.7065 -10.2196  -4.3767  -0.7052   0.4243   7.3547   7.7882

     occupation numbers 
     1.0000   1.0000   1.0000   1.0000   0.0000   0.0000   0.0000   0.0000

          k =-0.2083 0.6580 0.0000 (  2708 PWs)   bands (ev):

   -15.9136 -12.8950 -10.9337  -3.6763  -1.2999   0.2425   7.8580   8.5160

     occupation numbers 
     1.0000   1.0000   1.0000   1.0000   0.0000   0.0000   0.0000   0.0000

          k =-0.2083 0.7207 0.0000 (  2710 PWs)   bands (ev):

   -15.5638 -12.9879 -11.3739  -3.0957  -1.8140   0.1489   7.7203   9.7149

     occupation numbers 
     1.0000   1.0000   1.0000   1.0174   0.0000   0.0000   0.0000   0.0000

          k =-0.2083 0.7833 0.0000 (  2710 PWs)   bands (ev):

   -15.5638 -12.9879 -11.3738  -3.0957  -1.8140   0.1489   7.7203   9.7148

     occupation numbers 
     1.0000   1.0000   1.0000   1.0174   0.0000   0.0000   0.0000   0.0000

          k =-0.2083 0.8460 0.0000 (  2708 PWs)   bands (ev):

   -15.9136 -12.8950 -10.9337  -3.6763  -1.2999   0.2425   7.8580   8.5160

     occupation numbers 
     1.0000   1.0000   1.0000   1.0000   0.0000   0.0000   0.0000   0.0000

          k =-0.2083-0.5953 0.0000 (  2701 PWs)   bands (ev):

   -16.4550 -12.7065 -10.2196  -4.3767  -0.7052   0.4243   7.3547   7.7882

     occupation numbers 
     1.0000   1.0000   1.0000   1.0000   0.0000   0.0000   0.0000   0.0000

          k =-0.2083-0.5327 0.0000 (  2685 PWs)   bands (ev):

   -17.0549 -12.4282  -9.3807  -5.0820  -0.1020   0.6954   6.2853   7.1283

     occupation numbers 
     1.0000   1.0000   1.0000   1.0000   0.0000   0.0000   0.0000   0.0000

          k =-0.2083-0.4700 0.0000 (  2679 PWs)   bands (ev):

   -17.6475 -12.0631  -8.5214  -5.7614   0.4955   1.0389   5.3236   6.2781

     occupation numbers 
     1.0000   1.0000   1.0000   1.0000   0.0000   0.0000   0.0000   0.0000

          k =-0.2083-0.4073 0.0000 (  2676 PWs)   bands (ev):

   -18.1996 -11.6138  -7.7079  -6.3890   1.1117   1.4176   4.4761   5.4727

     occupation numbers 
     1.0000   1.0000   1.0000   1.0000   0.0000   0.0000   0.0000   0.0000

          k =-0.2083-0.3447 0.0000 (  2674 PWs)   bands (ev):

   -18.6897 -11.0849  -7.0102  -6.9453   1.7349   1.7977   3.7456   4.7666

     occupation numbers 
     1.0000   1.0000   1.0000   1.0000   0.0000   0.0000   0.0000   0.0000

          k =-0.2083-0.2820 0.0000 (  2687 PWs)   bands (ev):

   -19.1095 -10.4888  -7.4247  -6.4945   2.1227   2.3479   3.1347   4.1823

     occupation numbers 
     1.0000   1.0000   1.0000   1.0000   0.0000   0.0000   0.0000   0.0000

          k =-0.2083-0.2193 0.0000 (  2677 PWs)   bands (ev):

   -19.4484  -9.8286  -7.8158  -6.2248   2.3711   2.6648   2.8977   3.7638

     occupation numbers 
     1.0000   1.0000   1.0000   1.0000   0.0000   0.0000   0.0000   0.0000

          k =-0.2083-0.1567 0.0000 (  2673 PWs)   bands (ev):

   -19.7064  -9.1290  -8.1125  -6.2412   2.2269   2.6914   3.0937   3.6696

     occupation numbers 
     1.0000   1.0000   1.0000   1.0000   0.0000   0.0000   0.0000   0.0000

          k =-0.2083-0.0940 0.0000 (  2674 PWs)   bands (ev):

   -19.8796  -8.4149  -8.3143  -6.5319   1.9865   2.9484   2.9966   3.4302

     occupation numbers 
     1.0000   1.0000   1.0000   1.0000   0.0000   0.0000   0.0000   0.0000

          k =-0.2083-0.0313 0.0000 (  2670 PWs)   bands (ev):

   -19.9665  -8.4142  -7.7356  -7.0106   1.8629   2.8461   3.2146   3.5054

     occupation numbers 
     1.0000   1.0000   1.0000   1.0000   0.0000   0.0000   0.0000   0.0000

          k =-0.2083 0.0313 0.0000 (  2670 PWs)   bands (ev):

   -19.9665  -8.4142  -7.7356  -7.0106   1.8629   2.8461   3.2145   3.5056

     occupation numbers 
     1.0000   1.0000   1.0000   1.0000   0.0000   0.0000   0.0000   0.0000

          k =-0.2083 0.0940 0.0000 (  2674 PWs)   bands (ev):

   -19.8796  -8.4148  -8.3143  -6.5320   1.9865   2.9484   2.9966   3.4301

     occupation numbers 
     1.0000   1.0000   1.0000   1.0000   0.0000   0.0000   0.0000   0.0000

          k =-0.1667 0.1253 0.0000 (  2663 PWs)   bands (ev):

   -19.9746  -8.4200  -8.1803  -6.0746   1.8659   2.2785   2.8154   3.2721

     occupation numbers 
     1.0000   1.0000   1.0000   1.0000   0.0000   0.0000   0.0000   0.0000

          k =-0.1667 0.1880 0.0000 (  2675 PWs)   bands (ev):

   -19.7580  -8.8738  -8.1672  -6.0679   1.9784   2.2103   3.0504   3.5891

     occupation numbers 
     1.0000   1.0000   1.0000   1.0000   0.0000   0.0000   0.0000   0.0000

          k =-0.1667 0.2507 0.0000 (  2682 PWs)   bands (ev):

   -19.4560  -9.5487  -7.8159  -6.3338   1.7025   2.6321   3.0133   3.7928

     occupation numbers 
     1.0000   1.0000   1.0000   1.0000   0.0000   0.0000   0.0000   0.0000

          k =-0.1667 0.3133 0.0000 (  2670 PWs)   bands (ev):

   -19.0707 -10.1859  -7.3681  -6.8210   1.3504   2.4853   3.1840   4.2296

     occupation numbers 
     1.0000   1.0000   1.0000   1.0000   0.0000   0.0000   0.0000   0.0000

          k =-0.1667 0.3760 0.0000 (  2674 PWs)   bands (ev):

   -18.6074 -10.7696  -7.4918  -6.8372   0.9313   1.8489   3.8553   4.8647

     occupation numbers 
     1.0000   1.0000   1.0000   1.0000   0.0000   0.0000   0.0000   0.0000

          k =-0.1667 0.4387 0.0000 (  2667 PWs)   bands (ev):

   -18.0729 -11.2948  -8.2691  -6.2195   0.5044   1.1898   4.6450   5.6228

     occupation numbers 
     1.0000   1.0000   1.0000   1.0000   0.0000   0.0000   0.0000   0.0000

          k =-0.1667 0.5013 0.0000 (  2672 PWs)   bands (ev):

   -17.4787 -11.7626  -9.0900  -5.5355   0.1077   0.5215   5.5519   6.4708

     occupation numbers 
     1.0000   1.0000   1.0000   1.0000   0.0000   0.0000   0.0000   0.0000

          k =-0.1667 0.5640 0.0000 (  2689 PWs)   bands (ev):

   -16.8432 -12.1912  -9.8908  -4.7976  -0.2209  -0.1605   6.5720   7.3306

     occupation numbers 
     1.0000   1.0000   1.0000   1.0000   0.0000   0.0000   0.0000   0.0000

          k =-0.1667 0.6267 0.0000 (  2698 PWs)   bands (ev):

   -16.2033 -12.5966 -10.5672  -4.0276  -0.8601  -0.4634   7.6969   7.9187

     occupation numbers 
     1.0000   1.0000   1.0000   1.0000   0.0000   0.0000   0.0000   0.0000

          k =-0.1667 0.6893 0.0000 (  2710 PWs)   bands (ev):

   -15.6512 -12.9788 -11.0159  -3.2495  -1.5809  -0.6140   7.9923   8.9051

     occupation numbers 
     1.0000   1.0000   1.0000   1.0023   0.0000   0.0000   0.0000   0.0000

          k =-0.1667 0.7520 0.0000 (  2708 PWs)   bands (ev):

   -15.4018 -13.1651 -11.1677  -2.6871  -2.1206  -0.6641   7.9524   9.9789

     occupation numbers 
     1.0000   1.0000   1.0000   0.9643   0.0116   0.0000   0.0000   0.0000

          k =-0.1667 0.8147 0.0000 (  2710 PWs)   bands (ev):

   -15.6512 -12.9789 -11.0159  -3.2495  -1.5809  -0.6140   7.9923   8.9051

     occupation numbers 
     1.0000   1.0000   1.0000   1.0023   0.0000   0.0000   0.0000   0.0000

          k =-0.1667-0.6267 0.0000 (  2698 PWs)   bands (ev):

   -16.2033 -12.5966 -10.5672  -4.0275  -0.8601  -0.4634   7.6969   7.9188

     occupation numbers 
     1.0000   1.0000   1.0000   1.0000   0.0000   0.0000   0.0000   0.0000

          k =-0.1667-0.5640 0.0000 (  2689 PWs)   bands (ev):

   -16.8432 -12.1913  -9.8907  -4.7976  -0.2209  -0.1605   6.5720   7.3306

     occupation numbers 
     1.0000   1.0000   1.0000   1.0000   0.0000   0.0000   0.0000   0.0000

          k =-0.1667-0.5013 0.0000 (  2672 PWs)   bands (ev):

   -17.4787 -11.7626  -9.0900  -5.5355   0.1077   0.5215   5.5519   6.4708

     occupation numbers 
     1.0000   1.0000   1.0000   1.0000   0.0000   0.0000   0.0000   0.0000

          k =-0.1667-0.4387 0.0000 (  2667 PWs)   bands (ev):

   -18.0729 -11.2948  -8.2691  -6.2195   0.5044   1.1898   4.6450   5.6228

     occupation numbers 
     1.0000   1.0000   1.0000   1.0000   0.0000   0.0000   0.0000   0.0000

          k =-0.1667-0.3760 0.0000 (  2674 PWs)   bands (ev):

   -18.6074 -10.7696  -7.4918  -6.8372   0.9313   1.8489   3.8553   4.8647

     occupation numbers 
     1.0000   1.0000   1.0000   1.0000   0.0000   0.0000   0.0000   0.0000

          k =-0.1667-0.3133 0.0000 (  2670 PWs)   bands (ev):

   -19.0707 -10.1859  -7.3681  -6.8209   1.3504   2.4852   3.1840   4.2297

     occupation numbers 
     1.0000   1.0000   1.0000   1.0000   0.0000   0.0000   0.0000   0.0000

          k =-0.1667-0.2507 0.0000 (  2682 PWs)   bands (ev):

   -19.4560  -9.5487  -7.8159  -6.3338   1.7025   2.6321   3.0133   3.7916

     occupation numbers 
     1.0000   1.0000   1.0000   1.0000   0.0000   0.0000   0.0000   0.0000

          k =-0.1667-0.1880 0.0000 (  2675 PWs)   bands (ev):

   -19.7580  -8.8738  -8.1672  -6.0679   1.9784   2.2103   3.0504   3.5887

     occupation numbers 
     1.0000   1.0000   1.0000   1.0000   0.0000   0.0000   0.0000   0.0000

          k =-0.1667-0.1253 0.0000 (  2663 PWs)   bands (ev):

   -19.9746  -8.4200  -8.1803  -6.0746   1.8659   2.2785   2.8154   3.2720

     occupation numbers 
     1.0000   1.0000   1.0000   1.0000   0.0000   0.0000   0.0000   0.0000

          k =-0.1667-0.0627 0.0000 (  2673 PWs)   bands (ev):

   -20.1080  -8.5749  -7.5198  -6.3325   1.6795   2.5993   2.6491   3.0792

     occupation numbers 
     1.0000   1.0000   1.0000   1.0000   0.0000   0.0000   0.0000   0.0000

          k =-0.1667-0.0000 0.0000 (  2669 PWs)   bands (ev):

   -20.1516  -8.6236  -7.0915  -6.6310   1.6164   2.5923   2.9425   2.9594

     occupation numbers 
     1.0000   1.0000   1.0000   1.0000   0.0000   0.0000   0.0000   0.0000

          k =-0.1667 0.0627 0.0000 (  2673 PWs)   bands (ev):

   -20.1080  -8.5749  -7.5198  -6.3325   1.6795   2.5993   2.6491   3.0793

     occupation numbers 
     1.0000   1.0000   1.0000   1.0000   0.0000   0.0000   0.0000   0.0000

          k =-0.1250 0.0940 0.0000 (  2667 PWs)   bands (ev):

   -20.1887  -8.6637  -7.2999  -5.8975   1.5836   1.8900   2.5363   2.9592

     occupation numbers 
     1.0000   1.0000   1.0000   1.0000   0.0000   0.0000   0.0000   0.0000

          k =-0.1250 0.1567 0.0000 (  2663 PWs)   bands (ev):

   -20.0113  -8.4566  -7.9355  -5.9291   1.6326   1.8453   2.7643   3.2224

     occupation numbers 
     1.0000   1.0000   1.0000   1.0000   0.0000   0.0000   0.0000   0.0000

          k =-0.1250 0.2193 0.0000 (  2678 PWs)   bands (ev):

   -19.7503  -8.6085  -8.1502  -6.2058   1.3614   2.2152   3.0661   3.6027

     occupation numbers 
     1.0000   1.0000   1.0000   1.0000   0.0000   0.0000   0.0000   0.0000

          k =-0.1250 0.2820 0.0000 (  2692 PWs)   bands (ev):

   -19.4041  -9.2703  -7.7474  -6.6890   1.0026   2.7064   3.0883   3.8618

     occupation numbers 
     1.0000   1.0000   1.0000   1.0000   0.0000   0.0000   0.0000   0.0000

          k =-0.1250 0.3447 0.0000 (  2680 PWs)   bands (ev):

   -18.9738  -9.8950  -7.3299  -7.2455   0.5688   2.5399   3.3173   4.3499

     occupation numbers 
     1.0000   1.0000   1.0000   1.0000   0.0000   0.0000   0.0000   0.0000

          k =-0.1250 0.4073 0.0000 (  2693 PWs)   bands (ev):

   -18.4681 -10.4817  -8.0707  -6.6613   0.0976   1.8663   4.0478   5.0411

     occupation numbers 
     1.0000   1.0000   1.0000   1.0000   0.0000   0.0000   0.0000   0.0000

          k =-0.1250 0.4700 0.0000 (  2677 PWs)   bands (ev):

   -17.8927 -11.0285  -8.8411  -5.9926  -0.3462   1.1668   4.8972   5.8512

     occupation numbers 
     1.0000   1.0000   1.0000   1.0000   0.0000   0.0000   0.0000   0.0000

          k =-0.1250 0.5327 0.0000 (  2686 PWs)   bands (ev):

   -17.2589 -11.5691  -9.5885  -5.2585  -0.7362   0.4327   5.8630   6.7389

     occupation numbers 
     1.0000   1.0000   1.0000   1.0000   0.0000   0.0000   0.0000   0.0000

          k =-0.1250 0.5953 0.0000 (  2693 PWs)   bands (ev):

   -16.5864 -12.1376 -10.2116  -4.4704  -1.0386  -0.3249   6.9402   7.6024

     occupation numbers 
     1.0000   1.0000   1.0000   1.0000   0.0000   0.0000   0.0000   0.0000

          k =-0.1250 0.6580 0.0000 (  2710 PWs)   bands (ev):

   -15.9258 -12.7369 -10.6365  -3.6439  -1.2490  -1.1193   8.1176   8.1441

     occupation numbers 
     1.0000   1.0000   1.0000   1.0000   0.0000   0.0000   0.0000   0.0000

          k =-0.1250 0.7207 0.0000 (  2702 PWs)   bands (ev):

   -15.4227 -13.2145 -10.8405  -2.7996  -1.9351  -1.3515   8.2520   9.3603

     occupation numbers 
     1.0000   1.0000   1.0000   1.0756   0.0005   0.0000   0.0000   0.0000

          k =-0.1250 0.7833 0.0000 (  2702 PWs)   bands (ev):

   -15.4227 -13.2145 -10.8405  -2.7996  -1.9352  -1.3515   8.2520   9.3603

     occupation numbers 
     1.0000   1.0000   1.0000   1.0756   0.0005   0.0000   0.0000   0.0000

          k =-0.1250-0.6580 0.0000 (  2710 PWs)   bands (ev):

   -15.9258 -12.7369 -10.6365  -3.6439  -1.2490  -1.1194   8.1176   8.1441

     occupation numbers 
     1.0000   1.0000   1.0000   1.0000   0.0000   0.0000   0.0000   0.0000

          k =-0.1250-0.5953 0.0000 (  2693 PWs)   bands (ev):

   -16.5864 -12.1377 -10.2115  -4.4704  -1.0386  -0.3249   6.9402   7.6024

     occupation numbers 
     1.0000   1.0000   1.0000   1.0000   0.0000   0.0000   0.0000   0.0000

          k =-0.1250-0.5327 0.0000 (  2686 PWs)   bands (ev):

   -17.2589 -11.5691  -9.5884  -5.2585  -0.7362   0.4327   5.8630   6.7386

     occupation numbers 
     1.0000   1.0000   1.0000   1.0000   0.0000   0.0000   0.0000   0.0000

          k =-0.1250-0.4700 0.0000 (  2677 PWs)   bands (ev):

   -17.8927 -11.0285  -8.8411  -5.9926  -0.3462   1.1668   4.8972   5.8514

     occupation numbers 
     1.0000   1.0000   1.0000   1.0000   0.0000   0.0000   0.0000   0.0000

          k =-0.1250-0.4073 0.0000 (  2693 PWs)   bands (ev):

   -18.4681 -10.4818  -8.0706  -6.6613   0.0975   1.8663   4.0478   5.0415

     occupation numbers 
     1.0000   1.0000   1.0000   1.0000   0.0000   0.0000   0.0000   0.0000

          k =-0.1250-0.3447 0.0000 (  2680 PWs)   bands (ev):

   -18.9738  -9.8950  -7.3299  -7.2455   0.5688   2.5399   3.3173   4.3498

     occupation numbers 
     1.0000   1.0000   1.0000   1.0000   0.0000   0.0000   0.0000   0.0000

          k =-0.1250-0.2820 0.0000 (  2692 PWs)   bands (ev):

   -19.4041  -9.2703  -7.7474  -6.6890   1.0026   2.7064   3.0883   3.8618

     occupation numbers 
     1.0000   1.0000   1.0000   1.0000   0.0000   0.0000   0.0000   0.0000

          k =-0.1250-0.2193 0.0000 (  2678 PWs)   bands (ev):

   -19.7503  -8.6086  -8.1502  -6.2058   1.3614   2.2152   3.0661   3.6028

     occupation numbers 
     1.0000   1.0000   1.0000   1.0000   0.0000   0.0000   0.0000   0.0000

          k =-0.1250-0.1567 0.0000 (  2663 PWs)   bands (ev):

   -20.0113  -8.4566  -7.9356  -5.9290   1.6326   1.8453   2.7644   3.2223

     occupation numbers 
     1.0000   1.0000   1.0000   1.0000   0.0000   0.0000   0.0000   0.0000

          k =-0.1250-0.0940 0.0000 (  2667 PWs)   bands (ev):

   -20.1887  -8.6637  -7.3000  -5.8975   1.5836   1.8900   2.5363   2.9587

     occupation numbers 
     1.0000   1.0000   1.0000   1.0000   0.0000   0.0000   0.0000   0.0000

          k =-0.1250-0.0313 0.0000 (  2671 PWs)   bands (ev):

   -20.2777  -8.7679  -6.7961  -6.0600   1.4563   2.1650   2.4191   2.7417

     occupation numbers 
     1.0000   1.0000   1.0000   1.0000   0.0000   0.0000   0.0000   0.0000

          k =-0.1250 0.0313 0.0000 (  2671 PWs)   bands (ev):

   -20.2777  -8.7679  -6.7961  -6.0600   1.4564   2.1650   2.4191   2.7417

     occupation numbers 
     1.0000   1.0000   1.0000   1.0000   0.0000   0.0000   0.0000   0.0000

          k =-0.0833 0.0627 0.0000 (  2665 PWs)   bands (ev):

   -20.3417  -8.8372  -6.5991  -5.6841   1.3844   1.5417   2.3301   2.6424

     occupation numbers 
     1.0000   1.0000   1.0000   1.0000   0.0000   0.0000   0.0000   0.0000

          k =-0.0833 0.1253 0.0000 (  2669 PWs)   bands (ev):

   -20.2088  -8.6832  -7.0870  -5.8078   1.3547   1.5746   2.5072   2.9424

     occupation numbers 
     1.0000   1.0000   1.0000   1.0000   0.0000   0.0000   0.0000   0.0000

          k =-0.0833 0.1880 0.0000 (  2667 PWs)   bands (ev):

   -19.9875  -8.4249  -7.6970  -6.1226   1.1251   1.8849   2.7946   3.2618

     occupation numbers 
     1.0000   1.0000   1.0000   1.0000   0.0000   0.0000   0.0000   0.0000

          k =-0.0833 0.2507 0.0000 (  2682 PWs)   bands (ev):

   -19.6816  -8.3541  -8.0658  -6.6150   0.7916   2.3139   3.1462   3.7017

     occupation numbers 
     1.0000   1.0000   1.0000   1.0000   0.0000   0.0000   0.0000   0.0000

          k =-0.0833 0.3133 0.0000 (  2688 PWs)   bands (ev):

   -19.2912  -9.0078  -7.6091  -7.2354   0.3588   2.8632   3.1002   3.9722

     occupation numbers 
     1.0000   1.0000   1.0000   1.0000   0.0000   0.0000   0.0000   0.0000

          k =-0.0833 0.3760 0.0000 (  2696 PWs)   bands (ev):

   -18.8210  -9.6405  -7.9380  -7.0588  -0.1350   2.4927   3.5332   4.5462

     occupation numbers 
     1.0000   1.0000   1.0000   1.0000   0.0000   0.0000   0.0000   0.0000

          k =-0.0833 0.4387 0.0000 (  2680 PWs)   bands (ev):

   -18.2741 -10.2557  -8.6592  -6.4199  -0.6243   1.7829   4.3236   5.2989

     occupation numbers 
     1.0000   1.0000   1.0000   1.0000   0.0000   0.0000   0.0000   0.0000

          k =-0.0833 0.5013 0.0000 (  2684 PWs)   bands (ev):

   -17.6585 -10.8915  -9.3444  -5.7074  -1.0696   1.0209   5.2325   6.1591

     occupation numbers 
     1.0000   1.0000   1.0000   1.0000   0.0000   0.0000   0.0000   0.0000

          k =-0.0833 0.5640 0.0000 (  2687 PWs)   bands (ev):

   -16.9886 -11.5916  -9.9020  -4.9266  -1.4346   0.2277   6.2565   7.0824

     occupation numbers 
     1.0000   1.0000   1.0000   1.0000   0.0000   0.0000   0.0000   0.0000

          k =-0.0833 0.6267 0.0000 (  2705 PWs)   bands (ev):

   -16.2927 -12.3413 -10.2923  -4.0983  -1.7047  -0.6014   7.3886   7.9427

     occupation numbers 
     1.0000   1.0000   1.0000   1.0000   0.0000   0.0000   0.0000   0.0000

          k =-0.0833 0.6893 0.0000 (  2708 PWs)   bands (ev):

   -15.6409 -13.0399 -10.5135  -3.2305  -1.8677  -1.4604   8.4503   8.6137

     occupation numbers 
     1.0000   1.0000   1.0000   1.0030   0.0001   0.0000   0.0000   0.0000

          k =-0.0833 0.7520 0.0000 (  2712 PWs)   bands (ev):

   -15.3134 -13.3886 -10.5849  -2.4005  -2.2895  -1.9214   8.5618   9.7363

     occupation numbers 
     1.0000   1.0000   1.0000   0.2649   0.0972   0.0004   0.0000   0.0000

          k =-0.0833-0.6893 0.0000 (  2708 PWs)   bands (ev):

   -15.6409 -13.0399 -10.5135  -3.2305  -1.8677  -1.4604   8.4502   8.6137

     occupation numbers 
     1.0000   1.0000   1.0000   1.0030   0.0001   0.0000   0.0000   0.0000

          k =-0.0833-0.6267 0.0000 (  2705 PWs)   bands (ev):

   -16.2927 -12.3413 -10.2923  -4.0983  -1.7047  -0.6014   7.3886   7.9427

     occupation numbers 
     1.0000   1.0000   1.0000   1.0000   0.0000   0.0000   0.0000   0.0000

          k =-0.0833-0.5640 0.0000 (  2687 PWs)   bands (ev):

   -16.9886 -11.5916  -9.9020  -4.9266  -1.4346   0.2277   6.2565   7.0823

     occupation numbers 
     1.0000   1.0000   1.0000   1.0000   0.0000   0.0000   0.0000   0.0000

          k =-0.0833-0.5013 0.0000 (  2684 PWs)   bands (ev):

   -17.6585 -10.8915  -9.3444  -5.7074  -1.0696   1.0209   5.2325   6.1591

     occupation numbers 
     1.0000   1.0000   1.0000   1.0000   0.0000   0.0000   0.0000   0.0000

          k =-0.0833-0.4387 0.0000 (  2680 PWs)   bands (ev):

   -18.2741 -10.2557  -8.6592  -6.4199  -0.6243   1.7829   4.3236   5.2988

     occupation numbers 
     1.0000   1.0000   1.0000   1.0000   0.0000   0.0000   0.0000   0.0000

          k =-0.0833-0.3760 0.0000 (  2696 PWs)   bands (ev):

   -18.8210  -9.6405  -7.9380  -7.0588  -0.1350   2.4927   3.5332   4.5462

     occupation numbers 
     1.0000   1.0000   1.0000   1.0000   0.0000   0.0000   0.0000   0.0000

          k =-0.0833-0.3133 0.0000 (  2688 PWs)   bands (ev):

   -19.2912  -9.0078  -7.6091  -7.2353   0.3588   2.8632   3.1002   3.9722

     occupation numbers 
     1.0000   1.0000   1.0000   1.0000   0.0000   0.0000   0.0000   0.0000

          k =-0.0833-0.2507 0.0000 (  2682 PWs)   bands (ev):

   -19.6816  -8.3542  -8.0658  -6.6150   0.7916   2.3139   3.1462   3.7020

     occupation numbers 
     1.0000   1.0000   1.0000   1.0000   0.0000   0.0000   0.0000   0.0000

          k =-0.0833-0.1880 0.0000 (  2667 PWs)   bands (ev):

   -19.9875  -8.4249  -7.6970  -6.1225   1.1251   1.8849   2.7946   3.2618

     occupation numbers 
     1.0000   1.0000   1.0000   1.0000   0.0000   0.0000   0.0000   0.0000

          k =-0.0833-0.1253 0.0000 (  2669 PWs)   bands (ev):

   -20.2088  -8.6832  -7.0871  -5.8077   1.3547   1.5746   2.5072   2.9414

     occupation numbers 
     1.0000   1.0000   1.0000   1.0000   0.0000   0.0000   0.0000   0.0000

          k =-0.0833-0.0627 0.0000 (  2665 PWs)   bands (ev):

   -20.3417  -8.8372  -6.5991  -5.6841   1.3843   1.5417   2.3301   2.6418

     occupation numbers 
     1.0000   1.0000   1.0000   1.0000   0.0000   0.0000   0.0000   0.0000

          k =-0.0833-0.0000 0.0000 (  2665 PWs)   bands (ev):

   -20.3862  -8.8887  -6.3891  -5.6756   1.3195   1.6601   2.2706   2.3649

     occupation numbers 
     1.0000   1.0000   1.0000   1.0000   0.0000   0.0000   0.0000   0.0000

          k =-0.0417 0.0313 0.0000 (  2673 PWs)   bands (ev):

   -20.4342  -8.9425  -6.2193  -5.4125   1.2491   1.2716   2.2049   2.2224

     occupation numbers 
     1.0000   1.0000   1.0000   1.0000   0.0000   0.0000   0.0000   0.0000

          k =-0.0417 0.0940 0.0000 (  2665 PWs)   bands (ev):

   -20.3446  -8.8379  -6.4586  -5.6574   1.1623   1.3953   2.3246   2.7174

     occupation numbers 
     1.0000   1.0000   1.0000   1.0000   0.0000   0.0000   0.0000   0.0000

          k =-0.0417 0.1567 0.0000 (  2663 PWs)   bands (ev):

   -20.1673  -8.6319  -6.9035  -6.0754   0.9991   1.6410   2.5611   3.0088

     occupation numbers 
     1.0000   1.0000   1.0000   1.0000   0.0000   0.0000   0.0000   0.0000

          k =-0.0417 0.2193 0.0000 (  2680 PWs)   bands (ev):

   -19.9030  -8.3227  -7.4929  -6.6107   0.7205   2.0067   2.9037   3.3849

     occupation numbers 
     1.0000   1.0000   1.0000   1.0000   0.0000   0.0000   0.0000   0.0000

          k =-0.0417 0.2820 0.0000 (  2684 PWs)   bands (ev):

   -19.5530  -8.1380  -7.9110  -7.2255   0.3197   2.4937   3.2640   3.8860

     occupation numbers 
     1.0000   1.0000   1.0000   1.0000   0.0000   0.0000   0.0000   0.0000

          k =-0.0417 0.3447 0.0000 (  2692 PWs)   bands (ev):

   -19.1208  -8.8022  -7.8948  -7.4038  -0.1739   2.9915   3.1026   4.1574

     occupation numbers 
     1.0000   1.0000   1.0000   1.0000   0.0000   0.0000   0.0000   0.0000

          k =-0.0417 0.4073 0.0000 (  2690 PWs)   bands (ev):

   -18.6087  -9.4817  -8.5720  -6.8034  -0.6929   2.3098   3.8329   4.8261

     occupation numbers 
     1.0000   1.0000   1.0000   1.0000   0.0000   0.0000   0.0000   0.0000

          k =-0.0417 0.4700 0.0000 (  2685 PWs)   bands (ev):

   -18.0241 -10.2028  -9.1826  -6.1221  -1.1829   1.5549   4.6830   5.6375

     occupation numbers 
     1.0000   1.0000   1.0000   1.0000   0.0000   0.0000   0.0000   0.0000

          k =-0.0417 0.5327 0.0000 (  2684 PWs)   bands (ev):

   -17.3730 -11.0132  -9.6707  -5.3671  -1.6040   0.7547   5.6508   6.5447

     occupation numbers 
     1.0000   1.0000   1.0000   1.0000   0.0000   0.0000   0.0000   0.0000

          k =-0.0417 0.5953 0.0000 (  2704 PWs)   bands (ev):

   -16.6763 -11.8729 -10.0260  -4.5494  -1.9360  -0.0921   6.7312   7.4923

     occupation numbers 
     1.0000   1.0000   1.0000   1.0000   0.0005   0.0000   0.0000   0.0000

          k =-0.0417 0.6580 0.0000 (  2699 PWs)   bands (ev):

   -15.9691 -12.6988 -10.2541  -3.6876  -2.1583  -0.9649   7.9156   8.3239

     occupation numbers 
     1.0000   1.0000   1.0000   1.0000   0.0199   0.0000   0.0000   0.0000

          k =-0.0417 0.7207 0.0000 (  2710 PWs)   bands (ev):

   -15.4007 -13.3364 -10.3694  -2.8055  -2.2698  -1.8530   8.7560   9.1745

     occupation numbers 
     1.0000   1.0000   1.0000   1.0776   0.0788   0.0001   0.0000   0.0000

          k =-0.0417-0.7207 0.0000 (  2710 PWs)   bands (ev):

   -15.4007 -13.3364 -10.3694  -2.8055  -2.2698  -1.8530   8.7560   9.1745

     occupation numbers 
     1.0000   1.0000   1.0000   1.0776   0.0788   0.0001   0.0000   0.0000

          k =-0.0417-0.6580 0.0000 (  2699 PWs)   bands (ev):

   -15.9691 -12.6988 -10.2541  -3.6876  -2.1583  -0.9649   7.9156   8.3239

     occupation numbers 
     1.0000   1.0000   1.0000   1.0000   0.0199   0.0000   0.0000   0.0000

          k =-0.0417-0.5953 0.0000 (  2704 PWs)   bands (ev):

   -16.6763 -11.8729 -10.0260  -4.5494  -1.9360  -0.0921   6.7312   7.4923

     occupation numbers 
     1.0000   1.0000   1.0000   1.0000   0.0005   0.0000   0.0000   0.0000

          k =-0.0417-0.5327 0.0000 (  2684 PWs)   bands (ev):

   -17.3730 -11.0132  -9.6707  -5.3671  -1.6040   0.7547   5.6508   6.5447

     occupation numbers 
     1.0000   1.0000   1.0000   1.0000   0.0000   0.0000   0.0000   0.0000

          k =-0.0417-0.4700 0.0000 (  2685 PWs)   bands (ev):

   -18.0241 -10.2028  -9.1825  -6.1220  -1.1829   1.5549   4.6830   5.6375

     occupation numbers 
     1.0000   1.0000   1.0000   1.0000   0.0000   0.0000   0.0000   0.0000

          k =-0.0417-0.4073 0.0000 (  2690 PWs)   bands (ev):

   -18.6087  -9.4818  -8.5720  -6.8034  -0.6930   2.3098   3.8329   4.8260

     occupation numbers 
     1.0000   1.0000   1.0000   1.0000   0.0000   0.0000   0.0000   0.0000

          k =-0.0417-0.3447 0.0000 (  2692 PWs)   bands (ev):

   -19.1208  -8.8022  -7.8948  -7.4038  -0.1739   2.9915   3.1027   4.1574

     occupation numbers 
     1.0000   1.0000   1.0000   1.0000   0.0000   0.0000   0.0000   0.0000

          k =-0.0417-0.2820 0.0000 (  2684 PWs)   bands (ev):

   -19.5530  -8.1380  -7.9110  -7.2255   0.3197   2.4937   3.2640   3.8870

     occupation numbers 
     1.0000   1.0000   1.0000   1.0000   0.0000   0.0000   0.0000   0.0000

          k =-0.0417-0.2193 0.0000 (  2680 PWs)   bands (ev):

   -19.9030  -8.3227  -7.4929  -6.6107   0.7205   2.0067   2.9037   3.3849

     occupation numbers 
     1.0000   1.0000   1.0000   1.0000   0.0000   0.0000   0.0000   0.0000

          k =-0.0417-0.1567 0.0000 (  2663 PWs)   bands (ev):

   -20.1673  -8.6319  -6.9036  -6.0754   0.9991   1.6410   2.5611   3.0083

     occupation numbers 
     1.0000   1.0000   1.0000   1.0000   0.0000   0.0000   0.0000   0.0000

          k =-0.0417-0.0940 0.0000 (  2665 PWs)   bands (ev):

   -20.3446  -8.8379  -6.4586  -5.6573   1.1623   1.3953   2.3246   2.7153

     occupation numbers 
     1.0000   1.0000   1.0000   1.0000   0.0000   0.0000   0.0000   0.0000

          k =-0.0417-0.0313 0.0000 (  2673 PWs)   bands (ev):

   -20.4342  -8.9425  -6.2193  -5.4125   1.2491   1.2716   2.2049   2.2222

     occupation numbers 
     1.0000   1.0000   1.0000   1.0000   0.0000   0.0000   0.0000   0.0000

     the Fermi energy is    -2.4598 ev

!    total energy              =     -23.87568021 Ry
     estimated scf accuracy    <          2.2E-09 Ry
     smearing contrib. (-TS)   =       0.00000101 Ry
     internal energy E=F+TS    =     -23.87568122 Ry

     The total energy is F=E-TS. E is the sum of the following terms:
     one-electron contribution =    -132.64537833 Ry
     hartree contribution      =      67.57730201 Ry
     xc contribution           =      -8.17188172 Ry
     ewald contribution        =      49.36427682 Ry

     convergence has been achieved in   7 iterations

     Writing all to output data dir ./tmp/graphene24.9zoom.save/ :
     XML data file, charge density, pseudopotentials, collected wavefunctions

     init_run     :      1.47s CPU      1.49s WALL (       1 calls)
     electrons    :     10.13s CPU     10.21s WALL (       1 calls)

     Called by init_run:
     wfcinit      :      0.76s CPU      0.77s WALL (       1 calls)
     wfcinit:atom :      0.01s CPU      0.01s WALL (      72 calls)
     wfcinit:wfcr :      0.68s CPU      0.69s WALL (      72 calls)
     potinit      :      0.02s CPU      0.02s WALL (       1 calls)
     hinit0       :      0.67s CPU      0.67s WALL (       1 calls)

     Called by electrons:
     c_bands      :      8.97s CPU      9.02s WALL (       7 calls)
     sum_band     :      1.12s CPU      1.12s WALL (       7 calls)
     v_of_rho     :      0.02s CPU      0.02s WALL (       8 calls)
     v_h          :      0.00s CPU      0.00s WALL (       8 calls)
     v_xc         :      0.02s CPU      0.02s WALL (       8 calls)
     mix_rho      :      0.01s CPU      0.01s WALL (       7 calls)

     Called by c_bands:
     init_us_2    :      0.25s CPU      0.25s WALL (    1080 calls)
     cegterg      :      6.86s CPU      6.90s WALL (     504 calls)

     Called by sum_band:
     sum_band:wei :      0.00s CPU      0.00s WALL (       7 calls)
     sum_band:loo :      1.04s CPU      1.04s WALL (       7 calls)
     sum_band:buf :      0.02s CPU      0.02s WALL (     504 calls)
     sum_band:ini :      0.12s CPU      0.12s WALL (     504 calls)

     Called by *egterg:
     cdiaghg      :      0.15s CPU      0.15s WALL (    2913 calls)
     cegterg:over :      0.25s CPU      0.25s WALL (    2409 calls)
     cegterg:upda :      0.24s CPU      0.24s WALL (    2409 calls)
     cegterg:last :      0.23s CPU      0.23s WALL (    1211 calls)
     h_psi        :      6.47s CPU      6.51s WALL (    2985 calls)
     g_psi        :      0.07s CPU      0.07s WALL (    2409 calls)

     Called by h_psi:
     h_psi:calbec :      0.23s CPU      0.23s WALL (    2985 calls)
     vloc_psi     :      5.95s CPU      5.99s WALL (    2985 calls)
     add_vuspsi   :      0.25s CPU      0.25s WALL (    2985 calls)

     General routines
     calbec       :      0.23s CPU      0.23s WALL (    2985 calls)
     fft          :      0.63s CPU      0.64s WALL (      24 calls)
     ffts         :      0.00s CPU      0.00s WALL (       7 calls)
     fftw         :      5.72s CPU      5.76s WALL (   29136 calls)

     Parallel routines

     PWSCF        :     11.85s CPU     14.37s WALL


   This run was terminated on:   6:32:46  19Apr2026            

=------------------------------------------------------------------------------=
   JOB DONE.
=------------------------------------------------------------------------------=
