
     Program PWSCF v.7.3.1 starts on 22Apr2026 at  7:38:21 

     This program is part of the open-source Quantum ESPRESSO suite
     for quantum simulation of materials; please cite
         "P. Giannozzi et al., J. Phys.:Condens. Matter 21 395502 (2009);
         "P. Giannozzi et al., J. Phys.:Condens. Matter 29 465901 (2017);
         "P. Giannozzi et al., J. Chem. Phys. 152 154105 (2020);
          URL http://www.quantum-espresso.org", 
     in publications or presentations arising from this work. More details at
     http://www.quantum-espresso.org/quote

     Parallel version (MPI & OpenMP), running on       8 processor cores
     Number of MPI processes:                 8
     Threads/MPI process:                     1

     MPI processes distributed on     1 nodes
     21546 MiB available memory on the printing compute node when the environment starts

     Reading input from ./io/bands27.0upper.in

     Current dimensions of program PWSCF are:
     Max number of different atomic species (ntypx) = 10
     Max number of k-points (npk) =  40000
     Max angular momentum in pseudopotentials (lmaxx) =  4
     file C.pbe-n-kjpaw_psl.1.0.0.UPF: wavefunction(s)  2S 2P renormalized

     Atomic positions and unit cell read from directory:
     ./tmp/graphene27.0upper.save/

     Message from routine find_sym:
     Not a group! Trying with lower acceptance parameter...
     Message from routine find_sym:
     Symmetry operations form a group

     K-points division:     npool     =       8
     Subspace diagonalization in iterative solution of the eigenvalue problem:
     a serial algorithm will be used


     G-vector sticks info
     --------------------
     sticks:   dense  smooth     PW     G-vecs:    dense   smooth      PW
     Sum         295     295     99                22701    22701    4131

     Using Slab Decomposition



     bravais-lattice index     =            0
     lattice parameter (alat)  =       5.8749  a.u.
     unit-cell volume          =     667.1600 (a.u.)^3
     number of atoms/cell      =            2
     number of atomic types    =            1
     number of electrons       =         8.00
     number of Kohn-Sham states=            8
     kinetic-energy cutoff     =      40.0000  Ry
     charge density cutoff     =     160.0000  Ry
     Exchange-correlation= SLA  PW   PBX  PBC
                           (   1   4   3   4   0   0   0)

     celldm(1)=   5.874923  celldm(2)=   0.000000  celldm(3)=   0.000000
     celldm(4)=   0.000000  celldm(5)=   0.000000  celldm(6)=   0.000000

     crystal axes: (cart. coord. in units of alat)
               a(1) = (   1.000000   0.000000   0.000000 )  
               a(2) = (   0.500000   0.681910   0.000000 )  
               a(3) = (   0.000000   0.000000   4.824992 )  

     reciprocal axes: (cart. coord. in units 2 pi/alat)
               b(1) = (  1.000000 -0.733235  0.000000 )  
               b(2) = (  0.000000  1.466470  0.000000 )  
               b(3) = (  0.000000  0.000000  0.207254 )  


     PseudoPot. # 1 for C  read from file:
     ./C.pbe-n-kjpaw_psl.1.0.0.UPF
     MD5 check sum: 5f16ad9a65e90284d1d834d4ab3b0f7d
     Pseudo is Projector augmented-wave + core cor, Zval =  4.0
     Generated using &quot;atomic&quot; code by A. Dal Corso  v.6.3
     Shape of augmentation charge: PSQ
     Using radial grid of 1073 points,  4 beta functions with: 
                l(1) =   0
                l(2) =   0
                l(3) =   1
                l(4) =   1
     Q(r) pseudized with 0 coefficients 


     atomic species   valence    mass     pseudopotential
     C                 4.00    12.01100     C ( 1.00)

     No symmetry found


                                    s                        frac. trans.

      isym =  1     identity                                     

 cryst.   s( 1) = (     1          0          0      )
                  (     0          1          0      )
                  (     0          0          1      )

 cart.    s( 1) = (  1.0000000 -0.0000000  0.0000000 )
                  (  0.0000000  1.0000000  0.0000000 )
                  (  0.0000000  0.0000000  1.0000000 )


   Cartesian axes

     site n.     atom                  positions (alat units)
         1        C      tau(   1) = (   0.0000015  -0.0061761   0.0000000  )
         2        C      tau(   2) = (   0.4999980   0.2334791   0.0000000  )

   Crystallographic axes

     site n.     atom                  positions (cryst. coord.)
         1        C      tau(   1) = (  0.0045300 -0.0090570  0.0000000  )
         2        C      tau(   2) = (  0.3288030  0.3423900  0.0000000  )

     number of k points=  1681
                       cart. coord. in units 2pi/alat
        k(    1) = (  -0.0563930   0.6932350   0.0000000), wk =   0.0011898
        k(    2) = (  -0.0563930   0.6952350   0.0000000), wk =   0.0011898
        k(    3) = (  -0.0563930   0.6972350   0.0000000), wk =   0.0011898
        k(    4) = (  -0.0563930   0.6992350   0.0000000), wk =   0.0011898
        k(    5) = (  -0.0563930   0.7012350   0.0000000), wk =   0.0011898
        k(    6) = (  -0.0563930   0.7032350   0.0000000), wk =   0.0011898
        k(    7) = (  -0.0563930   0.7052350   0.0000000), wk =   0.0011898
        k(    8) = (  -0.0563930   0.7072350   0.0000000), wk =   0.0011898
        k(    9) = (  -0.0563930   0.7092350   0.0000000), wk =   0.0011898
        k(   10) = (  -0.0563930   0.7112350   0.0000000), wk =   0.0011898
        k(   11) = (  -0.0563930   0.7132350   0.0000000), wk =   0.0011898
        k(   12) = (  -0.0563930   0.7152350   0.0000000), wk =   0.0011898
        k(   13) = (  -0.0563930   0.7172350   0.0000000), wk =   0.0011898
        k(   14) = (  -0.0563930   0.7192350   0.0000000), wk =   0.0011898
        k(   15) = (  -0.0563930   0.7212350   0.0000000), wk =   0.0011898
        k(   16) = (  -0.0563930   0.7232350   0.0000000), wk =   0.0011898
        k(   17) = (  -0.0563930   0.7252350   0.0000000), wk =   0.0011898
        k(   18) = (  -0.0563930   0.7272350   0.0000000), wk =   0.0011898
        k(   19) = (  -0.0563930   0.7292350   0.0000000), wk =   0.0011898
        k(   20) = (  -0.0563930   0.7312350   0.0000000), wk =   0.0011898
        k(   21) = (  -0.0563930   0.7332350   0.0000000), wk =   0.0011898
        k(   22) = (  -0.0563930   0.7352350   0.0000000), wk =   0.0011898
        k(   23) = (  -0.0563930   0.7372350   0.0000000), wk =   0.0011898
        k(   24) = (  -0.0563930   0.7392350   0.0000000), wk =   0.0011898
        k(   25) = (  -0.0563930   0.7412350   0.0000000), wk =   0.0011898
        k(   26) = (  -0.0563930   0.7432350   0.0000000), wk =   0.0011898
        k(   27) = (  -0.0563930   0.7452350   0.0000000), wk =   0.0011898
        k(   28) = (  -0.0563930   0.7472350   0.0000000), wk =   0.0011898
        k(   29) = (  -0.0563930   0.7492350   0.0000000), wk =   0.0011898
        k(   30) = (  -0.0563930   0.7512350   0.0000000), wk =   0.0011898
        k(   31) = (  -0.0563930   0.7532350   0.0000000), wk =   0.0011898
        k(   32) = (  -0.0563930   0.7552350   0.0000000), wk =   0.0011898
        k(   33) = (  -0.0563930   0.7572350   0.0000000), wk =   0.0011898
        k(   34) = (  -0.0563930   0.7592350   0.0000000), wk =   0.0011898
        k(   35) = (  -0.0563930   0.7612350   0.0000000), wk =   0.0011898
        k(   36) = (  -0.0563930   0.7632350   0.0000000), wk =   0.0011898
        k(   37) = (  -0.0563930   0.7652350   0.0000000), wk =   0.0011898
        k(   38) = (  -0.0563930   0.7672350   0.0000000), wk =   0.0011898
        k(   39) = (  -0.0563930   0.7692350   0.0000000), wk =   0.0011898
        k(   40) = (  -0.0563930   0.7712350   0.0000000), wk =   0.0011898
        k(   41) = (  -0.0563930   0.7732350   0.0000000), wk =   0.0011898
        k(   42) = (  -0.0543930   0.6932350   0.0000000), wk =   0.0011898
        k(   43) = (  -0.0543930   0.6952350   0.0000000), wk =   0.0011898
        k(   44) = (  -0.0543930   0.6972350   0.0000000), wk =   0.0011898
        k(   45) = (  -0.0543930   0.6992350   0.0000000), wk =   0.0011898
        k(   46) = (  -0.0543930   0.7012350   0.0000000), wk =   0.0011898
        k(   47) = (  -0.0543930   0.7032350   0.0000000), wk =   0.0011898
        k(   48) = (  -0.0543930   0.7052350   0.0000000), wk =   0.0011898
        k(   49) = (  -0.0543930   0.7072350   0.0000000), wk =   0.0011898
        k(   50) = (  -0.0543930   0.7092350   0.0000000), wk =   0.0011898
        k(   51) = (  -0.0543930   0.7112350   0.0000000), wk =   0.0011898
        k(   52) = (  -0.0543930   0.7132350   0.0000000), wk =   0.0011898
        k(   53) = (  -0.0543930   0.7152350   0.0000000), wk =   0.0011898
        k(   54) = (  -0.0543930   0.7172350   0.0000000), wk =   0.0011898
        k(   55) = (  -0.0543930   0.7192350   0.0000000), wk =   0.0011898
        k(   56) = (  -0.0543930   0.7212350   0.0000000), wk =   0.0011898
        k(   57) = (  -0.0543930   0.7232350   0.0000000), wk =   0.0011898
        k(   58) = (  -0.0543930   0.7252350   0.0000000), wk =   0.0011898
        k(   59) = (  -0.0543930   0.7272350   0.0000000), wk =   0.0011898
        k(   60) = (  -0.0543930   0.7292350   0.0000000), wk =   0.0011898
        k(   61) = (  -0.0543930   0.7312350   0.0000000), wk =   0.0011898
        k(   62) = (  -0.0543930   0.7332350   0.0000000), wk =   0.0011898
        k(   63) = (  -0.0543930   0.7352350   0.0000000), wk =   0.0011898
        k(   64) = (  -0.0543930   0.7372350   0.0000000), wk =   0.0011898
        k(   65) = (  -0.0543930   0.7392350   0.0000000), wk =   0.0011898
        k(   66) = (  -0.0543930   0.7412350   0.0000000), wk =   0.0011898
        k(   67) = (  -0.0543930   0.7432350   0.0000000), wk =   0.0011898
        k(   68) = (  -0.0543930   0.7452350   0.0000000), wk =   0.0011898
        k(   69) = (  -0.0543930   0.7472350   0.0000000), wk =   0.0011898
        k(   70) = (  -0.0543930   0.7492350   0.0000000), wk =   0.0011898
        k(   71) = (  -0.0543930   0.7512350   0.0000000), wk =   0.0011898
        k(   72) = (  -0.0543930   0.7532350   0.0000000), wk =   0.0011898
        k(   73) = (  -0.0543930   0.7552350   0.0000000), wk =   0.0011898
        k(   74) = (  -0.0543930   0.7572350   0.0000000), wk =   0.0011898
        k(   75) = (  -0.0543930   0.7592350   0.0000000), wk =   0.0011898
        k(   76) = (  -0.0543930   0.7612350   0.0000000), wk =   0.0011898
        k(   77) = (  -0.0543930   0.7632350   0.0000000), wk =   0.0011898
        k(   78) = (  -0.0543930   0.7652350   0.0000000), wk =   0.0011898
        k(   79) = (  -0.0543930   0.7672350   0.0000000), wk =   0.0011898
        k(   80) = (  -0.0543930   0.7692350   0.0000000), wk =   0.0011898
        k(   81) = (  -0.0543930   0.7712350   0.0000000), wk =   0.0011898
        k(   82) = (  -0.0543930   0.7732350   0.0000000), wk =   0.0011898
        k(   83) = (  -0.0523930   0.6932350   0.0000000), wk =   0.0011898
        k(   84) = (  -0.0523930   0.6952350   0.0000000), wk =   0.0011898
        k(   85) = (  -0.0523930   0.6972350   0.0000000), wk =   0.0011898
        k(   86) = (  -0.0523930   0.6992350   0.0000000), wk =   0.0011898
        k(   87) = (  -0.0523930   0.7012350   0.0000000), wk =   0.0011898
        k(   88) = (  -0.0523930   0.7032350   0.0000000), wk =   0.0011898
        k(   89) = (  -0.0523930   0.7052350   0.0000000), wk =   0.0011898
        k(   90) = (  -0.0523930   0.7072350   0.0000000), wk =   0.0011898
        k(   91) = (  -0.0523930   0.7092350   0.0000000), wk =   0.0011898
        k(   92) = (  -0.0523930   0.7112350   0.0000000), wk =   0.0011898
        k(   93) = (  -0.0523930   0.7132350   0.0000000), wk =   0.0011898
        k(   94) = (  -0.0523930   0.7152350   0.0000000), wk =   0.0011898
        k(   95) = (  -0.0523930   0.7172350   0.0000000), wk =   0.0011898
        k(   96) = (  -0.0523930   0.7192350   0.0000000), wk =   0.0011898
        k(   97) = (  -0.0523930   0.7212350   0.0000000), wk =   0.0011898
        k(   98) = (  -0.0523930   0.7232350   0.0000000), wk =   0.0011898
        k(   99) = (  -0.0523930   0.7252350   0.0000000), wk =   0.0011898
        k(  100) = (  -0.0523930   0.7272350   0.0000000), wk =   0.0011898
        k(  101) = (  -0.0523930   0.7292350   0.0000000), wk =   0.0011898
        k(  102) = (  -0.0523930   0.7312350   0.0000000), wk =   0.0011898
        k(  103) = (  -0.0523930   0.7332350   0.0000000), wk =   0.0011898
        k(  104) = (  -0.0523930   0.7352350   0.0000000), wk =   0.0011898
        k(  105) = (  -0.0523930   0.7372350   0.0000000), wk =   0.0011898
        k(  106) = (  -0.0523930   0.7392350   0.0000000), wk =   0.0011898
        k(  107) = (  -0.0523930   0.7412350   0.0000000), wk =   0.0011898
        k(  108) = (  -0.0523930   0.7432350   0.0000000), wk =   0.0011898
        k(  109) = (  -0.0523930   0.7452350   0.0000000), wk =   0.0011898
        k(  110) = (  -0.0523930   0.7472350   0.0000000), wk =   0.0011898
        k(  111) = (  -0.0523930   0.7492350   0.0000000), wk =   0.0011898
        k(  112) = (  -0.0523930   0.7512350   0.0000000), wk =   0.0011898
        k(  113) = (  -0.0523930   0.7532350   0.0000000), wk =   0.0011898
        k(  114) = (  -0.0523930   0.7552350   0.0000000), wk =   0.0011898
        k(  115) = (  -0.0523930   0.7572350   0.0000000), wk =   0.0011898
        k(  116) = (  -0.0523930   0.7592350   0.0000000), wk =   0.0011898
        k(  117) = (  -0.0523930   0.7612350   0.0000000), wk =   0.0011898
        k(  118) = (  -0.0523930   0.7632350   0.0000000), wk =   0.0011898
        k(  119) = (  -0.0523930   0.7652350   0.0000000), wk =   0.0011898
        k(  120) = (  -0.0523930   0.7672350   0.0000000), wk =   0.0011898
        k(  121) = (  -0.0523930   0.7692350   0.0000000), wk =   0.0011898
        k(  122) = (  -0.0523930   0.7712350   0.0000000), wk =   0.0011898
        k(  123) = (  -0.0523930   0.7732350   0.0000000), wk =   0.0011898
        k(  124) = (  -0.0503930   0.6932350   0.0000000), wk =   0.0011898
        k(  125) = (  -0.0503930   0.6952350   0.0000000), wk =   0.0011898
        k(  126) = (  -0.0503930   0.6972350   0.0000000), wk =   0.0011898
        k(  127) = (  -0.0503930   0.6992350   0.0000000), wk =   0.0011898
        k(  128) = (  -0.0503930   0.7012350   0.0000000), wk =   0.0011898
        k(  129) = (  -0.0503930   0.7032350   0.0000000), wk =   0.0011898
        k(  130) = (  -0.0503930   0.7052350   0.0000000), wk =   0.0011898
        k(  131) = (  -0.0503930   0.7072350   0.0000000), wk =   0.0011898
        k(  132) = (  -0.0503930   0.7092350   0.0000000), wk =   0.0011898
        k(  133) = (  -0.0503930   0.7112350   0.0000000), wk =   0.0011898
        k(  134) = (  -0.0503930   0.7132350   0.0000000), wk =   0.0011898
        k(  135) = (  -0.0503930   0.7152350   0.0000000), wk =   0.0011898
        k(  136) = (  -0.0503930   0.7172350   0.0000000), wk =   0.0011898
        k(  137) = (  -0.0503930   0.7192350   0.0000000), wk =   0.0011898
        k(  138) = (  -0.0503930   0.7212350   0.0000000), wk =   0.0011898
        k(  139) = (  -0.0503930   0.7232350   0.0000000), wk =   0.0011898
        k(  140) = (  -0.0503930   0.7252350   0.0000000), wk =   0.0011898
        k(  141) = (  -0.0503930   0.7272350   0.0000000), wk =   0.0011898
        k(  142) = (  -0.0503930   0.7292350   0.0000000), wk =   0.0011898
        k(  143) = (  -0.0503930   0.7312350   0.0000000), wk =   0.0011898
        k(  144) = (  -0.0503930   0.7332350   0.0000000), wk =   0.0011898
        k(  145) = (  -0.0503930   0.7352350   0.0000000), wk =   0.0011898
        k(  146) = (  -0.0503930   0.7372350   0.0000000), wk =   0.0011898
        k(  147) = (  -0.0503930   0.7392350   0.0000000), wk =   0.0011898
        k(  148) = (  -0.0503930   0.7412350   0.0000000), wk =   0.0011898
        k(  149) = (  -0.0503930   0.7432350   0.0000000), wk =   0.0011898
        k(  150) = (  -0.0503930   0.7452350   0.0000000), wk =   0.0011898
        k(  151) = (  -0.0503930   0.7472350   0.0000000), wk =   0.0011898
        k(  152) = (  -0.0503930   0.7492350   0.0000000), wk =   0.0011898
        k(  153) = (  -0.0503930   0.7512350   0.0000000), wk =   0.0011898
        k(  154) = (  -0.0503930   0.7532350   0.0000000), wk =   0.0011898
        k(  155) = (  -0.0503930   0.7552350   0.0000000), wk =   0.0011898
        k(  156) = (  -0.0503930   0.7572350   0.0000000), wk =   0.0011898
        k(  157) = (  -0.0503930   0.7592350   0.0000000), wk =   0.0011898
        k(  158) = (  -0.0503930   0.7612350   0.0000000), wk =   0.0011898
        k(  159) = (  -0.0503930   0.7632350   0.0000000), wk =   0.0011898
        k(  160) = (  -0.0503930   0.7652350   0.0000000), wk =   0.0011898
        k(  161) = (  -0.0503930   0.7672350   0.0000000), wk =   0.0011898
        k(  162) = (  -0.0503930   0.7692350   0.0000000), wk =   0.0011898
        k(  163) = (  -0.0503930   0.7712350   0.0000000), wk =   0.0011898
        k(  164) = (  -0.0503930   0.7732350   0.0000000), wk =   0.0011898
        k(  165) = (  -0.0483930   0.6932350   0.0000000), wk =   0.0011898
        k(  166) = (  -0.0483930   0.6952350   0.0000000), wk =   0.0011898
        k(  167) = (  -0.0483930   0.6972350   0.0000000), wk =   0.0011898
        k(  168) = (  -0.0483930   0.6992350   0.0000000), wk =   0.0011898
        k(  169) = (  -0.0483930   0.7012350   0.0000000), wk =   0.0011898
        k(  170) = (  -0.0483930   0.7032350   0.0000000), wk =   0.0011898
        k(  171) = (  -0.0483930   0.7052350   0.0000000), wk =   0.0011898
        k(  172) = (  -0.0483930   0.7072350   0.0000000), wk =   0.0011898
        k(  173) = (  -0.0483930   0.7092350   0.0000000), wk =   0.0011898
        k(  174) = (  -0.0483930   0.7112350   0.0000000), wk =   0.0011898
        k(  175) = (  -0.0483930   0.7132350   0.0000000), wk =   0.0011898
        k(  176) = (  -0.0483930   0.7152350   0.0000000), wk =   0.0011898
        k(  177) = (  -0.0483930   0.7172350   0.0000000), wk =   0.0011898
        k(  178) = (  -0.0483930   0.7192350   0.0000000), wk =   0.0011898
        k(  179) = (  -0.0483930   0.7212350   0.0000000), wk =   0.0011898
        k(  180) = (  -0.0483930   0.7232350   0.0000000), wk =   0.0011898
        k(  181) = (  -0.0483930   0.7252350   0.0000000), wk =   0.0011898
        k(  182) = (  -0.0483930   0.7272350   0.0000000), wk =   0.0011898
        k(  183) = (  -0.0483930   0.7292350   0.0000000), wk =   0.0011898
        k(  184) = (  -0.0483930   0.7312350   0.0000000), wk =   0.0011898
        k(  185) = (  -0.0483930   0.7332350   0.0000000), wk =   0.0011898
        k(  186) = (  -0.0483930   0.7352350   0.0000000), wk =   0.0011898
        k(  187) = (  -0.0483930   0.7372350   0.0000000), wk =   0.0011898
        k(  188) = (  -0.0483930   0.7392350   0.0000000), wk =   0.0011898
        k(  189) = (  -0.0483930   0.7412350   0.0000000), wk =   0.0011898
        k(  190) = (  -0.0483930   0.7432350   0.0000000), wk =   0.0011898
        k(  191) = (  -0.0483930   0.7452350   0.0000000), wk =   0.0011898
        k(  192) = (  -0.0483930   0.7472350   0.0000000), wk =   0.0011898
        k(  193) = (  -0.0483930   0.7492350   0.0000000), wk =   0.0011898
        k(  194) = (  -0.0483930   0.7512350   0.0000000), wk =   0.0011898
        k(  195) = (  -0.0483930   0.7532350   0.0000000), wk =   0.0011898
        k(  196) = (  -0.0483930   0.7552350   0.0000000), wk =   0.0011898
        k(  197) = (  -0.0483930   0.7572350   0.0000000), wk =   0.0011898
        k(  198) = (  -0.0483930   0.7592350   0.0000000), wk =   0.0011898
        k(  199) = (  -0.0483930   0.7612350   0.0000000), wk =   0.0011898
        k(  200) = (  -0.0483930   0.7632350   0.0000000), wk =   0.0011898
        k(  201) = (  -0.0483930   0.7652350   0.0000000), wk =   0.0011898
        k(  202) = (  -0.0483930   0.7672350   0.0000000), wk =   0.0011898
        k(  203) = (  -0.0483930   0.7692350   0.0000000), wk =   0.0011898
        k(  204) = (  -0.0483930   0.7712350   0.0000000), wk =   0.0011898
        k(  205) = (  -0.0483930   0.7732350   0.0000000), wk =   0.0011898
        k(  206) = (  -0.0463930   0.6932350   0.0000000), wk =   0.0011898
        k(  207) = (  -0.0463930   0.6952350   0.0000000), wk =   0.0011898
        k(  208) = (  -0.0463930   0.6972350   0.0000000), wk =   0.0011898
        k(  209) = (  -0.0463930   0.6992350   0.0000000), wk =   0.0011898
        k(  210) = (  -0.0463930   0.7012350   0.0000000), wk =   0.0011898
        k(  211) = (  -0.0463930   0.7032350   0.0000000), wk =   0.0011898
        k(  212) = (  -0.0463930   0.7052350   0.0000000), wk =   0.0011898
        k(  213) = (  -0.0463930   0.7072350   0.0000000), wk =   0.0011898
        k(  214) = (  -0.0463930   0.7092350   0.0000000), wk =   0.0011898
        k(  215) = (  -0.0463930   0.7112350   0.0000000), wk =   0.0011898
        k(  216) = (  -0.0463930   0.7132350   0.0000000), wk =   0.0011898
        k(  217) = (  -0.0463930   0.7152350   0.0000000), wk =   0.0011898
        k(  218) = (  -0.0463930   0.7172350   0.0000000), wk =   0.0011898
        k(  219) = (  -0.0463930   0.7192350   0.0000000), wk =   0.0011898
        k(  220) = (  -0.0463930   0.7212350   0.0000000), wk =   0.0011898
        k(  221) = (  -0.0463930   0.7232350   0.0000000), wk =   0.0011898
        k(  222) = (  -0.0463930   0.7252350   0.0000000), wk =   0.0011898
        k(  223) = (  -0.0463930   0.7272350   0.0000000), wk =   0.0011898
        k(  224) = (  -0.0463930   0.7292350   0.0000000), wk =   0.0011898
        k(  225) = (  -0.0463930   0.7312350   0.0000000), wk =   0.0011898
        k(  226) = (  -0.0463930   0.7332350   0.0000000), wk =   0.0011898
        k(  227) = (  -0.0463930   0.7352350   0.0000000), wk =   0.0011898
        k(  228) = (  -0.0463930   0.7372350   0.0000000), wk =   0.0011898
        k(  229) = (  -0.0463930   0.7392350   0.0000000), wk =   0.0011898
        k(  230) = (  -0.0463930   0.7412350   0.0000000), wk =   0.0011898
        k(  231) = (  -0.0463930   0.7432350   0.0000000), wk =   0.0011898
        k(  232) = (  -0.0463930   0.7452350   0.0000000), wk =   0.0011898
        k(  233) = (  -0.0463930   0.7472350   0.0000000), wk =   0.0011898
        k(  234) = (  -0.0463930   0.7492350   0.0000000), wk =   0.0011898
        k(  235) = (  -0.0463930   0.7512350   0.0000000), wk =   0.0011898
        k(  236) = (  -0.0463930   0.7532350   0.0000000), wk =   0.0011898
        k(  237) = (  -0.0463930   0.7552350   0.0000000), wk =   0.0011898
        k(  238) = (  -0.0463930   0.7572350   0.0000000), wk =   0.0011898
        k(  239) = (  -0.0463930   0.7592350   0.0000000), wk =   0.0011898
        k(  240) = (  -0.0463930   0.7612350   0.0000000), wk =   0.0011898
        k(  241) = (  -0.0463930   0.7632350   0.0000000), wk =   0.0011898
        k(  242) = (  -0.0463930   0.7652350   0.0000000), wk =   0.0011898
        k(  243) = (  -0.0463930   0.7672350   0.0000000), wk =   0.0011898
        k(  244) = (  -0.0463930   0.7692350   0.0000000), wk =   0.0011898
        k(  245) = (  -0.0463930   0.7712350   0.0000000), wk =   0.0011898
        k(  246) = (  -0.0463930   0.7732350   0.0000000), wk =   0.0011898
        k(  247) = (  -0.0443930   0.6932350   0.0000000), wk =   0.0011898
        k(  248) = (  -0.0443930   0.6952350   0.0000000), wk =   0.0011898
        k(  249) = (  -0.0443930   0.6972350   0.0000000), wk =   0.0011898
        k(  250) = (  -0.0443930   0.6992350   0.0000000), wk =   0.0011898
        k(  251) = (  -0.0443930   0.7012350   0.0000000), wk =   0.0011898
        k(  252) = (  -0.0443930   0.7032350   0.0000000), wk =   0.0011898
        k(  253) = (  -0.0443930   0.7052350   0.0000000), wk =   0.0011898
        k(  254) = (  -0.0443930   0.7072350   0.0000000), wk =   0.0011898
        k(  255) = (  -0.0443930   0.7092350   0.0000000), wk =   0.0011898
        k(  256) = (  -0.0443930   0.7112350   0.0000000), wk =   0.0011898
        k(  257) = (  -0.0443930   0.7132350   0.0000000), wk =   0.0011898
        k(  258) = (  -0.0443930   0.7152350   0.0000000), wk =   0.0011898
        k(  259) = (  -0.0443930   0.7172350   0.0000000), wk =   0.0011898
        k(  260) = (  -0.0443930   0.7192350   0.0000000), wk =   0.0011898
        k(  261) = (  -0.0443930   0.7212350   0.0000000), wk =   0.0011898
        k(  262) = (  -0.0443930   0.7232350   0.0000000), wk =   0.0011898
        k(  263) = (  -0.0443930   0.7252350   0.0000000), wk =   0.0011898
        k(  264) = (  -0.0443930   0.7272350   0.0000000), wk =   0.0011898
        k(  265) = (  -0.0443930   0.7292350   0.0000000), wk =   0.0011898
        k(  266) = (  -0.0443930   0.7312350   0.0000000), wk =   0.0011898
        k(  267) = (  -0.0443930   0.7332350   0.0000000), wk =   0.0011898
        k(  268) = (  -0.0443930   0.7352350   0.0000000), wk =   0.0011898
        k(  269) = (  -0.0443930   0.7372350   0.0000000), wk =   0.0011898
        k(  270) = (  -0.0443930   0.7392350   0.0000000), wk =   0.0011898
        k(  271) = (  -0.0443930   0.7412350   0.0000000), wk =   0.0011898
        k(  272) = (  -0.0443930   0.7432350   0.0000000), wk =   0.0011898
        k(  273) = (  -0.0443930   0.7452350   0.0000000), wk =   0.0011898
        k(  274) = (  -0.0443930   0.7472350   0.0000000), wk =   0.0011898
        k(  275) = (  -0.0443930   0.7492350   0.0000000), wk =   0.0011898
        k(  276) = (  -0.0443930   0.7512350   0.0000000), wk =   0.0011898
        k(  277) = (  -0.0443930   0.7532350   0.0000000), wk =   0.0011898
        k(  278) = (  -0.0443930   0.7552350   0.0000000), wk =   0.0011898
        k(  279) = (  -0.0443930   0.7572350   0.0000000), wk =   0.0011898
        k(  280) = (  -0.0443930   0.7592350   0.0000000), wk =   0.0011898
        k(  281) = (  -0.0443930   0.7612350   0.0000000), wk =   0.0011898
        k(  282) = (  -0.0443930   0.7632350   0.0000000), wk =   0.0011898
        k(  283) = (  -0.0443930   0.7652350   0.0000000), wk =   0.0011898
        k(  284) = (  -0.0443930   0.7672350   0.0000000), wk =   0.0011898
        k(  285) = (  -0.0443930   0.7692350   0.0000000), wk =   0.0011898
        k(  286) = (  -0.0443930   0.7712350   0.0000000), wk =   0.0011898
        k(  287) = (  -0.0443930   0.7732350   0.0000000), wk =   0.0011898
        k(  288) = (  -0.0423930   0.6932350   0.0000000), wk =   0.0011898
        k(  289) = (  -0.0423930   0.6952350   0.0000000), wk =   0.0011898
        k(  290) = (  -0.0423930   0.6972350   0.0000000), wk =   0.0011898
        k(  291) = (  -0.0423930   0.6992350   0.0000000), wk =   0.0011898
        k(  292) = (  -0.0423930   0.7012350   0.0000000), wk =   0.0011898
        k(  293) = (  -0.0423930   0.7032350   0.0000000), wk =   0.0011898
        k(  294) = (  -0.0423930   0.7052350   0.0000000), wk =   0.0011898
        k(  295) = (  -0.0423930   0.7072350   0.0000000), wk =   0.0011898
        k(  296) = (  -0.0423930   0.7092350   0.0000000), wk =   0.0011898
        k(  297) = (  -0.0423930   0.7112350   0.0000000), wk =   0.0011898
        k(  298) = (  -0.0423930   0.7132350   0.0000000), wk =   0.0011898
        k(  299) = (  -0.0423930   0.7152350   0.0000000), wk =   0.0011898
        k(  300) = (  -0.0423930   0.7172350   0.0000000), wk =   0.0011898
        k(  301) = (  -0.0423930   0.7192350   0.0000000), wk =   0.0011898
        k(  302) = (  -0.0423930   0.7212350   0.0000000), wk =   0.0011898
        k(  303) = (  -0.0423930   0.7232350   0.0000000), wk =   0.0011898
        k(  304) = (  -0.0423930   0.7252350   0.0000000), wk =   0.0011898
        k(  305) = (  -0.0423930   0.7272350   0.0000000), wk =   0.0011898
        k(  306) = (  -0.0423930   0.7292350   0.0000000), wk =   0.0011898
        k(  307) = (  -0.0423930   0.7312350   0.0000000), wk =   0.0011898
        k(  308) = (  -0.0423930   0.7332350   0.0000000), wk =   0.0011898
        k(  309) = (  -0.0423930   0.7352350   0.0000000), wk =   0.0011898
        k(  310) = (  -0.0423930   0.7372350   0.0000000), wk =   0.0011898
        k(  311) = (  -0.0423930   0.7392350   0.0000000), wk =   0.0011898
        k(  312) = (  -0.0423930   0.7412350   0.0000000), wk =   0.0011898
        k(  313) = (  -0.0423930   0.7432350   0.0000000), wk =   0.0011898
        k(  314) = (  -0.0423930   0.7452350   0.0000000), wk =   0.0011898
        k(  315) = (  -0.0423930   0.7472350   0.0000000), wk =   0.0011898
        k(  316) = (  -0.0423930   0.7492350   0.0000000), wk =   0.0011898
        k(  317) = (  -0.0423930   0.7512350   0.0000000), wk =   0.0011898
        k(  318) = (  -0.0423930   0.7532350   0.0000000), wk =   0.0011898
        k(  319) = (  -0.0423930   0.7552350   0.0000000), wk =   0.0011898
        k(  320) = (  -0.0423930   0.7572350   0.0000000), wk =   0.0011898
        k(  321) = (  -0.0423930   0.7592350   0.0000000), wk =   0.0011898
        k(  322) = (  -0.0423930   0.7612350   0.0000000), wk =   0.0011898
        k(  323) = (  -0.0423930   0.7632350   0.0000000), wk =   0.0011898
        k(  324) = (  -0.0423930   0.7652350   0.0000000), wk =   0.0011898
        k(  325) = (  -0.0423930   0.7672350   0.0000000), wk =   0.0011898
        k(  326) = (  -0.0423930   0.7692350   0.0000000), wk =   0.0011898
        k(  327) = (  -0.0423930   0.7712350   0.0000000), wk =   0.0011898
        k(  328) = (  -0.0423930   0.7732350   0.0000000), wk =   0.0011898
        k(  329) = (  -0.0403930   0.6932350   0.0000000), wk =   0.0011898
        k(  330) = (  -0.0403930   0.6952350   0.0000000), wk =   0.0011898
        k(  331) = (  -0.0403930   0.6972350   0.0000000), wk =   0.0011898
        k(  332) = (  -0.0403930   0.6992350   0.0000000), wk =   0.0011898
        k(  333) = (  -0.0403930   0.7012350   0.0000000), wk =   0.0011898
        k(  334) = (  -0.0403930   0.7032350   0.0000000), wk =   0.0011898
        k(  335) = (  -0.0403930   0.7052350   0.0000000), wk =   0.0011898
        k(  336) = (  -0.0403930   0.7072350   0.0000000), wk =   0.0011898
        k(  337) = (  -0.0403930   0.7092350   0.0000000), wk =   0.0011898
        k(  338) = (  -0.0403930   0.7112350   0.0000000), wk =   0.0011898
        k(  339) = (  -0.0403930   0.7132350   0.0000000), wk =   0.0011898
        k(  340) = (  -0.0403930   0.7152350   0.0000000), wk =   0.0011898
        k(  341) = (  -0.0403930   0.7172350   0.0000000), wk =   0.0011898
        k(  342) = (  -0.0403930   0.7192350   0.0000000), wk =   0.0011898
        k(  343) = (  -0.0403930   0.7212350   0.0000000), wk =   0.0011898
        k(  344) = (  -0.0403930   0.7232350   0.0000000), wk =   0.0011898
        k(  345) = (  -0.0403930   0.7252350   0.0000000), wk =   0.0011898
        k(  346) = (  -0.0403930   0.7272350   0.0000000), wk =   0.0011898
        k(  347) = (  -0.0403930   0.7292350   0.0000000), wk =   0.0011898
        k(  348) = (  -0.0403930   0.7312350   0.0000000), wk =   0.0011898
        k(  349) = (  -0.0403930   0.7332350   0.0000000), wk =   0.0011898
        k(  350) = (  -0.0403930   0.7352350   0.0000000), wk =   0.0011898
        k(  351) = (  -0.0403930   0.7372350   0.0000000), wk =   0.0011898
        k(  352) = (  -0.0403930   0.7392350   0.0000000), wk =   0.0011898
        k(  353) = (  -0.0403930   0.7412350   0.0000000), wk =   0.0011898
        k(  354) = (  -0.0403930   0.7432350   0.0000000), wk =   0.0011898
        k(  355) = (  -0.0403930   0.7452350   0.0000000), wk =   0.0011898
        k(  356) = (  -0.0403930   0.7472350   0.0000000), wk =   0.0011898
        k(  357) = (  -0.0403930   0.7492350   0.0000000), wk =   0.0011898
        k(  358) = (  -0.0403930   0.7512350   0.0000000), wk =   0.0011898
        k(  359) = (  -0.0403930   0.7532350   0.0000000), wk =   0.0011898
        k(  360) = (  -0.0403930   0.7552350   0.0000000), wk =   0.0011898
        k(  361) = (  -0.0403930   0.7572350   0.0000000), wk =   0.0011898
        k(  362) = (  -0.0403930   0.7592350   0.0000000), wk =   0.0011898
        k(  363) = (  -0.0403930   0.7612350   0.0000000), wk =   0.0011898
        k(  364) = (  -0.0403930   0.7632350   0.0000000), wk =   0.0011898
        k(  365) = (  -0.0403930   0.7652350   0.0000000), wk =   0.0011898
        k(  366) = (  -0.0403930   0.7672350   0.0000000), wk =   0.0011898
        k(  367) = (  -0.0403930   0.7692350   0.0000000), wk =   0.0011898
        k(  368) = (  -0.0403930   0.7712350   0.0000000), wk =   0.0011898
        k(  369) = (  -0.0403930   0.7732350   0.0000000), wk =   0.0011898
        k(  370) = (  -0.0383930   0.6932350   0.0000000), wk =   0.0011898
        k(  371) = (  -0.0383930   0.6952350   0.0000000), wk =   0.0011898
        k(  372) = (  -0.0383930   0.6972350   0.0000000), wk =   0.0011898
        k(  373) = (  -0.0383930   0.6992350   0.0000000), wk =   0.0011898
        k(  374) = (  -0.0383930   0.7012350   0.0000000), wk =   0.0011898
        k(  375) = (  -0.0383930   0.7032350   0.0000000), wk =   0.0011898
        k(  376) = (  -0.0383930   0.7052350   0.0000000), wk =   0.0011898
        k(  377) = (  -0.0383930   0.7072350   0.0000000), wk =   0.0011898
        k(  378) = (  -0.0383930   0.7092350   0.0000000), wk =   0.0011898
        k(  379) = (  -0.0383930   0.7112350   0.0000000), wk =   0.0011898
        k(  380) = (  -0.0383930   0.7132350   0.0000000), wk =   0.0011898
        k(  381) = (  -0.0383930   0.7152350   0.0000000), wk =   0.0011898
        k(  382) = (  -0.0383930   0.7172350   0.0000000), wk =   0.0011898
        k(  383) = (  -0.0383930   0.7192350   0.0000000), wk =   0.0011898
        k(  384) = (  -0.0383930   0.7212350   0.0000000), wk =   0.0011898
        k(  385) = (  -0.0383930   0.7232350   0.0000000), wk =   0.0011898
        k(  386) = (  -0.0383930   0.7252350   0.0000000), wk =   0.0011898
        k(  387) = (  -0.0383930   0.7272350   0.0000000), wk =   0.0011898
        k(  388) = (  -0.0383930   0.7292350   0.0000000), wk =   0.0011898
        k(  389) = (  -0.0383930   0.7312350   0.0000000), wk =   0.0011898
        k(  390) = (  -0.0383930   0.7332350   0.0000000), wk =   0.0011898
        k(  391) = (  -0.0383930   0.7352350   0.0000000), wk =   0.0011898
        k(  392) = (  -0.0383930   0.7372350   0.0000000), wk =   0.0011898
        k(  393) = (  -0.0383930   0.7392350   0.0000000), wk =   0.0011898
        k(  394) = (  -0.0383930   0.7412350   0.0000000), wk =   0.0011898
        k(  395) = (  -0.0383930   0.7432350   0.0000000), wk =   0.0011898
        k(  396) = (  -0.0383930   0.7452350   0.0000000), wk =   0.0011898
        k(  397) = (  -0.0383930   0.7472350   0.0000000), wk =   0.0011898
        k(  398) = (  -0.0383930   0.7492350   0.0000000), wk =   0.0011898
        k(  399) = (  -0.0383930   0.7512350   0.0000000), wk =   0.0011898
        k(  400) = (  -0.0383930   0.7532350   0.0000000), wk =   0.0011898
        k(  401) = (  -0.0383930   0.7552350   0.0000000), wk =   0.0011898
        k(  402) = (  -0.0383930   0.7572350   0.0000000), wk =   0.0011898
        k(  403) = (  -0.0383930   0.7592350   0.0000000), wk =   0.0011898
        k(  404) = (  -0.0383930   0.7612350   0.0000000), wk =   0.0011898
        k(  405) = (  -0.0383930   0.7632350   0.0000000), wk =   0.0011898
        k(  406) = (  -0.0383930   0.7652350   0.0000000), wk =   0.0011898
        k(  407) = (  -0.0383930   0.7672350   0.0000000), wk =   0.0011898
        k(  408) = (  -0.0383930   0.7692350   0.0000000), wk =   0.0011898
        k(  409) = (  -0.0383930   0.7712350   0.0000000), wk =   0.0011898
        k(  410) = (  -0.0383930   0.7732350   0.0000000), wk =   0.0011898
        k(  411) = (  -0.0363930   0.6932350   0.0000000), wk =   0.0011898
        k(  412) = (  -0.0363930   0.6952350   0.0000000), wk =   0.0011898
        k(  413) = (  -0.0363930   0.6972350   0.0000000), wk =   0.0011898
        k(  414) = (  -0.0363930   0.6992350   0.0000000), wk =   0.0011898
        k(  415) = (  -0.0363930   0.7012350   0.0000000), wk =   0.0011898
        k(  416) = (  -0.0363930   0.7032350   0.0000000), wk =   0.0011898
        k(  417) = (  -0.0363930   0.7052350   0.0000000), wk =   0.0011898
        k(  418) = (  -0.0363930   0.7072350   0.0000000), wk =   0.0011898
        k(  419) = (  -0.0363930   0.7092350   0.0000000), wk =   0.0011898
        k(  420) = (  -0.0363930   0.7112350   0.0000000), wk =   0.0011898
        k(  421) = (  -0.0363930   0.7132350   0.0000000), wk =   0.0011898
        k(  422) = (  -0.0363930   0.7152350   0.0000000), wk =   0.0011898
        k(  423) = (  -0.0363930   0.7172350   0.0000000), wk =   0.0011898
        k(  424) = (  -0.0363930   0.7192350   0.0000000), wk =   0.0011898
        k(  425) = (  -0.0363930   0.7212350   0.0000000), wk =   0.0011898
        k(  426) = (  -0.0363930   0.7232350   0.0000000), wk =   0.0011898
        k(  427) = (  -0.0363930   0.7252350   0.0000000), wk =   0.0011898
        k(  428) = (  -0.0363930   0.7272350   0.0000000), wk =   0.0011898
        k(  429) = (  -0.0363930   0.7292350   0.0000000), wk =   0.0011898
        k(  430) = (  -0.0363930   0.7312350   0.0000000), wk =   0.0011898
        k(  431) = (  -0.0363930   0.7332350   0.0000000), wk =   0.0011898
        k(  432) = (  -0.0363930   0.7352350   0.0000000), wk =   0.0011898
        k(  433) = (  -0.0363930   0.7372350   0.0000000), wk =   0.0011898
        k(  434) = (  -0.0363930   0.7392350   0.0000000), wk =   0.0011898
        k(  435) = (  -0.0363930   0.7412350   0.0000000), wk =   0.0011898
        k(  436) = (  -0.0363930   0.7432350   0.0000000), wk =   0.0011898
        k(  437) = (  -0.0363930   0.7452350   0.0000000), wk =   0.0011898
        k(  438) = (  -0.0363930   0.7472350   0.0000000), wk =   0.0011898
        k(  439) = (  -0.0363930   0.7492350   0.0000000), wk =   0.0011898
        k(  440) = (  -0.0363930   0.7512350   0.0000000), wk =   0.0011898
        k(  441) = (  -0.0363930   0.7532350   0.0000000), wk =   0.0011898
        k(  442) = (  -0.0363930   0.7552350   0.0000000), wk =   0.0011898
        k(  443) = (  -0.0363930   0.7572350   0.0000000), wk =   0.0011898
        k(  444) = (  -0.0363930   0.7592350   0.0000000), wk =   0.0011898
        k(  445) = (  -0.0363930   0.7612350   0.0000000), wk =   0.0011898
        k(  446) = (  -0.0363930   0.7632350   0.0000000), wk =   0.0011898
        k(  447) = (  -0.0363930   0.7652350   0.0000000), wk =   0.0011898
        k(  448) = (  -0.0363930   0.7672350   0.0000000), wk =   0.0011898
        k(  449) = (  -0.0363930   0.7692350   0.0000000), wk =   0.0011898
        k(  450) = (  -0.0363930   0.7712350   0.0000000), wk =   0.0011898
        k(  451) = (  -0.0363930   0.7732350   0.0000000), wk =   0.0011898
        k(  452) = (  -0.0343930   0.6932350   0.0000000), wk =   0.0011898
        k(  453) = (  -0.0343930   0.6952350   0.0000000), wk =   0.0011898
        k(  454) = (  -0.0343930   0.6972350   0.0000000), wk =   0.0011898
        k(  455) = (  -0.0343930   0.6992350   0.0000000), wk =   0.0011898
        k(  456) = (  -0.0343930   0.7012350   0.0000000), wk =   0.0011898
        k(  457) = (  -0.0343930   0.7032350   0.0000000), wk =   0.0011898
        k(  458) = (  -0.0343930   0.7052350   0.0000000), wk =   0.0011898
        k(  459) = (  -0.0343930   0.7072350   0.0000000), wk =   0.0011898
        k(  460) = (  -0.0343930   0.7092350   0.0000000), wk =   0.0011898
        k(  461) = (  -0.0343930   0.7112350   0.0000000), wk =   0.0011898
        k(  462) = (  -0.0343930   0.7132350   0.0000000), wk =   0.0011898
        k(  463) = (  -0.0343930   0.7152350   0.0000000), wk =   0.0011898
        k(  464) = (  -0.0343930   0.7172350   0.0000000), wk =   0.0011898
        k(  465) = (  -0.0343930   0.7192350   0.0000000), wk =   0.0011898
        k(  466) = (  -0.0343930   0.7212350   0.0000000), wk =   0.0011898
        k(  467) = (  -0.0343930   0.7232350   0.0000000), wk =   0.0011898
        k(  468) = (  -0.0343930   0.7252350   0.0000000), wk =   0.0011898
        k(  469) = (  -0.0343930   0.7272350   0.0000000), wk =   0.0011898
        k(  470) = (  -0.0343930   0.7292350   0.0000000), wk =   0.0011898
        k(  471) = (  -0.0343930   0.7312350   0.0000000), wk =   0.0011898
        k(  472) = (  -0.0343930   0.7332350   0.0000000), wk =   0.0011898
        k(  473) = (  -0.0343930   0.7352350   0.0000000), wk =   0.0011898
        k(  474) = (  -0.0343930   0.7372350   0.0000000), wk =   0.0011898
        k(  475) = (  -0.0343930   0.7392350   0.0000000), wk =   0.0011898
        k(  476) = (  -0.0343930   0.7412350   0.0000000), wk =   0.0011898
        k(  477) = (  -0.0343930   0.7432350   0.0000000), wk =   0.0011898
        k(  478) = (  -0.0343930   0.7452350   0.0000000), wk =   0.0011898
        k(  479) = (  -0.0343930   0.7472350   0.0000000), wk =   0.0011898
        k(  480) = (  -0.0343930   0.7492350   0.0000000), wk =   0.0011898
        k(  481) = (  -0.0343930   0.7512350   0.0000000), wk =   0.0011898
        k(  482) = (  -0.0343930   0.7532350   0.0000000), wk =   0.0011898
        k(  483) = (  -0.0343930   0.7552350   0.0000000), wk =   0.0011898
        k(  484) = (  -0.0343930   0.7572350   0.0000000), wk =   0.0011898
        k(  485) = (  -0.0343930   0.7592350   0.0000000), wk =   0.0011898
        k(  486) = (  -0.0343930   0.7612350   0.0000000), wk =   0.0011898
        k(  487) = (  -0.0343930   0.7632350   0.0000000), wk =   0.0011898
        k(  488) = (  -0.0343930   0.7652350   0.0000000), wk =   0.0011898
        k(  489) = (  -0.0343930   0.7672350   0.0000000), wk =   0.0011898
        k(  490) = (  -0.0343930   0.7692350   0.0000000), wk =   0.0011898
        k(  491) = (  -0.0343930   0.7712350   0.0000000), wk =   0.0011898
        k(  492) = (  -0.0343930   0.7732350   0.0000000), wk =   0.0011898
        k(  493) = (  -0.0323930   0.6932350   0.0000000), wk =   0.0011898
        k(  494) = (  -0.0323930   0.6952350   0.0000000), wk =   0.0011898
        k(  495) = (  -0.0323930   0.6972350   0.0000000), wk =   0.0011898
        k(  496) = (  -0.0323930   0.6992350   0.0000000), wk =   0.0011898
        k(  497) = (  -0.0323930   0.7012350   0.0000000), wk =   0.0011898
        k(  498) = (  -0.0323930   0.7032350   0.0000000), wk =   0.0011898
        k(  499) = (  -0.0323930   0.7052350   0.0000000), wk =   0.0011898
        k(  500) = (  -0.0323930   0.7072350   0.0000000), wk =   0.0011898
        k(  501) = (  -0.0323930   0.7092350   0.0000000), wk =   0.0011898
        k(  502) = (  -0.0323930   0.7112350   0.0000000), wk =   0.0011898
        k(  503) = (  -0.0323930   0.7132350   0.0000000), wk =   0.0011898
        k(  504) = (  -0.0323930   0.7152350   0.0000000), wk =   0.0011898
        k(  505) = (  -0.0323930   0.7172350   0.0000000), wk =   0.0011898
        k(  506) = (  -0.0323930   0.7192350   0.0000000), wk =   0.0011898
        k(  507) = (  -0.0323930   0.7212350   0.0000000), wk =   0.0011898
        k(  508) = (  -0.0323930   0.7232350   0.0000000), wk =   0.0011898
        k(  509) = (  -0.0323930   0.7252350   0.0000000), wk =   0.0011898
        k(  510) = (  -0.0323930   0.7272350   0.0000000), wk =   0.0011898
        k(  511) = (  -0.0323930   0.7292350   0.0000000), wk =   0.0011898
        k(  512) = (  -0.0323930   0.7312350   0.0000000), wk =   0.0011898
        k(  513) = (  -0.0323930   0.7332350   0.0000000), wk =   0.0011898
        k(  514) = (  -0.0323930   0.7352350   0.0000000), wk =   0.0011898
        k(  515) = (  -0.0323930   0.7372350   0.0000000), wk =   0.0011898
        k(  516) = (  -0.0323930   0.7392350   0.0000000), wk =   0.0011898
        k(  517) = (  -0.0323930   0.7412350   0.0000000), wk =   0.0011898
        k(  518) = (  -0.0323930   0.7432350   0.0000000), wk =   0.0011898
        k(  519) = (  -0.0323930   0.7452350   0.0000000), wk =   0.0011898
        k(  520) = (  -0.0323930   0.7472350   0.0000000), wk =   0.0011898
        k(  521) = (  -0.0323930   0.7492350   0.0000000), wk =   0.0011898
        k(  522) = (  -0.0323930   0.7512350   0.0000000), wk =   0.0011898
        k(  523) = (  -0.0323930   0.7532350   0.0000000), wk =   0.0011898
        k(  524) = (  -0.0323930   0.7552350   0.0000000), wk =   0.0011898
        k(  525) = (  -0.0323930   0.7572350   0.0000000), wk =   0.0011898
        k(  526) = (  -0.0323930   0.7592350   0.0000000), wk =   0.0011898
        k(  527) = (  -0.0323930   0.7612350   0.0000000), wk =   0.0011898
        k(  528) = (  -0.0323930   0.7632350   0.0000000), wk =   0.0011898
        k(  529) = (  -0.0323930   0.7652350   0.0000000), wk =   0.0011898
        k(  530) = (  -0.0323930   0.7672350   0.0000000), wk =   0.0011898
        k(  531) = (  -0.0323930   0.7692350   0.0000000), wk =   0.0011898
        k(  532) = (  -0.0323930   0.7712350   0.0000000), wk =   0.0011898
        k(  533) = (  -0.0323930   0.7732350   0.0000000), wk =   0.0011898
        k(  534) = (  -0.0303930   0.6932350   0.0000000), wk =   0.0011898
        k(  535) = (  -0.0303930   0.6952350   0.0000000), wk =   0.0011898
        k(  536) = (  -0.0303930   0.6972350   0.0000000), wk =   0.0011898
        k(  537) = (  -0.0303930   0.6992350   0.0000000), wk =   0.0011898
        k(  538) = (  -0.0303930   0.7012350   0.0000000), wk =   0.0011898
        k(  539) = (  -0.0303930   0.7032350   0.0000000), wk =   0.0011898
        k(  540) = (  -0.0303930   0.7052350   0.0000000), wk =   0.0011898
        k(  541) = (  -0.0303930   0.7072350   0.0000000), wk =   0.0011898
        k(  542) = (  -0.0303930   0.7092350   0.0000000), wk =   0.0011898
        k(  543) = (  -0.0303930   0.7112350   0.0000000), wk =   0.0011898
        k(  544) = (  -0.0303930   0.7132350   0.0000000), wk =   0.0011898
        k(  545) = (  -0.0303930   0.7152350   0.0000000), wk =   0.0011898
        k(  546) = (  -0.0303930   0.7172350   0.0000000), wk =   0.0011898
        k(  547) = (  -0.0303930   0.7192350   0.0000000), wk =   0.0011898
        k(  548) = (  -0.0303930   0.7212350   0.0000000), wk =   0.0011898
        k(  549) = (  -0.0303930   0.7232350   0.0000000), wk =   0.0011898
        k(  550) = (  -0.0303930   0.7252350   0.0000000), wk =   0.0011898
        k(  551) = (  -0.0303930   0.7272350   0.0000000), wk =   0.0011898
        k(  552) = (  -0.0303930   0.7292350   0.0000000), wk =   0.0011898
        k(  553) = (  -0.0303930   0.7312350   0.0000000), wk =   0.0011898
        k(  554) = (  -0.0303930   0.7332350   0.0000000), wk =   0.0011898
        k(  555) = (  -0.0303930   0.7352350   0.0000000), wk =   0.0011898
        k(  556) = (  -0.0303930   0.7372350   0.0000000), wk =   0.0011898
        k(  557) = (  -0.0303930   0.7392350   0.0000000), wk =   0.0011898
        k(  558) = (  -0.0303930   0.7412350   0.0000000), wk =   0.0011898
        k(  559) = (  -0.0303930   0.7432350   0.0000000), wk =   0.0011898
        k(  560) = (  -0.0303930   0.7452350   0.0000000), wk =   0.0011898
        k(  561) = (  -0.0303930   0.7472350   0.0000000), wk =   0.0011898
        k(  562) = (  -0.0303930   0.7492350   0.0000000), wk =   0.0011898
        k(  563) = (  -0.0303930   0.7512350   0.0000000), wk =   0.0011898
        k(  564) = (  -0.0303930   0.7532350   0.0000000), wk =   0.0011898
        k(  565) = (  -0.0303930   0.7552350   0.0000000), wk =   0.0011898
        k(  566) = (  -0.0303930   0.7572350   0.0000000), wk =   0.0011898
        k(  567) = (  -0.0303930   0.7592350   0.0000000), wk =   0.0011898
        k(  568) = (  -0.0303930   0.7612350   0.0000000), wk =   0.0011898
        k(  569) = (  -0.0303930   0.7632350   0.0000000), wk =   0.0011898
        k(  570) = (  -0.0303930   0.7652350   0.0000000), wk =   0.0011898
        k(  571) = (  -0.0303930   0.7672350   0.0000000), wk =   0.0011898
        k(  572) = (  -0.0303930   0.7692350   0.0000000), wk =   0.0011898
        k(  573) = (  -0.0303930   0.7712350   0.0000000), wk =   0.0011898
        k(  574) = (  -0.0303930   0.7732350   0.0000000), wk =   0.0011898
        k(  575) = (  -0.0283930   0.6932350   0.0000000), wk =   0.0011898
        k(  576) = (  -0.0283930   0.6952350   0.0000000), wk =   0.0011898
        k(  577) = (  -0.0283930   0.6972350   0.0000000), wk =   0.0011898
        k(  578) = (  -0.0283930   0.6992350   0.0000000), wk =   0.0011898
        k(  579) = (  -0.0283930   0.7012350   0.0000000), wk =   0.0011898
        k(  580) = (  -0.0283930   0.7032350   0.0000000), wk =   0.0011898
        k(  581) = (  -0.0283930   0.7052350   0.0000000), wk =   0.0011898
        k(  582) = (  -0.0283930   0.7072350   0.0000000), wk =   0.0011898
        k(  583) = (  -0.0283930   0.7092350   0.0000000), wk =   0.0011898
        k(  584) = (  -0.0283930   0.7112350   0.0000000), wk =   0.0011898
        k(  585) = (  -0.0283930   0.7132350   0.0000000), wk =   0.0011898
        k(  586) = (  -0.0283930   0.7152350   0.0000000), wk =   0.0011898
        k(  587) = (  -0.0283930   0.7172350   0.0000000), wk =   0.0011898
        k(  588) = (  -0.0283930   0.7192350   0.0000000), wk =   0.0011898
        k(  589) = (  -0.0283930   0.7212350   0.0000000), wk =   0.0011898
        k(  590) = (  -0.0283930   0.7232350   0.0000000), wk =   0.0011898
        k(  591) = (  -0.0283930   0.7252350   0.0000000), wk =   0.0011898
        k(  592) = (  -0.0283930   0.7272350   0.0000000), wk =   0.0011898
        k(  593) = (  -0.0283930   0.7292350   0.0000000), wk =   0.0011898
        k(  594) = (  -0.0283930   0.7312350   0.0000000), wk =   0.0011898
        k(  595) = (  -0.0283930   0.7332350   0.0000000), wk =   0.0011898
        k(  596) = (  -0.0283930   0.7352350   0.0000000), wk =   0.0011898
        k(  597) = (  -0.0283930   0.7372350   0.0000000), wk =   0.0011898
        k(  598) = (  -0.0283930   0.7392350   0.0000000), wk =   0.0011898
        k(  599) = (  -0.0283930   0.7412350   0.0000000), wk =   0.0011898
        k(  600) = (  -0.0283930   0.7432350   0.0000000), wk =   0.0011898
        k(  601) = (  -0.0283930   0.7452350   0.0000000), wk =   0.0011898
        k(  602) = (  -0.0283930   0.7472350   0.0000000), wk =   0.0011898
        k(  603) = (  -0.0283930   0.7492350   0.0000000), wk =   0.0011898
        k(  604) = (  -0.0283930   0.7512350   0.0000000), wk =   0.0011898
        k(  605) = (  -0.0283930   0.7532350   0.0000000), wk =   0.0011898
        k(  606) = (  -0.0283930   0.7552350   0.0000000), wk =   0.0011898
        k(  607) = (  -0.0283930   0.7572350   0.0000000), wk =   0.0011898
        k(  608) = (  -0.0283930   0.7592350   0.0000000), wk =   0.0011898
        k(  609) = (  -0.0283930   0.7612350   0.0000000), wk =   0.0011898
        k(  610) = (  -0.0283930   0.7632350   0.0000000), wk =   0.0011898
        k(  611) = (  -0.0283930   0.7652350   0.0000000), wk =   0.0011898
        k(  612) = (  -0.0283930   0.7672350   0.0000000), wk =   0.0011898
        k(  613) = (  -0.0283930   0.7692350   0.0000000), wk =   0.0011898
        k(  614) = (  -0.0283930   0.7712350   0.0000000), wk =   0.0011898
        k(  615) = (  -0.0283930   0.7732350   0.0000000), wk =   0.0011898
        k(  616) = (  -0.0263930   0.6932350   0.0000000), wk =   0.0011898
        k(  617) = (  -0.0263930   0.6952350   0.0000000), wk =   0.0011898
        k(  618) = (  -0.0263930   0.6972350   0.0000000), wk =   0.0011898
        k(  619) = (  -0.0263930   0.6992350   0.0000000), wk =   0.0011898
        k(  620) = (  -0.0263930   0.7012350   0.0000000), wk =   0.0011898
        k(  621) = (  -0.0263930   0.7032350   0.0000000), wk =   0.0011898
        k(  622) = (  -0.0263930   0.7052350   0.0000000), wk =   0.0011898
        k(  623) = (  -0.0263930   0.7072350   0.0000000), wk =   0.0011898
        k(  624) = (  -0.0263930   0.7092350   0.0000000), wk =   0.0011898
        k(  625) = (  -0.0263930   0.7112350   0.0000000), wk =   0.0011898
        k(  626) = (  -0.0263930   0.7132350   0.0000000), wk =   0.0011898
        k(  627) = (  -0.0263930   0.7152350   0.0000000), wk =   0.0011898
        k(  628) = (  -0.0263930   0.7172350   0.0000000), wk =   0.0011898
        k(  629) = (  -0.0263930   0.7192350   0.0000000), wk =   0.0011898
        k(  630) = (  -0.0263930   0.7212350   0.0000000), wk =   0.0011898
        k(  631) = (  -0.0263930   0.7232350   0.0000000), wk =   0.0011898
        k(  632) = (  -0.0263930   0.7252350   0.0000000), wk =   0.0011898
        k(  633) = (  -0.0263930   0.7272350   0.0000000), wk =   0.0011898
        k(  634) = (  -0.0263930   0.7292350   0.0000000), wk =   0.0011898
        k(  635) = (  -0.0263930   0.7312350   0.0000000), wk =   0.0011898
        k(  636) = (  -0.0263930   0.7332350   0.0000000), wk =   0.0011898
        k(  637) = (  -0.0263930   0.7352350   0.0000000), wk =   0.0011898
        k(  638) = (  -0.0263930   0.7372350   0.0000000), wk =   0.0011898
        k(  639) = (  -0.0263930   0.7392350   0.0000000), wk =   0.0011898
        k(  640) = (  -0.0263930   0.7412350   0.0000000), wk =   0.0011898
        k(  641) = (  -0.0263930   0.7432350   0.0000000), wk =   0.0011898
        k(  642) = (  -0.0263930   0.7452350   0.0000000), wk =   0.0011898
        k(  643) = (  -0.0263930   0.7472350   0.0000000), wk =   0.0011898
        k(  644) = (  -0.0263930   0.7492350   0.0000000), wk =   0.0011898
        k(  645) = (  -0.0263930   0.7512350   0.0000000), wk =   0.0011898
        k(  646) = (  -0.0263930   0.7532350   0.0000000), wk =   0.0011898
        k(  647) = (  -0.0263930   0.7552350   0.0000000), wk =   0.0011898
        k(  648) = (  -0.0263930   0.7572350   0.0000000), wk =   0.0011898
        k(  649) = (  -0.0263930   0.7592350   0.0000000), wk =   0.0011898
        k(  650) = (  -0.0263930   0.7612350   0.0000000), wk =   0.0011898
        k(  651) = (  -0.0263930   0.7632350   0.0000000), wk =   0.0011898
        k(  652) = (  -0.0263930   0.7652350   0.0000000), wk =   0.0011898
        k(  653) = (  -0.0263930   0.7672350   0.0000000), wk =   0.0011898
        k(  654) = (  -0.0263930   0.7692350   0.0000000), wk =   0.0011898
        k(  655) = (  -0.0263930   0.7712350   0.0000000), wk =   0.0011898
        k(  656) = (  -0.0263930   0.7732350   0.0000000), wk =   0.0011898
        k(  657) = (  -0.0243930   0.6932350   0.0000000), wk =   0.0011898
        k(  658) = (  -0.0243930   0.6952350   0.0000000), wk =   0.0011898
        k(  659) = (  -0.0243930   0.6972350   0.0000000), wk =   0.0011898
        k(  660) = (  -0.0243930   0.6992350   0.0000000), wk =   0.0011898
        k(  661) = (  -0.0243930   0.7012350   0.0000000), wk =   0.0011898
        k(  662) = (  -0.0243930   0.7032350   0.0000000), wk =   0.0011898
        k(  663) = (  -0.0243930   0.7052350   0.0000000), wk =   0.0011898
        k(  664) = (  -0.0243930   0.7072350   0.0000000), wk =   0.0011898
        k(  665) = (  -0.0243930   0.7092350   0.0000000), wk =   0.0011898
        k(  666) = (  -0.0243930   0.7112350   0.0000000), wk =   0.0011898
        k(  667) = (  -0.0243930   0.7132350   0.0000000), wk =   0.0011898
        k(  668) = (  -0.0243930   0.7152350   0.0000000), wk =   0.0011898
        k(  669) = (  -0.0243930   0.7172350   0.0000000), wk =   0.0011898
        k(  670) = (  -0.0243930   0.7192350   0.0000000), wk =   0.0011898
        k(  671) = (  -0.0243930   0.7212350   0.0000000), wk =   0.0011898
        k(  672) = (  -0.0243930   0.7232350   0.0000000), wk =   0.0011898
        k(  673) = (  -0.0243930   0.7252350   0.0000000), wk =   0.0011898
        k(  674) = (  -0.0243930   0.7272350   0.0000000), wk =   0.0011898
        k(  675) = (  -0.0243930   0.7292350   0.0000000), wk =   0.0011898
        k(  676) = (  -0.0243930   0.7312350   0.0000000), wk =   0.0011898
        k(  677) = (  -0.0243930   0.7332350   0.0000000), wk =   0.0011898
        k(  678) = (  -0.0243930   0.7352350   0.0000000), wk =   0.0011898
        k(  679) = (  -0.0243930   0.7372350   0.0000000), wk =   0.0011898
        k(  680) = (  -0.0243930   0.7392350   0.0000000), wk =   0.0011898
        k(  681) = (  -0.0243930   0.7412350   0.0000000), wk =   0.0011898
        k(  682) = (  -0.0243930   0.7432350   0.0000000), wk =   0.0011898
        k(  683) = (  -0.0243930   0.7452350   0.0000000), wk =   0.0011898
        k(  684) = (  -0.0243930   0.7472350   0.0000000), wk =   0.0011898
        k(  685) = (  -0.0243930   0.7492350   0.0000000), wk =   0.0011898
        k(  686) = (  -0.0243930   0.7512350   0.0000000), wk =   0.0011898
        k(  687) = (  -0.0243930   0.7532350   0.0000000), wk =   0.0011898
        k(  688) = (  -0.0243930   0.7552350   0.0000000), wk =   0.0011898
        k(  689) = (  -0.0243930   0.7572350   0.0000000), wk =   0.0011898
        k(  690) = (  -0.0243930   0.7592350   0.0000000), wk =   0.0011898
        k(  691) = (  -0.0243930   0.7612350   0.0000000), wk =   0.0011898
        k(  692) = (  -0.0243930   0.7632350   0.0000000), wk =   0.0011898
        k(  693) = (  -0.0243930   0.7652350   0.0000000), wk =   0.0011898
        k(  694) = (  -0.0243930   0.7672350   0.0000000), wk =   0.0011898
        k(  695) = (  -0.0243930   0.7692350   0.0000000), wk =   0.0011898
        k(  696) = (  -0.0243930   0.7712350   0.0000000), wk =   0.0011898
        k(  697) = (  -0.0243930   0.7732350   0.0000000), wk =   0.0011898
        k(  698) = (  -0.0223930   0.6932350   0.0000000), wk =   0.0011898
        k(  699) = (  -0.0223930   0.6952350   0.0000000), wk =   0.0011898
        k(  700) = (  -0.0223930   0.6972350   0.0000000), wk =   0.0011898
        k(  701) = (  -0.0223930   0.6992350   0.0000000), wk =   0.0011898
        k(  702) = (  -0.0223930   0.7012350   0.0000000), wk =   0.0011898
        k(  703) = (  -0.0223930   0.7032350   0.0000000), wk =   0.0011898
        k(  704) = (  -0.0223930   0.7052350   0.0000000), wk =   0.0011898
        k(  705) = (  -0.0223930   0.7072350   0.0000000), wk =   0.0011898
        k(  706) = (  -0.0223930   0.7092350   0.0000000), wk =   0.0011898
        k(  707) = (  -0.0223930   0.7112350   0.0000000), wk =   0.0011898
        k(  708) = (  -0.0223930   0.7132350   0.0000000), wk =   0.0011898
        k(  709) = (  -0.0223930   0.7152350   0.0000000), wk =   0.0011898
        k(  710) = (  -0.0223930   0.7172350   0.0000000), wk =   0.0011898
        k(  711) = (  -0.0223930   0.7192350   0.0000000), wk =   0.0011898
        k(  712) = (  -0.0223930   0.7212350   0.0000000), wk =   0.0011898
        k(  713) = (  -0.0223930   0.7232350   0.0000000), wk =   0.0011898
        k(  714) = (  -0.0223930   0.7252350   0.0000000), wk =   0.0011898
        k(  715) = (  -0.0223930   0.7272350   0.0000000), wk =   0.0011898
        k(  716) = (  -0.0223930   0.7292350   0.0000000), wk =   0.0011898
        k(  717) = (  -0.0223930   0.7312350   0.0000000), wk =   0.0011898
        k(  718) = (  -0.0223930   0.7332350   0.0000000), wk =   0.0011898
        k(  719) = (  -0.0223930   0.7352350   0.0000000), wk =   0.0011898
        k(  720) = (  -0.0223930   0.7372350   0.0000000), wk =   0.0011898
        k(  721) = (  -0.0223930   0.7392350   0.0000000), wk =   0.0011898
        k(  722) = (  -0.0223930   0.7412350   0.0000000), wk =   0.0011898
        k(  723) = (  -0.0223930   0.7432350   0.0000000), wk =   0.0011898
        k(  724) = (  -0.0223930   0.7452350   0.0000000), wk =   0.0011898
        k(  725) = (  -0.0223930   0.7472350   0.0000000), wk =   0.0011898
        k(  726) = (  -0.0223930   0.7492350   0.0000000), wk =   0.0011898
        k(  727) = (  -0.0223930   0.7512350   0.0000000), wk =   0.0011898
        k(  728) = (  -0.0223930   0.7532350   0.0000000), wk =   0.0011898
        k(  729) = (  -0.0223930   0.7552350   0.0000000), wk =   0.0011898
        k(  730) = (  -0.0223930   0.7572350   0.0000000), wk =   0.0011898
        k(  731) = (  -0.0223930   0.7592350   0.0000000), wk =   0.0011898
        k(  732) = (  -0.0223930   0.7612350   0.0000000), wk =   0.0011898
        k(  733) = (  -0.0223930   0.7632350   0.0000000), wk =   0.0011898
        k(  734) = (  -0.0223930   0.7652350   0.0000000), wk =   0.0011898
        k(  735) = (  -0.0223930   0.7672350   0.0000000), wk =   0.0011898
        k(  736) = (  -0.0223930   0.7692350   0.0000000), wk =   0.0011898
        k(  737) = (  -0.0223930   0.7712350   0.0000000), wk =   0.0011898
        k(  738) = (  -0.0223930   0.7732350   0.0000000), wk =   0.0011898
        k(  739) = (  -0.0203930   0.6932350   0.0000000), wk =   0.0011898
        k(  740) = (  -0.0203930   0.6952350   0.0000000), wk =   0.0011898
        k(  741) = (  -0.0203930   0.6972350   0.0000000), wk =   0.0011898
        k(  742) = (  -0.0203930   0.6992350   0.0000000), wk =   0.0011898
        k(  743) = (  -0.0203930   0.7012350   0.0000000), wk =   0.0011898
        k(  744) = (  -0.0203930   0.7032350   0.0000000), wk =   0.0011898
        k(  745) = (  -0.0203930   0.7052350   0.0000000), wk =   0.0011898
        k(  746) = (  -0.0203930   0.7072350   0.0000000), wk =   0.0011898
        k(  747) = (  -0.0203930   0.7092350   0.0000000), wk =   0.0011898
        k(  748) = (  -0.0203930   0.7112350   0.0000000), wk =   0.0011898
        k(  749) = (  -0.0203930   0.7132350   0.0000000), wk =   0.0011898
        k(  750) = (  -0.0203930   0.7152350   0.0000000), wk =   0.0011898
        k(  751) = (  -0.0203930   0.7172350   0.0000000), wk =   0.0011898
        k(  752) = (  -0.0203930   0.7192350   0.0000000), wk =   0.0011898
        k(  753) = (  -0.0203930   0.7212350   0.0000000), wk =   0.0011898
        k(  754) = (  -0.0203930   0.7232350   0.0000000), wk =   0.0011898
        k(  755) = (  -0.0203930   0.7252350   0.0000000), wk =   0.0011898
        k(  756) = (  -0.0203930   0.7272350   0.0000000), wk =   0.0011898
        k(  757) = (  -0.0203930   0.7292350   0.0000000), wk =   0.0011898
        k(  758) = (  -0.0203930   0.7312350   0.0000000), wk =   0.0011898
        k(  759) = (  -0.0203930   0.7332350   0.0000000), wk =   0.0011898
        k(  760) = (  -0.0203930   0.7352350   0.0000000), wk =   0.0011898
        k(  761) = (  -0.0203930   0.7372350   0.0000000), wk =   0.0011898
        k(  762) = (  -0.0203930   0.7392350   0.0000000), wk =   0.0011898
        k(  763) = (  -0.0203930   0.7412350   0.0000000), wk =   0.0011898
        k(  764) = (  -0.0203930   0.7432350   0.0000000), wk =   0.0011898
        k(  765) = (  -0.0203930   0.7452350   0.0000000), wk =   0.0011898
        k(  766) = (  -0.0203930   0.7472350   0.0000000), wk =   0.0011898
        k(  767) = (  -0.0203930   0.7492350   0.0000000), wk =   0.0011898
        k(  768) = (  -0.0203930   0.7512350   0.0000000), wk =   0.0011898
        k(  769) = (  -0.0203930   0.7532350   0.0000000), wk =   0.0011898
        k(  770) = (  -0.0203930   0.7552350   0.0000000), wk =   0.0011898
        k(  771) = (  -0.0203930   0.7572350   0.0000000), wk =   0.0011898
        k(  772) = (  -0.0203930   0.7592350   0.0000000), wk =   0.0011898
        k(  773) = (  -0.0203930   0.7612350   0.0000000), wk =   0.0011898
        k(  774) = (  -0.0203930   0.7632350   0.0000000), wk =   0.0011898
        k(  775) = (  -0.0203930   0.7652350   0.0000000), wk =   0.0011898
        k(  776) = (  -0.0203930   0.7672350   0.0000000), wk =   0.0011898
        k(  777) = (  -0.0203930   0.7692350   0.0000000), wk =   0.0011898
        k(  778) = (  -0.0203930   0.7712350   0.0000000), wk =   0.0011898
        k(  779) = (  -0.0203930   0.7732350   0.0000000), wk =   0.0011898
        k(  780) = (  -0.0183930   0.6932350   0.0000000), wk =   0.0011898
        k(  781) = (  -0.0183930   0.6952350   0.0000000), wk =   0.0011898
        k(  782) = (  -0.0183930   0.6972350   0.0000000), wk =   0.0011898
        k(  783) = (  -0.0183930   0.6992350   0.0000000), wk =   0.0011898
        k(  784) = (  -0.0183930   0.7012350   0.0000000), wk =   0.0011898
        k(  785) = (  -0.0183930   0.7032350   0.0000000), wk =   0.0011898
        k(  786) = (  -0.0183930   0.7052350   0.0000000), wk =   0.0011898
        k(  787) = (  -0.0183930   0.7072350   0.0000000), wk =   0.0011898
        k(  788) = (  -0.0183930   0.7092350   0.0000000), wk =   0.0011898
        k(  789) = (  -0.0183930   0.7112350   0.0000000), wk =   0.0011898
        k(  790) = (  -0.0183930   0.7132350   0.0000000), wk =   0.0011898
        k(  791) = (  -0.0183930   0.7152350   0.0000000), wk =   0.0011898
        k(  792) = (  -0.0183930   0.7172350   0.0000000), wk =   0.0011898
        k(  793) = (  -0.0183930   0.7192350   0.0000000), wk =   0.0011898
        k(  794) = (  -0.0183930   0.7212350   0.0000000), wk =   0.0011898
        k(  795) = (  -0.0183930   0.7232350   0.0000000), wk =   0.0011898
        k(  796) = (  -0.0183930   0.7252350   0.0000000), wk =   0.0011898
        k(  797) = (  -0.0183930   0.7272350   0.0000000), wk =   0.0011898
        k(  798) = (  -0.0183930   0.7292350   0.0000000), wk =   0.0011898
        k(  799) = (  -0.0183930   0.7312350   0.0000000), wk =   0.0011898
        k(  800) = (  -0.0183930   0.7332350   0.0000000), wk =   0.0011898
        k(  801) = (  -0.0183930   0.7352350   0.0000000), wk =   0.0011898
        k(  802) = (  -0.0183930   0.7372350   0.0000000), wk =   0.0011898
        k(  803) = (  -0.0183930   0.7392350   0.0000000), wk =   0.0011898
        k(  804) = (  -0.0183930   0.7412350   0.0000000), wk =   0.0011898
        k(  805) = (  -0.0183930   0.7432350   0.0000000), wk =   0.0011898
        k(  806) = (  -0.0183930   0.7452350   0.0000000), wk =   0.0011898
        k(  807) = (  -0.0183930   0.7472350   0.0000000), wk =   0.0011898
        k(  808) = (  -0.0183930   0.7492350   0.0000000), wk =   0.0011898
        k(  809) = (  -0.0183930   0.7512350   0.0000000), wk =   0.0011898
        k(  810) = (  -0.0183930   0.7532350   0.0000000), wk =   0.0011898
        k(  811) = (  -0.0183930   0.7552350   0.0000000), wk =   0.0011898
        k(  812) = (  -0.0183930   0.7572350   0.0000000), wk =   0.0011898
        k(  813) = (  -0.0183930   0.7592350   0.0000000), wk =   0.0011898
        k(  814) = (  -0.0183930   0.7612350   0.0000000), wk =   0.0011898
        k(  815) = (  -0.0183930   0.7632350   0.0000000), wk =   0.0011898
        k(  816) = (  -0.0183930   0.7652350   0.0000000), wk =   0.0011898
        k(  817) = (  -0.0183930   0.7672350   0.0000000), wk =   0.0011898
        k(  818) = (  -0.0183930   0.7692350   0.0000000), wk =   0.0011898
        k(  819) = (  -0.0183930   0.7712350   0.0000000), wk =   0.0011898
        k(  820) = (  -0.0183930   0.7732350   0.0000000), wk =   0.0011898
        k(  821) = (  -0.0163930   0.6932350   0.0000000), wk =   0.0011898
        k(  822) = (  -0.0163930   0.6952350   0.0000000), wk =   0.0011898
        k(  823) = (  -0.0163930   0.6972350   0.0000000), wk =   0.0011898
        k(  824) = (  -0.0163930   0.6992350   0.0000000), wk =   0.0011898
        k(  825) = (  -0.0163930   0.7012350   0.0000000), wk =   0.0011898
        k(  826) = (  -0.0163930   0.7032350   0.0000000), wk =   0.0011898
        k(  827) = (  -0.0163930   0.7052350   0.0000000), wk =   0.0011898
        k(  828) = (  -0.0163930   0.7072350   0.0000000), wk =   0.0011898
        k(  829) = (  -0.0163930   0.7092350   0.0000000), wk =   0.0011898
        k(  830) = (  -0.0163930   0.7112350   0.0000000), wk =   0.0011898
        k(  831) = (  -0.0163930   0.7132350   0.0000000), wk =   0.0011898
        k(  832) = (  -0.0163930   0.7152350   0.0000000), wk =   0.0011898
        k(  833) = (  -0.0163930   0.7172350   0.0000000), wk =   0.0011898
        k(  834) = (  -0.0163930   0.7192350   0.0000000), wk =   0.0011898
        k(  835) = (  -0.0163930   0.7212350   0.0000000), wk =   0.0011898
        k(  836) = (  -0.0163930   0.7232350   0.0000000), wk =   0.0011898
        k(  837) = (  -0.0163930   0.7252350   0.0000000), wk =   0.0011898
        k(  838) = (  -0.0163930   0.7272350   0.0000000), wk =   0.0011898
        k(  839) = (  -0.0163930   0.7292350   0.0000000), wk =   0.0011898
        k(  840) = (  -0.0163930   0.7312350   0.0000000), wk =   0.0011898
        k(  841) = (  -0.0163930   0.7332350   0.0000000), wk =   0.0011898
        k(  842) = (  -0.0163930   0.7352350   0.0000000), wk =   0.0011898
        k(  843) = (  -0.0163930   0.7372350   0.0000000), wk =   0.0011898
        k(  844) = (  -0.0163930   0.7392350   0.0000000), wk =   0.0011898
        k(  845) = (  -0.0163930   0.7412350   0.0000000), wk =   0.0011898
        k(  846) = (  -0.0163930   0.7432350   0.0000000), wk =   0.0011898
        k(  847) = (  -0.0163930   0.7452350   0.0000000), wk =   0.0011898
        k(  848) = (  -0.0163930   0.7472350   0.0000000), wk =   0.0011898
        k(  849) = (  -0.0163930   0.7492350   0.0000000), wk =   0.0011898
        k(  850) = (  -0.0163930   0.7512350   0.0000000), wk =   0.0011898
        k(  851) = (  -0.0163930   0.7532350   0.0000000), wk =   0.0011898
        k(  852) = (  -0.0163930   0.7552350   0.0000000), wk =   0.0011898
        k(  853) = (  -0.0163930   0.7572350   0.0000000), wk =   0.0011898
        k(  854) = (  -0.0163930   0.7592350   0.0000000), wk =   0.0011898
        k(  855) = (  -0.0163930   0.7612350   0.0000000), wk =   0.0011898
        k(  856) = (  -0.0163930   0.7632350   0.0000000), wk =   0.0011898
        k(  857) = (  -0.0163930   0.7652350   0.0000000), wk =   0.0011898
        k(  858) = (  -0.0163930   0.7672350   0.0000000), wk =   0.0011898
        k(  859) = (  -0.0163930   0.7692350   0.0000000), wk =   0.0011898
        k(  860) = (  -0.0163930   0.7712350   0.0000000), wk =   0.0011898
        k(  861) = (  -0.0163930   0.7732350   0.0000000), wk =   0.0011898
        k(  862) = (  -0.0143930   0.6932350   0.0000000), wk =   0.0011898
        k(  863) = (  -0.0143930   0.6952350   0.0000000), wk =   0.0011898
        k(  864) = (  -0.0143930   0.6972350   0.0000000), wk =   0.0011898
        k(  865) = (  -0.0143930   0.6992350   0.0000000), wk =   0.0011898
        k(  866) = (  -0.0143930   0.7012350   0.0000000), wk =   0.0011898
        k(  867) = (  -0.0143930   0.7032350   0.0000000), wk =   0.0011898
        k(  868) = (  -0.0143930   0.7052350   0.0000000), wk =   0.0011898
        k(  869) = (  -0.0143930   0.7072350   0.0000000), wk =   0.0011898
        k(  870) = (  -0.0143930   0.7092350   0.0000000), wk =   0.0011898
        k(  871) = (  -0.0143930   0.7112350   0.0000000), wk =   0.0011898
        k(  872) = (  -0.0143930   0.7132350   0.0000000), wk =   0.0011898
        k(  873) = (  -0.0143930   0.7152350   0.0000000), wk =   0.0011898
        k(  874) = (  -0.0143930   0.7172350   0.0000000), wk =   0.0011898
        k(  875) = (  -0.0143930   0.7192350   0.0000000), wk =   0.0011898
        k(  876) = (  -0.0143930   0.7212350   0.0000000), wk =   0.0011898
        k(  877) = (  -0.0143930   0.7232350   0.0000000), wk =   0.0011898
        k(  878) = (  -0.0143930   0.7252350   0.0000000), wk =   0.0011898
        k(  879) = (  -0.0143930   0.7272350   0.0000000), wk =   0.0011898
        k(  880) = (  -0.0143930   0.7292350   0.0000000), wk =   0.0011898
        k(  881) = (  -0.0143930   0.7312350   0.0000000), wk =   0.0011898
        k(  882) = (  -0.0143930   0.7332350   0.0000000), wk =   0.0011898
        k(  883) = (  -0.0143930   0.7352350   0.0000000), wk =   0.0011898
        k(  884) = (  -0.0143930   0.7372350   0.0000000), wk =   0.0011898
        k(  885) = (  -0.0143930   0.7392350   0.0000000), wk =   0.0011898
        k(  886) = (  -0.0143930   0.7412350   0.0000000), wk =   0.0011898
        k(  887) = (  -0.0143930   0.7432350   0.0000000), wk =   0.0011898
        k(  888) = (  -0.0143930   0.7452350   0.0000000), wk =   0.0011898
        k(  889) = (  -0.0143930   0.7472350   0.0000000), wk =   0.0011898
        k(  890) = (  -0.0143930   0.7492350   0.0000000), wk =   0.0011898
        k(  891) = (  -0.0143930   0.7512350   0.0000000), wk =   0.0011898
        k(  892) = (  -0.0143930   0.7532350   0.0000000), wk =   0.0011898
        k(  893) = (  -0.0143930   0.7552350   0.0000000), wk =   0.0011898
        k(  894) = (  -0.0143930   0.7572350   0.0000000), wk =   0.0011898
        k(  895) = (  -0.0143930   0.7592350   0.0000000), wk =   0.0011898
        k(  896) = (  -0.0143930   0.7612350   0.0000000), wk =   0.0011898
        k(  897) = (  -0.0143930   0.7632350   0.0000000), wk =   0.0011898
        k(  898) = (  -0.0143930   0.7652350   0.0000000), wk =   0.0011898
        k(  899) = (  -0.0143930   0.7672350   0.0000000), wk =   0.0011898
        k(  900) = (  -0.0143930   0.7692350   0.0000000), wk =   0.0011898
        k(  901) = (  -0.0143930   0.7712350   0.0000000), wk =   0.0011898
        k(  902) = (  -0.0143930   0.7732350   0.0000000), wk =   0.0011898
        k(  903) = (  -0.0123930   0.6932350   0.0000000), wk =   0.0011898
        k(  904) = (  -0.0123930   0.6952350   0.0000000), wk =   0.0011898
        k(  905) = (  -0.0123930   0.6972350   0.0000000), wk =   0.0011898
        k(  906) = (  -0.0123930   0.6992350   0.0000000), wk =   0.0011898
        k(  907) = (  -0.0123930   0.7012350   0.0000000), wk =   0.0011898
        k(  908) = (  -0.0123930   0.7032350   0.0000000), wk =   0.0011898
        k(  909) = (  -0.0123930   0.7052350   0.0000000), wk =   0.0011898
        k(  910) = (  -0.0123930   0.7072350   0.0000000), wk =   0.0011898
        k(  911) = (  -0.0123930   0.7092350   0.0000000), wk =   0.0011898
        k(  912) = (  -0.0123930   0.7112350   0.0000000), wk =   0.0011898
        k(  913) = (  -0.0123930   0.7132350   0.0000000), wk =   0.0011898
        k(  914) = (  -0.0123930   0.7152350   0.0000000), wk =   0.0011898
        k(  915) = (  -0.0123930   0.7172350   0.0000000), wk =   0.0011898
        k(  916) = (  -0.0123930   0.7192350   0.0000000), wk =   0.0011898
        k(  917) = (  -0.0123930   0.7212350   0.0000000), wk =   0.0011898
        k(  918) = (  -0.0123930   0.7232350   0.0000000), wk =   0.0011898
        k(  919) = (  -0.0123930   0.7252350   0.0000000), wk =   0.0011898
        k(  920) = (  -0.0123930   0.7272350   0.0000000), wk =   0.0011898
        k(  921) = (  -0.0123930   0.7292350   0.0000000), wk =   0.0011898
        k(  922) = (  -0.0123930   0.7312350   0.0000000), wk =   0.0011898
        k(  923) = (  -0.0123930   0.7332350   0.0000000), wk =   0.0011898
        k(  924) = (  -0.0123930   0.7352350   0.0000000), wk =   0.0011898
        k(  925) = (  -0.0123930   0.7372350   0.0000000), wk =   0.0011898
        k(  926) = (  -0.0123930   0.7392350   0.0000000), wk =   0.0011898
        k(  927) = (  -0.0123930   0.7412350   0.0000000), wk =   0.0011898
        k(  928) = (  -0.0123930   0.7432350   0.0000000), wk =   0.0011898
        k(  929) = (  -0.0123930   0.7452350   0.0000000), wk =   0.0011898
        k(  930) = (  -0.0123930   0.7472350   0.0000000), wk =   0.0011898
        k(  931) = (  -0.0123930   0.7492350   0.0000000), wk =   0.0011898
        k(  932) = (  -0.0123930   0.7512350   0.0000000), wk =   0.0011898
        k(  933) = (  -0.0123930   0.7532350   0.0000000), wk =   0.0011898
        k(  934) = (  -0.0123930   0.7552350   0.0000000), wk =   0.0011898
        k(  935) = (  -0.0123930   0.7572350   0.0000000), wk =   0.0011898
        k(  936) = (  -0.0123930   0.7592350   0.0000000), wk =   0.0011898
        k(  937) = (  -0.0123930   0.7612350   0.0000000), wk =   0.0011898
        k(  938) = (  -0.0123930   0.7632350   0.0000000), wk =   0.0011898
        k(  939) = (  -0.0123930   0.7652350   0.0000000), wk =   0.0011898
        k(  940) = (  -0.0123930   0.7672350   0.0000000), wk =   0.0011898
        k(  941) = (  -0.0123930   0.7692350   0.0000000), wk =   0.0011898
        k(  942) = (  -0.0123930   0.7712350   0.0000000), wk =   0.0011898
        k(  943) = (  -0.0123930   0.7732350   0.0000000), wk =   0.0011898
        k(  944) = (  -0.0103930   0.6932350   0.0000000), wk =   0.0011898
        k(  945) = (  -0.0103930   0.6952350   0.0000000), wk =   0.0011898
        k(  946) = (  -0.0103930   0.6972350   0.0000000), wk =   0.0011898
        k(  947) = (  -0.0103930   0.6992350   0.0000000), wk =   0.0011898
        k(  948) = (  -0.0103930   0.7012350   0.0000000), wk =   0.0011898
        k(  949) = (  -0.0103930   0.7032350   0.0000000), wk =   0.0011898
        k(  950) = (  -0.0103930   0.7052350   0.0000000), wk =   0.0011898
        k(  951) = (  -0.0103930   0.7072350   0.0000000), wk =   0.0011898
        k(  952) = (  -0.0103930   0.7092350   0.0000000), wk =   0.0011898
        k(  953) = (  -0.0103930   0.7112350   0.0000000), wk =   0.0011898
        k(  954) = (  -0.0103930   0.7132350   0.0000000), wk =   0.0011898
        k(  955) = (  -0.0103930   0.7152350   0.0000000), wk =   0.0011898
        k(  956) = (  -0.0103930   0.7172350   0.0000000), wk =   0.0011898
        k(  957) = (  -0.0103930   0.7192350   0.0000000), wk =   0.0011898
        k(  958) = (  -0.0103930   0.7212350   0.0000000), wk =   0.0011898
        k(  959) = (  -0.0103930   0.7232350   0.0000000), wk =   0.0011898
        k(  960) = (  -0.0103930   0.7252350   0.0000000), wk =   0.0011898
        k(  961) = (  -0.0103930   0.7272350   0.0000000), wk =   0.0011898
        k(  962) = (  -0.0103930   0.7292350   0.0000000), wk =   0.0011898
        k(  963) = (  -0.0103930   0.7312350   0.0000000), wk =   0.0011898
        k(  964) = (  -0.0103930   0.7332350   0.0000000), wk =   0.0011898
        k(  965) = (  -0.0103930   0.7352350   0.0000000), wk =   0.0011898
        k(  966) = (  -0.0103930   0.7372350   0.0000000), wk =   0.0011898
        k(  967) = (  -0.0103930   0.7392350   0.0000000), wk =   0.0011898
        k(  968) = (  -0.0103930   0.7412350   0.0000000), wk =   0.0011898
        k(  969) = (  -0.0103930   0.7432350   0.0000000), wk =   0.0011898
        k(  970) = (  -0.0103930   0.7452350   0.0000000), wk =   0.0011898
        k(  971) = (  -0.0103930   0.7472350   0.0000000), wk =   0.0011898
        k(  972) = (  -0.0103930   0.7492350   0.0000000), wk =   0.0011898
        k(  973) = (  -0.0103930   0.7512350   0.0000000), wk =   0.0011898
        k(  974) = (  -0.0103930   0.7532350   0.0000000), wk =   0.0011898
        k(  975) = (  -0.0103930   0.7552350   0.0000000), wk =   0.0011898
        k(  976) = (  -0.0103930   0.7572350   0.0000000), wk =   0.0011898
        k(  977) = (  -0.0103930   0.7592350   0.0000000), wk =   0.0011898
        k(  978) = (  -0.0103930   0.7612350   0.0000000), wk =   0.0011898
        k(  979) = (  -0.0103930   0.7632350   0.0000000), wk =   0.0011898
        k(  980) = (  -0.0103930   0.7652350   0.0000000), wk =   0.0011898
        k(  981) = (  -0.0103930   0.7672350   0.0000000), wk =   0.0011898
        k(  982) = (  -0.0103930   0.7692350   0.0000000), wk =   0.0011898
        k(  983) = (  -0.0103930   0.7712350   0.0000000), wk =   0.0011898
        k(  984) = (  -0.0103930   0.7732350   0.0000000), wk =   0.0011898
        k(  985) = (  -0.0083930   0.6932350   0.0000000), wk =   0.0011898
        k(  986) = (  -0.0083930   0.6952350   0.0000000), wk =   0.0011898
        k(  987) = (  -0.0083930   0.6972350   0.0000000), wk =   0.0011898
        k(  988) = (  -0.0083930   0.6992350   0.0000000), wk =   0.0011898
        k(  989) = (  -0.0083930   0.7012350   0.0000000), wk =   0.0011898
        k(  990) = (  -0.0083930   0.7032350   0.0000000), wk =   0.0011898
        k(  991) = (  -0.0083930   0.7052350   0.0000000), wk =   0.0011898
        k(  992) = (  -0.0083930   0.7072350   0.0000000), wk =   0.0011898
        k(  993) = (  -0.0083930   0.7092350   0.0000000), wk =   0.0011898
        k(  994) = (  -0.0083930   0.7112350   0.0000000), wk =   0.0011898
        k(  995) = (  -0.0083930   0.7132350   0.0000000), wk =   0.0011898
        k(  996) = (  -0.0083930   0.7152350   0.0000000), wk =   0.0011898
        k(  997) = (  -0.0083930   0.7172350   0.0000000), wk =   0.0011898
        k(  998) = (  -0.0083930   0.7192350   0.0000000), wk =   0.0011898
        k(  999) = (  -0.0083930   0.7212350   0.0000000), wk =   0.0011898
        k( 1000) = (  -0.0083930   0.7232350   0.0000000), wk =   0.0011898
        k( 1001) = (  -0.0083930   0.7252350   0.0000000), wk =   0.0011898
        k( 1002) = (  -0.0083930   0.7272350   0.0000000), wk =   0.0011898
        k( 1003) = (  -0.0083930   0.7292350   0.0000000), wk =   0.0011898
        k( 1004) = (  -0.0083930   0.7312350   0.0000000), wk =   0.0011898
        k( 1005) = (  -0.0083930   0.7332350   0.0000000), wk =   0.0011898
        k( 1006) = (  -0.0083930   0.7352350   0.0000000), wk =   0.0011898
        k( 1007) = (  -0.0083930   0.7372350   0.0000000), wk =   0.0011898
        k( 1008) = (  -0.0083930   0.7392350   0.0000000), wk =   0.0011898
        k( 1009) = (  -0.0083930   0.7412350   0.0000000), wk =   0.0011898
        k( 1010) = (  -0.0083930   0.7432350   0.0000000), wk =   0.0011898
        k( 1011) = (  -0.0083930   0.7452350   0.0000000), wk =   0.0011898
        k( 1012) = (  -0.0083930   0.7472350   0.0000000), wk =   0.0011898
        k( 1013) = (  -0.0083930   0.7492350   0.0000000), wk =   0.0011898
        k( 1014) = (  -0.0083930   0.7512350   0.0000000), wk =   0.0011898
        k( 1015) = (  -0.0083930   0.7532350   0.0000000), wk =   0.0011898
        k( 1016) = (  -0.0083930   0.7552350   0.0000000), wk =   0.0011898
        k( 1017) = (  -0.0083930   0.7572350   0.0000000), wk =   0.0011898
        k( 1018) = (  -0.0083930   0.7592350   0.0000000), wk =   0.0011898
        k( 1019) = (  -0.0083930   0.7612350   0.0000000), wk =   0.0011898
        k( 1020) = (  -0.0083930   0.7632350   0.0000000), wk =   0.0011898
        k( 1021) = (  -0.0083930   0.7652350   0.0000000), wk =   0.0011898
        k( 1022) = (  -0.0083930   0.7672350   0.0000000), wk =   0.0011898
        k( 1023) = (  -0.0083930   0.7692350   0.0000000), wk =   0.0011898
        k( 1024) = (  -0.0083930   0.7712350   0.0000000), wk =   0.0011898
        k( 1025) = (  -0.0083930   0.7732350   0.0000000), wk =   0.0011898
        k( 1026) = (  -0.0063930   0.6932350   0.0000000), wk =   0.0011898
        k( 1027) = (  -0.0063930   0.6952350   0.0000000), wk =   0.0011898
        k( 1028) = (  -0.0063930   0.6972350   0.0000000), wk =   0.0011898
        k( 1029) = (  -0.0063930   0.6992350   0.0000000), wk =   0.0011898
        k( 1030) = (  -0.0063930   0.7012350   0.0000000), wk =   0.0011898
        k( 1031) = (  -0.0063930   0.7032350   0.0000000), wk =   0.0011898
        k( 1032) = (  -0.0063930   0.7052350   0.0000000), wk =   0.0011898
        k( 1033) = (  -0.0063930   0.7072350   0.0000000), wk =   0.0011898
        k( 1034) = (  -0.0063930   0.7092350   0.0000000), wk =   0.0011898
        k( 1035) = (  -0.0063930   0.7112350   0.0000000), wk =   0.0011898
        k( 1036) = (  -0.0063930   0.7132350   0.0000000), wk =   0.0011898
        k( 1037) = (  -0.0063930   0.7152350   0.0000000), wk =   0.0011898
        k( 1038) = (  -0.0063930   0.7172350   0.0000000), wk =   0.0011898
        k( 1039) = (  -0.0063930   0.7192350   0.0000000), wk =   0.0011898
        k( 1040) = (  -0.0063930   0.7212350   0.0000000), wk =   0.0011898
        k( 1041) = (  -0.0063930   0.7232350   0.0000000), wk =   0.0011898
        k( 1042) = (  -0.0063930   0.7252350   0.0000000), wk =   0.0011898
        k( 1043) = (  -0.0063930   0.7272350   0.0000000), wk =   0.0011898
        k( 1044) = (  -0.0063930   0.7292350   0.0000000), wk =   0.0011898
        k( 1045) = (  -0.0063930   0.7312350   0.0000000), wk =   0.0011898
        k( 1046) = (  -0.0063930   0.7332350   0.0000000), wk =   0.0011898
        k( 1047) = (  -0.0063930   0.7352350   0.0000000), wk =   0.0011898
        k( 1048) = (  -0.0063930   0.7372350   0.0000000), wk =   0.0011898
        k( 1049) = (  -0.0063930   0.7392350   0.0000000), wk =   0.0011898
        k( 1050) = (  -0.0063930   0.7412350   0.0000000), wk =   0.0011898
        k( 1051) = (  -0.0063930   0.7432350   0.0000000), wk =   0.0011898
        k( 1052) = (  -0.0063930   0.7452350   0.0000000), wk =   0.0011898
        k( 1053) = (  -0.0063930   0.7472350   0.0000000), wk =   0.0011898
        k( 1054) = (  -0.0063930   0.7492350   0.0000000), wk =   0.0011898
        k( 1055) = (  -0.0063930   0.7512350   0.0000000), wk =   0.0011898
        k( 1056) = (  -0.0063930   0.7532350   0.0000000), wk =   0.0011898
        k( 1057) = (  -0.0063930   0.7552350   0.0000000), wk =   0.0011898
        k( 1058) = (  -0.0063930   0.7572350   0.0000000), wk =   0.0011898
        k( 1059) = (  -0.0063930   0.7592350   0.0000000), wk =   0.0011898
        k( 1060) = (  -0.0063930   0.7612350   0.0000000), wk =   0.0011898
        k( 1061) = (  -0.0063930   0.7632350   0.0000000), wk =   0.0011898
        k( 1062) = (  -0.0063930   0.7652350   0.0000000), wk =   0.0011898
        k( 1063) = (  -0.0063930   0.7672350   0.0000000), wk =   0.0011898
        k( 1064) = (  -0.0063930   0.7692350   0.0000000), wk =   0.0011898
        k( 1065) = (  -0.0063930   0.7712350   0.0000000), wk =   0.0011898
        k( 1066) = (  -0.0063930   0.7732350   0.0000000), wk =   0.0011898
        k( 1067) = (  -0.0043930   0.6932350   0.0000000), wk =   0.0011898
        k( 1068) = (  -0.0043930   0.6952350   0.0000000), wk =   0.0011898
        k( 1069) = (  -0.0043930   0.6972350   0.0000000), wk =   0.0011898
        k( 1070) = (  -0.0043930   0.6992350   0.0000000), wk =   0.0011898
        k( 1071) = (  -0.0043930   0.7012350   0.0000000), wk =   0.0011898
        k( 1072) = (  -0.0043930   0.7032350   0.0000000), wk =   0.0011898
        k( 1073) = (  -0.0043930   0.7052350   0.0000000), wk =   0.0011898
        k( 1074) = (  -0.0043930   0.7072350   0.0000000), wk =   0.0011898
        k( 1075) = (  -0.0043930   0.7092350   0.0000000), wk =   0.0011898
        k( 1076) = (  -0.0043930   0.7112350   0.0000000), wk =   0.0011898
        k( 1077) = (  -0.0043930   0.7132350   0.0000000), wk =   0.0011898
        k( 1078) = (  -0.0043930   0.7152350   0.0000000), wk =   0.0011898
        k( 1079) = (  -0.0043930   0.7172350   0.0000000), wk =   0.0011898
        k( 1080) = (  -0.0043930   0.7192350   0.0000000), wk =   0.0011898
        k( 1081) = (  -0.0043930   0.7212350   0.0000000), wk =   0.0011898
        k( 1082) = (  -0.0043930   0.7232350   0.0000000), wk =   0.0011898
        k( 1083) = (  -0.0043930   0.7252350   0.0000000), wk =   0.0011898
        k( 1084) = (  -0.0043930   0.7272350   0.0000000), wk =   0.0011898
        k( 1085) = (  -0.0043930   0.7292350   0.0000000), wk =   0.0011898
        k( 1086) = (  -0.0043930   0.7312350   0.0000000), wk =   0.0011898
        k( 1087) = (  -0.0043930   0.7332350   0.0000000), wk =   0.0011898
        k( 1088) = (  -0.0043930   0.7352350   0.0000000), wk =   0.0011898
        k( 1089) = (  -0.0043930   0.7372350   0.0000000), wk =   0.0011898
        k( 1090) = (  -0.0043930   0.7392350   0.0000000), wk =   0.0011898
        k( 1091) = (  -0.0043930   0.7412350   0.0000000), wk =   0.0011898
        k( 1092) = (  -0.0043930   0.7432350   0.0000000), wk =   0.0011898
        k( 1093) = (  -0.0043930   0.7452350   0.0000000), wk =   0.0011898
        k( 1094) = (  -0.0043930   0.7472350   0.0000000), wk =   0.0011898
        k( 1095) = (  -0.0043930   0.7492350   0.0000000), wk =   0.0011898
        k( 1096) = (  -0.0043930   0.7512350   0.0000000), wk =   0.0011898
        k( 1097) = (  -0.0043930   0.7532350   0.0000000), wk =   0.0011898
        k( 1098) = (  -0.0043930   0.7552350   0.0000000), wk =   0.0011898
        k( 1099) = (  -0.0043930   0.7572350   0.0000000), wk =   0.0011898
        k( 1100) = (  -0.0043930   0.7592350   0.0000000), wk =   0.0011898
        k( 1101) = (  -0.0043930   0.7612350   0.0000000), wk =   0.0011898
        k( 1102) = (  -0.0043930   0.7632350   0.0000000), wk =   0.0011898
        k( 1103) = (  -0.0043930   0.7652350   0.0000000), wk =   0.0011898
        k( 1104) = (  -0.0043930   0.7672350   0.0000000), wk =   0.0011898
        k( 1105) = (  -0.0043930   0.7692350   0.0000000), wk =   0.0011898
        k( 1106) = (  -0.0043930   0.7712350   0.0000000), wk =   0.0011898
        k( 1107) = (  -0.0043930   0.7732350   0.0000000), wk =   0.0011898
        k( 1108) = (  -0.0023930   0.6932350   0.0000000), wk =   0.0011898
        k( 1109) = (  -0.0023930   0.6952350   0.0000000), wk =   0.0011898
        k( 1110) = (  -0.0023930   0.6972350   0.0000000), wk =   0.0011898
        k( 1111) = (  -0.0023930   0.6992350   0.0000000), wk =   0.0011898
        k( 1112) = (  -0.0023930   0.7012350   0.0000000), wk =   0.0011898
        k( 1113) = (  -0.0023930   0.7032350   0.0000000), wk =   0.0011898
        k( 1114) = (  -0.0023930   0.7052350   0.0000000), wk =   0.0011898
        k( 1115) = (  -0.0023930   0.7072350   0.0000000), wk =   0.0011898
        k( 1116) = (  -0.0023930   0.7092350   0.0000000), wk =   0.0011898
        k( 1117) = (  -0.0023930   0.7112350   0.0000000), wk =   0.0011898
        k( 1118) = (  -0.0023930   0.7132350   0.0000000), wk =   0.0011898
        k( 1119) = (  -0.0023930   0.7152350   0.0000000), wk =   0.0011898
        k( 1120) = (  -0.0023930   0.7172350   0.0000000), wk =   0.0011898
        k( 1121) = (  -0.0023930   0.7192350   0.0000000), wk =   0.0011898
        k( 1122) = (  -0.0023930   0.7212350   0.0000000), wk =   0.0011898
        k( 1123) = (  -0.0023930   0.7232350   0.0000000), wk =   0.0011898
        k( 1124) = (  -0.0023930   0.7252350   0.0000000), wk =   0.0011898
        k( 1125) = (  -0.0023930   0.7272350   0.0000000), wk =   0.0011898
        k( 1126) = (  -0.0023930   0.7292350   0.0000000), wk =   0.0011898
        k( 1127) = (  -0.0023930   0.7312350   0.0000000), wk =   0.0011898
        k( 1128) = (  -0.0023930   0.7332350   0.0000000), wk =   0.0011898
        k( 1129) = (  -0.0023930   0.7352350   0.0000000), wk =   0.0011898
        k( 1130) = (  -0.0023930   0.7372350   0.0000000), wk =   0.0011898
        k( 1131) = (  -0.0023930   0.7392350   0.0000000), wk =   0.0011898
        k( 1132) = (  -0.0023930   0.7412350   0.0000000), wk =   0.0011898
        k( 1133) = (  -0.0023930   0.7432350   0.0000000), wk =   0.0011898
        k( 1134) = (  -0.0023930   0.7452350   0.0000000), wk =   0.0011898
        k( 1135) = (  -0.0023930   0.7472350   0.0000000), wk =   0.0011898
        k( 1136) = (  -0.0023930   0.7492350   0.0000000), wk =   0.0011898
        k( 1137) = (  -0.0023930   0.7512350   0.0000000), wk =   0.0011898
        k( 1138) = (  -0.0023930   0.7532350   0.0000000), wk =   0.0011898
        k( 1139) = (  -0.0023930   0.7552350   0.0000000), wk =   0.0011898
        k( 1140) = (  -0.0023930   0.7572350   0.0000000), wk =   0.0011898
        k( 1141) = (  -0.0023930   0.7592350   0.0000000), wk =   0.0011898
        k( 1142) = (  -0.0023930   0.7612350   0.0000000), wk =   0.0011898
        k( 1143) = (  -0.0023930   0.7632350   0.0000000), wk =   0.0011898
        k( 1144) = (  -0.0023930   0.7652350   0.0000000), wk =   0.0011898
        k( 1145) = (  -0.0023930   0.7672350   0.0000000), wk =   0.0011898
        k( 1146) = (  -0.0023930   0.7692350   0.0000000), wk =   0.0011898
        k( 1147) = (  -0.0023930   0.7712350   0.0000000), wk =   0.0011898
        k( 1148) = (  -0.0023930   0.7732350   0.0000000), wk =   0.0011898
        k( 1149) = (  -0.0003930   0.6932350   0.0000000), wk =   0.0011898
        k( 1150) = (  -0.0003930   0.6952350   0.0000000), wk =   0.0011898
        k( 1151) = (  -0.0003930   0.6972350   0.0000000), wk =   0.0011898
        k( 1152) = (  -0.0003930   0.6992350   0.0000000), wk =   0.0011898
        k( 1153) = (  -0.0003930   0.7012350   0.0000000), wk =   0.0011898
        k( 1154) = (  -0.0003930   0.7032350   0.0000000), wk =   0.0011898
        k( 1155) = (  -0.0003930   0.7052350   0.0000000), wk =   0.0011898
        k( 1156) = (  -0.0003930   0.7072350   0.0000000), wk =   0.0011898
        k( 1157) = (  -0.0003930   0.7092350   0.0000000), wk =   0.0011898
        k( 1158) = (  -0.0003930   0.7112350   0.0000000), wk =   0.0011898
        k( 1159) = (  -0.0003930   0.7132350   0.0000000), wk =   0.0011898
        k( 1160) = (  -0.0003930   0.7152350   0.0000000), wk =   0.0011898
        k( 1161) = (  -0.0003930   0.7172350   0.0000000), wk =   0.0011898
        k( 1162) = (  -0.0003930   0.7192350   0.0000000), wk =   0.0011898
        k( 1163) = (  -0.0003930   0.7212350   0.0000000), wk =   0.0011898
        k( 1164) = (  -0.0003930   0.7232350   0.0000000), wk =   0.0011898
        k( 1165) = (  -0.0003930   0.7252350   0.0000000), wk =   0.0011898
        k( 1166) = (  -0.0003930   0.7272350   0.0000000), wk =   0.0011898
        k( 1167) = (  -0.0003930   0.7292350   0.0000000), wk =   0.0011898
        k( 1168) = (  -0.0003930   0.7312350   0.0000000), wk =   0.0011898
        k( 1169) = (  -0.0003930   0.7332350   0.0000000), wk =   0.0011898
        k( 1170) = (  -0.0003930   0.7352350   0.0000000), wk =   0.0011898
        k( 1171) = (  -0.0003930   0.7372350   0.0000000), wk =   0.0011898
        k( 1172) = (  -0.0003930   0.7392350   0.0000000), wk =   0.0011898
        k( 1173) = (  -0.0003930   0.7412350   0.0000000), wk =   0.0011898
        k( 1174) = (  -0.0003930   0.7432350   0.0000000), wk =   0.0011898
        k( 1175) = (  -0.0003930   0.7452350   0.0000000), wk =   0.0011898
        k( 1176) = (  -0.0003930   0.7472350   0.0000000), wk =   0.0011898
        k( 1177) = (  -0.0003930   0.7492350   0.0000000), wk =   0.0011898
        k( 1178) = (  -0.0003930   0.7512350   0.0000000), wk =   0.0011898
        k( 1179) = (  -0.0003930   0.7532350   0.0000000), wk =   0.0011898
        k( 1180) = (  -0.0003930   0.7552350   0.0000000), wk =   0.0011898
        k( 1181) = (  -0.0003930   0.7572350   0.0000000), wk =   0.0011898
        k( 1182) = (  -0.0003930   0.7592350   0.0000000), wk =   0.0011898
        k( 1183) = (  -0.0003930   0.7612350   0.0000000), wk =   0.0011898
        k( 1184) = (  -0.0003930   0.7632350   0.0000000), wk =   0.0011898
        k( 1185) = (  -0.0003930   0.7652350   0.0000000), wk =   0.0011898
        k( 1186) = (  -0.0003930   0.7672350   0.0000000), wk =   0.0011898
        k( 1187) = (  -0.0003930   0.7692350   0.0000000), wk =   0.0011898
        k( 1188) = (  -0.0003930   0.7712350   0.0000000), wk =   0.0011898
        k( 1189) = (  -0.0003930   0.7732350   0.0000000), wk =   0.0011898
        k( 1190) = (   0.0016070   0.6932350   0.0000000), wk =   0.0011898
        k( 1191) = (   0.0016070   0.6952350   0.0000000), wk =   0.0011898
        k( 1192) = (   0.0016070   0.6972350   0.0000000), wk =   0.0011898
        k( 1193) = (   0.0016070   0.6992350   0.0000000), wk =   0.0011898
        k( 1194) = (   0.0016070   0.7012350   0.0000000), wk =   0.0011898
        k( 1195) = (   0.0016070   0.7032350   0.0000000), wk =   0.0011898
        k( 1196) = (   0.0016070   0.7052350   0.0000000), wk =   0.0011898
        k( 1197) = (   0.0016070   0.7072350   0.0000000), wk =   0.0011898
        k( 1198) = (   0.0016070   0.7092350   0.0000000), wk =   0.0011898
        k( 1199) = (   0.0016070   0.7112350   0.0000000), wk =   0.0011898
        k( 1200) = (   0.0016070   0.7132350   0.0000000), wk =   0.0011898
        k( 1201) = (   0.0016070   0.7152350   0.0000000), wk =   0.0011898
        k( 1202) = (   0.0016070   0.7172350   0.0000000), wk =   0.0011898
        k( 1203) = (   0.0016070   0.7192350   0.0000000), wk =   0.0011898
        k( 1204) = (   0.0016070   0.7212350   0.0000000), wk =   0.0011898
        k( 1205) = (   0.0016070   0.7232350   0.0000000), wk =   0.0011898
        k( 1206) = (   0.0016070   0.7252350   0.0000000), wk =   0.0011898
        k( 1207) = (   0.0016070   0.7272350   0.0000000), wk =   0.0011898
        k( 1208) = (   0.0016070   0.7292350   0.0000000), wk =   0.0011898
        k( 1209) = (   0.0016070   0.7312350   0.0000000), wk =   0.0011898
        k( 1210) = (   0.0016070   0.7332350   0.0000000), wk =   0.0011898
        k( 1211) = (   0.0016070   0.7352350   0.0000000), wk =   0.0011898
        k( 1212) = (   0.0016070   0.7372350   0.0000000), wk =   0.0011898
        k( 1213) = (   0.0016070   0.7392350   0.0000000), wk =   0.0011898
        k( 1214) = (   0.0016070   0.7412350   0.0000000), wk =   0.0011898
        k( 1215) = (   0.0016070   0.7432350   0.0000000), wk =   0.0011898
        k( 1216) = (   0.0016070   0.7452350   0.0000000), wk =   0.0011898
        k( 1217) = (   0.0016070   0.7472350   0.0000000), wk =   0.0011898
        k( 1218) = (   0.0016070   0.7492350   0.0000000), wk =   0.0011898
        k( 1219) = (   0.0016070   0.7512350   0.0000000), wk =   0.0011898
        k( 1220) = (   0.0016070   0.7532350   0.0000000), wk =   0.0011898
        k( 1221) = (   0.0016070   0.7552350   0.0000000), wk =   0.0011898
        k( 1222) = (   0.0016070   0.7572350   0.0000000), wk =   0.0011898
        k( 1223) = (   0.0016070   0.7592350   0.0000000), wk =   0.0011898
        k( 1224) = (   0.0016070   0.7612350   0.0000000), wk =   0.0011898
        k( 1225) = (   0.0016070   0.7632350   0.0000000), wk =   0.0011898
        k( 1226) = (   0.0016070   0.7652350   0.0000000), wk =   0.0011898
        k( 1227) = (   0.0016070   0.7672350   0.0000000), wk =   0.0011898
        k( 1228) = (   0.0016070   0.7692350   0.0000000), wk =   0.0011898
        k( 1229) = (   0.0016070   0.7712350   0.0000000), wk =   0.0011898
        k( 1230) = (   0.0016070   0.7732350   0.0000000), wk =   0.0011898
        k( 1231) = (   0.0036070   0.6932350   0.0000000), wk =   0.0011898
        k( 1232) = (   0.0036070   0.6952350   0.0000000), wk =   0.0011898
        k( 1233) = (   0.0036070   0.6972350   0.0000000), wk =   0.0011898
        k( 1234) = (   0.0036070   0.6992350   0.0000000), wk =   0.0011898
        k( 1235) = (   0.0036070   0.7012350   0.0000000), wk =   0.0011898
        k( 1236) = (   0.0036070   0.7032350   0.0000000), wk =   0.0011898
        k( 1237) = (   0.0036070   0.7052350   0.0000000), wk =   0.0011898
        k( 1238) = (   0.0036070   0.7072350   0.0000000), wk =   0.0011898
        k( 1239) = (   0.0036070   0.7092350   0.0000000), wk =   0.0011898
        k( 1240) = (   0.0036070   0.7112350   0.0000000), wk =   0.0011898
        k( 1241) = (   0.0036070   0.7132350   0.0000000), wk =   0.0011898
        k( 1242) = (   0.0036070   0.7152350   0.0000000), wk =   0.0011898
        k( 1243) = (   0.0036070   0.7172350   0.0000000), wk =   0.0011898
        k( 1244) = (   0.0036070   0.7192350   0.0000000), wk =   0.0011898
        k( 1245) = (   0.0036070   0.7212350   0.0000000), wk =   0.0011898
        k( 1246) = (   0.0036070   0.7232350   0.0000000), wk =   0.0011898
        k( 1247) = (   0.0036070   0.7252350   0.0000000), wk =   0.0011898
        k( 1248) = (   0.0036070   0.7272350   0.0000000), wk =   0.0011898
        k( 1249) = (   0.0036070   0.7292350   0.0000000), wk =   0.0011898
        k( 1250) = (   0.0036070   0.7312350   0.0000000), wk =   0.0011898
        k( 1251) = (   0.0036070   0.7332350   0.0000000), wk =   0.0011898
        k( 1252) = (   0.0036070   0.7352350   0.0000000), wk =   0.0011898
        k( 1253) = (   0.0036070   0.7372350   0.0000000), wk =   0.0011898
        k( 1254) = (   0.0036070   0.7392350   0.0000000), wk =   0.0011898
        k( 1255) = (   0.0036070   0.7412350   0.0000000), wk =   0.0011898
        k( 1256) = (   0.0036070   0.7432350   0.0000000), wk =   0.0011898
        k( 1257) = (   0.0036070   0.7452350   0.0000000), wk =   0.0011898
        k( 1258) = (   0.0036070   0.7472350   0.0000000), wk =   0.0011898
        k( 1259) = (   0.0036070   0.7492350   0.0000000), wk =   0.0011898
        k( 1260) = (   0.0036070   0.7512350   0.0000000), wk =   0.0011898
        k( 1261) = (   0.0036070   0.7532350   0.0000000), wk =   0.0011898
        k( 1262) = (   0.0036070   0.7552350   0.0000000), wk =   0.0011898
        k( 1263) = (   0.0036070   0.7572350   0.0000000), wk =   0.0011898
        k( 1264) = (   0.0036070   0.7592350   0.0000000), wk =   0.0011898
        k( 1265) = (   0.0036070   0.7612350   0.0000000), wk =   0.0011898
        k( 1266) = (   0.0036070   0.7632350   0.0000000), wk =   0.0011898
        k( 1267) = (   0.0036070   0.7652350   0.0000000), wk =   0.0011898
        k( 1268) = (   0.0036070   0.7672350   0.0000000), wk =   0.0011898
        k( 1269) = (   0.0036070   0.7692350   0.0000000), wk =   0.0011898
        k( 1270) = (   0.0036070   0.7712350   0.0000000), wk =   0.0011898
        k( 1271) = (   0.0036070   0.7732350   0.0000000), wk =   0.0011898
        k( 1272) = (   0.0056070   0.6932350   0.0000000), wk =   0.0011898
        k( 1273) = (   0.0056070   0.6952350   0.0000000), wk =   0.0011898
        k( 1274) = (   0.0056070   0.6972350   0.0000000), wk =   0.0011898
        k( 1275) = (   0.0056070   0.6992350   0.0000000), wk =   0.0011898
        k( 1276) = (   0.0056070   0.7012350   0.0000000), wk =   0.0011898
        k( 1277) = (   0.0056070   0.7032350   0.0000000), wk =   0.0011898
        k( 1278) = (   0.0056070   0.7052350   0.0000000), wk =   0.0011898
        k( 1279) = (   0.0056070   0.7072350   0.0000000), wk =   0.0011898
        k( 1280) = (   0.0056070   0.7092350   0.0000000), wk =   0.0011898
        k( 1281) = (   0.0056070   0.7112350   0.0000000), wk =   0.0011898
        k( 1282) = (   0.0056070   0.7132350   0.0000000), wk =   0.0011898
        k( 1283) = (   0.0056070   0.7152350   0.0000000), wk =   0.0011898
        k( 1284) = (   0.0056070   0.7172350   0.0000000), wk =   0.0011898
        k( 1285) = (   0.0056070   0.7192350   0.0000000), wk =   0.0011898
        k( 1286) = (   0.0056070   0.7212350   0.0000000), wk =   0.0011898
        k( 1287) = (   0.0056070   0.7232350   0.0000000), wk =   0.0011898
        k( 1288) = (   0.0056070   0.7252350   0.0000000), wk =   0.0011898
        k( 1289) = (   0.0056070   0.7272350   0.0000000), wk =   0.0011898
        k( 1290) = (   0.0056070   0.7292350   0.0000000), wk =   0.0011898
        k( 1291) = (   0.0056070   0.7312350   0.0000000), wk =   0.0011898
        k( 1292) = (   0.0056070   0.7332350   0.0000000), wk =   0.0011898
        k( 1293) = (   0.0056070   0.7352350   0.0000000), wk =   0.0011898
        k( 1294) = (   0.0056070   0.7372350   0.0000000), wk =   0.0011898
        k( 1295) = (   0.0056070   0.7392350   0.0000000), wk =   0.0011898
        k( 1296) = (   0.0056070   0.7412350   0.0000000), wk =   0.0011898
        k( 1297) = (   0.0056070   0.7432350   0.0000000), wk =   0.0011898
        k( 1298) = (   0.0056070   0.7452350   0.0000000), wk =   0.0011898
        k( 1299) = (   0.0056070   0.7472350   0.0000000), wk =   0.0011898
        k( 1300) = (   0.0056070   0.7492350   0.0000000), wk =   0.0011898
        k( 1301) = (   0.0056070   0.7512350   0.0000000), wk =   0.0011898
        k( 1302) = (   0.0056070   0.7532350   0.0000000), wk =   0.0011898
        k( 1303) = (   0.0056070   0.7552350   0.0000000), wk =   0.0011898
        k( 1304) = (   0.0056070   0.7572350   0.0000000), wk =   0.0011898
        k( 1305) = (   0.0056070   0.7592350   0.0000000), wk =   0.0011898
        k( 1306) = (   0.0056070   0.7612350   0.0000000), wk =   0.0011898
        k( 1307) = (   0.0056070   0.7632350   0.0000000), wk =   0.0011898
        k( 1308) = (   0.0056070   0.7652350   0.0000000), wk =   0.0011898
        k( 1309) = (   0.0056070   0.7672350   0.0000000), wk =   0.0011898
        k( 1310) = (   0.0056070   0.7692350   0.0000000), wk =   0.0011898
        k( 1311) = (   0.0056070   0.7712350   0.0000000), wk =   0.0011898
        k( 1312) = (   0.0056070   0.7732350   0.0000000), wk =   0.0011898
        k( 1313) = (   0.0076070   0.6932350   0.0000000), wk =   0.0011898
        k( 1314) = (   0.0076070   0.6952350   0.0000000), wk =   0.0011898
        k( 1315) = (   0.0076070   0.6972350   0.0000000), wk =   0.0011898
        k( 1316) = (   0.0076070   0.6992350   0.0000000), wk =   0.0011898
        k( 1317) = (   0.0076070   0.7012350   0.0000000), wk =   0.0011898
        k( 1318) = (   0.0076070   0.7032350   0.0000000), wk =   0.0011898
        k( 1319) = (   0.0076070   0.7052350   0.0000000), wk =   0.0011898
        k( 1320) = (   0.0076070   0.7072350   0.0000000), wk =   0.0011898
        k( 1321) = (   0.0076070   0.7092350   0.0000000), wk =   0.0011898
        k( 1322) = (   0.0076070   0.7112350   0.0000000), wk =   0.0011898
        k( 1323) = (   0.0076070   0.7132350   0.0000000), wk =   0.0011898
        k( 1324) = (   0.0076070   0.7152350   0.0000000), wk =   0.0011898
        k( 1325) = (   0.0076070   0.7172350   0.0000000), wk =   0.0011898
        k( 1326) = (   0.0076070   0.7192350   0.0000000), wk =   0.0011898
        k( 1327) = (   0.0076070   0.7212350   0.0000000), wk =   0.0011898
        k( 1328) = (   0.0076070   0.7232350   0.0000000), wk =   0.0011898
        k( 1329) = (   0.0076070   0.7252350   0.0000000), wk =   0.0011898
        k( 1330) = (   0.0076070   0.7272350   0.0000000), wk =   0.0011898
        k( 1331) = (   0.0076070   0.7292350   0.0000000), wk =   0.0011898
        k( 1332) = (   0.0076070   0.7312350   0.0000000), wk =   0.0011898
        k( 1333) = (   0.0076070   0.7332350   0.0000000), wk =   0.0011898
        k( 1334) = (   0.0076070   0.7352350   0.0000000), wk =   0.0011898
        k( 1335) = (   0.0076070   0.7372350   0.0000000), wk =   0.0011898
        k( 1336) = (   0.0076070   0.7392350   0.0000000), wk =   0.0011898
        k( 1337) = (   0.0076070   0.7412350   0.0000000), wk =   0.0011898
        k( 1338) = (   0.0076070   0.7432350   0.0000000), wk =   0.0011898
        k( 1339) = (   0.0076070   0.7452350   0.0000000), wk =   0.0011898
        k( 1340) = (   0.0076070   0.7472350   0.0000000), wk =   0.0011898
        k( 1341) = (   0.0076070   0.7492350   0.0000000), wk =   0.0011898
        k( 1342) = (   0.0076070   0.7512350   0.0000000), wk =   0.0011898
        k( 1343) = (   0.0076070   0.7532350   0.0000000), wk =   0.0011898
        k( 1344) = (   0.0076070   0.7552350   0.0000000), wk =   0.0011898
        k( 1345) = (   0.0076070   0.7572350   0.0000000), wk =   0.0011898
        k( 1346) = (   0.0076070   0.7592350   0.0000000), wk =   0.0011898
        k( 1347) = (   0.0076070   0.7612350   0.0000000), wk =   0.0011898
        k( 1348) = (   0.0076070   0.7632350   0.0000000), wk =   0.0011898
        k( 1349) = (   0.0076070   0.7652350   0.0000000), wk =   0.0011898
        k( 1350) = (   0.0076070   0.7672350   0.0000000), wk =   0.0011898
        k( 1351) = (   0.0076070   0.7692350   0.0000000), wk =   0.0011898
        k( 1352) = (   0.0076070   0.7712350   0.0000000), wk =   0.0011898
        k( 1353) = (   0.0076070   0.7732350   0.0000000), wk =   0.0011898
        k( 1354) = (   0.0096070   0.6932350   0.0000000), wk =   0.0011898
        k( 1355) = (   0.0096070   0.6952350   0.0000000), wk =   0.0011898
        k( 1356) = (   0.0096070   0.6972350   0.0000000), wk =   0.0011898
        k( 1357) = (   0.0096070   0.6992350   0.0000000), wk =   0.0011898
        k( 1358) = (   0.0096070   0.7012350   0.0000000), wk =   0.0011898
        k( 1359) = (   0.0096070   0.7032350   0.0000000), wk =   0.0011898
        k( 1360) = (   0.0096070   0.7052350   0.0000000), wk =   0.0011898
        k( 1361) = (   0.0096070   0.7072350   0.0000000), wk =   0.0011898
        k( 1362) = (   0.0096070   0.7092350   0.0000000), wk =   0.0011898
        k( 1363) = (   0.0096070   0.7112350   0.0000000), wk =   0.0011898
        k( 1364) = (   0.0096070   0.7132350   0.0000000), wk =   0.0011898
        k( 1365) = (   0.0096070   0.7152350   0.0000000), wk =   0.0011898
        k( 1366) = (   0.0096070   0.7172350   0.0000000), wk =   0.0011898
        k( 1367) = (   0.0096070   0.7192350   0.0000000), wk =   0.0011898
        k( 1368) = (   0.0096070   0.7212350   0.0000000), wk =   0.0011898
        k( 1369) = (   0.0096070   0.7232350   0.0000000), wk =   0.0011898
        k( 1370) = (   0.0096070   0.7252350   0.0000000), wk =   0.0011898
        k( 1371) = (   0.0096070   0.7272350   0.0000000), wk =   0.0011898
        k( 1372) = (   0.0096070   0.7292350   0.0000000), wk =   0.0011898
        k( 1373) = (   0.0096070   0.7312350   0.0000000), wk =   0.0011898
        k( 1374) = (   0.0096070   0.7332350   0.0000000), wk =   0.0011898
        k( 1375) = (   0.0096070   0.7352350   0.0000000), wk =   0.0011898
        k( 1376) = (   0.0096070   0.7372350   0.0000000), wk =   0.0011898
        k( 1377) = (   0.0096070   0.7392350   0.0000000), wk =   0.0011898
        k( 1378) = (   0.0096070   0.7412350   0.0000000), wk =   0.0011898
        k( 1379) = (   0.0096070   0.7432350   0.0000000), wk =   0.0011898
        k( 1380) = (   0.0096070   0.7452350   0.0000000), wk =   0.0011898
        k( 1381) = (   0.0096070   0.7472350   0.0000000), wk =   0.0011898
        k( 1382) = (   0.0096070   0.7492350   0.0000000), wk =   0.0011898
        k( 1383) = (   0.0096070   0.7512350   0.0000000), wk =   0.0011898
        k( 1384) = (   0.0096070   0.7532350   0.0000000), wk =   0.0011898
        k( 1385) = (   0.0096070   0.7552350   0.0000000), wk =   0.0011898
        k( 1386) = (   0.0096070   0.7572350   0.0000000), wk =   0.0011898
        k( 1387) = (   0.0096070   0.7592350   0.0000000), wk =   0.0011898
        k( 1388) = (   0.0096070   0.7612350   0.0000000), wk =   0.0011898
        k( 1389) = (   0.0096070   0.7632350   0.0000000), wk =   0.0011898
        k( 1390) = (   0.0096070   0.7652350   0.0000000), wk =   0.0011898
        k( 1391) = (   0.0096070   0.7672350   0.0000000), wk =   0.0011898
        k( 1392) = (   0.0096070   0.7692350   0.0000000), wk =   0.0011898
        k( 1393) = (   0.0096070   0.7712350   0.0000000), wk =   0.0011898
        k( 1394) = (   0.0096070   0.7732350   0.0000000), wk =   0.0011898
        k( 1395) = (   0.0116070   0.6932350   0.0000000), wk =   0.0011898
        k( 1396) = (   0.0116070   0.6952350   0.0000000), wk =   0.0011898
        k( 1397) = (   0.0116070   0.6972350   0.0000000), wk =   0.0011898
        k( 1398) = (   0.0116070   0.6992350   0.0000000), wk =   0.0011898
        k( 1399) = (   0.0116070   0.7012350   0.0000000), wk =   0.0011898
        k( 1400) = (   0.0116070   0.7032350   0.0000000), wk =   0.0011898
        k( 1401) = (   0.0116070   0.7052350   0.0000000), wk =   0.0011898
        k( 1402) = (   0.0116070   0.7072350   0.0000000), wk =   0.0011898
        k( 1403) = (   0.0116070   0.7092350   0.0000000), wk =   0.0011898
        k( 1404) = (   0.0116070   0.7112350   0.0000000), wk =   0.0011898
        k( 1405) = (   0.0116070   0.7132350   0.0000000), wk =   0.0011898
        k( 1406) = (   0.0116070   0.7152350   0.0000000), wk =   0.0011898
        k( 1407) = (   0.0116070   0.7172350   0.0000000), wk =   0.0011898
        k( 1408) = (   0.0116070   0.7192350   0.0000000), wk =   0.0011898
        k( 1409) = (   0.0116070   0.7212350   0.0000000), wk =   0.0011898
        k( 1410) = (   0.0116070   0.7232350   0.0000000), wk =   0.0011898
        k( 1411) = (   0.0116070   0.7252350   0.0000000), wk =   0.0011898
        k( 1412) = (   0.0116070   0.7272350   0.0000000), wk =   0.0011898
        k( 1413) = (   0.0116070   0.7292350   0.0000000), wk =   0.0011898
        k( 1414) = (   0.0116070   0.7312350   0.0000000), wk =   0.0011898
        k( 1415) = (   0.0116070   0.7332350   0.0000000), wk =   0.0011898
        k( 1416) = (   0.0116070   0.7352350   0.0000000), wk =   0.0011898
        k( 1417) = (   0.0116070   0.7372350   0.0000000), wk =   0.0011898
        k( 1418) = (   0.0116070   0.7392350   0.0000000), wk =   0.0011898
        k( 1419) = (   0.0116070   0.7412350   0.0000000), wk =   0.0011898
        k( 1420) = (   0.0116070   0.7432350   0.0000000), wk =   0.0011898
        k( 1421) = (   0.0116070   0.7452350   0.0000000), wk =   0.0011898
        k( 1422) = (   0.0116070   0.7472350   0.0000000), wk =   0.0011898
        k( 1423) = (   0.0116070   0.7492350   0.0000000), wk =   0.0011898
        k( 1424) = (   0.0116070   0.7512350   0.0000000), wk =   0.0011898
        k( 1425) = (   0.0116070   0.7532350   0.0000000), wk =   0.0011898
        k( 1426) = (   0.0116070   0.7552350   0.0000000), wk =   0.0011898
        k( 1427) = (   0.0116070   0.7572350   0.0000000), wk =   0.0011898
        k( 1428) = (   0.0116070   0.7592350   0.0000000), wk =   0.0011898
        k( 1429) = (   0.0116070   0.7612350   0.0000000), wk =   0.0011898
        k( 1430) = (   0.0116070   0.7632350   0.0000000), wk =   0.0011898
        k( 1431) = (   0.0116070   0.7652350   0.0000000), wk =   0.0011898
        k( 1432) = (   0.0116070   0.7672350   0.0000000), wk =   0.0011898
        k( 1433) = (   0.0116070   0.7692350   0.0000000), wk =   0.0011898
        k( 1434) = (   0.0116070   0.7712350   0.0000000), wk =   0.0011898
        k( 1435) = (   0.0116070   0.7732350   0.0000000), wk =   0.0011898
        k( 1436) = (   0.0136070   0.6932350   0.0000000), wk =   0.0011898
        k( 1437) = (   0.0136070   0.6952350   0.0000000), wk =   0.0011898
        k( 1438) = (   0.0136070   0.6972350   0.0000000), wk =   0.0011898
        k( 1439) = (   0.0136070   0.6992350   0.0000000), wk =   0.0011898
        k( 1440) = (   0.0136070   0.7012350   0.0000000), wk =   0.0011898
        k( 1441) = (   0.0136070   0.7032350   0.0000000), wk =   0.0011898
        k( 1442) = (   0.0136070   0.7052350   0.0000000), wk =   0.0011898
        k( 1443) = (   0.0136070   0.7072350   0.0000000), wk =   0.0011898
        k( 1444) = (   0.0136070   0.7092350   0.0000000), wk =   0.0011898
        k( 1445) = (   0.0136070   0.7112350   0.0000000), wk =   0.0011898
        k( 1446) = (   0.0136070   0.7132350   0.0000000), wk =   0.0011898
        k( 1447) = (   0.0136070   0.7152350   0.0000000), wk =   0.0011898
        k( 1448) = (   0.0136070   0.7172350   0.0000000), wk =   0.0011898
        k( 1449) = (   0.0136070   0.7192350   0.0000000), wk =   0.0011898
        k( 1450) = (   0.0136070   0.7212350   0.0000000), wk =   0.0011898
        k( 1451) = (   0.0136070   0.7232350   0.0000000), wk =   0.0011898
        k( 1452) = (   0.0136070   0.7252350   0.0000000), wk =   0.0011898
        k( 1453) = (   0.0136070   0.7272350   0.0000000), wk =   0.0011898
        k( 1454) = (   0.0136070   0.7292350   0.0000000), wk =   0.0011898
        k( 1455) = (   0.0136070   0.7312350   0.0000000), wk =   0.0011898
        k( 1456) = (   0.0136070   0.7332350   0.0000000), wk =   0.0011898
        k( 1457) = (   0.0136070   0.7352350   0.0000000), wk =   0.0011898
        k( 1458) = (   0.0136070   0.7372350   0.0000000), wk =   0.0011898
        k( 1459) = (   0.0136070   0.7392350   0.0000000), wk =   0.0011898
        k( 1460) = (   0.0136070   0.7412350   0.0000000), wk =   0.0011898
        k( 1461) = (   0.0136070   0.7432350   0.0000000), wk =   0.0011898
        k( 1462) = (   0.0136070   0.7452350   0.0000000), wk =   0.0011898
        k( 1463) = (   0.0136070   0.7472350   0.0000000), wk =   0.0011898
        k( 1464) = (   0.0136070   0.7492350   0.0000000), wk =   0.0011898
        k( 1465) = (   0.0136070   0.7512350   0.0000000), wk =   0.0011898
        k( 1466) = (   0.0136070   0.7532350   0.0000000), wk =   0.0011898
        k( 1467) = (   0.0136070   0.7552350   0.0000000), wk =   0.0011898
        k( 1468) = (   0.0136070   0.7572350   0.0000000), wk =   0.0011898
        k( 1469) = (   0.0136070   0.7592350   0.0000000), wk =   0.0011898
        k( 1470) = (   0.0136070   0.7612350   0.0000000), wk =   0.0011898
        k( 1471) = (   0.0136070   0.7632350   0.0000000), wk =   0.0011898
        k( 1472) = (   0.0136070   0.7652350   0.0000000), wk =   0.0011898
        k( 1473) = (   0.0136070   0.7672350   0.0000000), wk =   0.0011898
        k( 1474) = (   0.0136070   0.7692350   0.0000000), wk =   0.0011898
        k( 1475) = (   0.0136070   0.7712350   0.0000000), wk =   0.0011898
        k( 1476) = (   0.0136070   0.7732350   0.0000000), wk =   0.0011898
        k( 1477) = (   0.0156070   0.6932350   0.0000000), wk =   0.0011898
        k( 1478) = (   0.0156070   0.6952350   0.0000000), wk =   0.0011898
        k( 1479) = (   0.0156070   0.6972350   0.0000000), wk =   0.0011898
        k( 1480) = (   0.0156070   0.6992350   0.0000000), wk =   0.0011898
        k( 1481) = (   0.0156070   0.7012350   0.0000000), wk =   0.0011898
        k( 1482) = (   0.0156070   0.7032350   0.0000000), wk =   0.0011898
        k( 1483) = (   0.0156070   0.7052350   0.0000000), wk =   0.0011898
        k( 1484) = (   0.0156070   0.7072350   0.0000000), wk =   0.0011898
        k( 1485) = (   0.0156070   0.7092350   0.0000000), wk =   0.0011898
        k( 1486) = (   0.0156070   0.7112350   0.0000000), wk =   0.0011898
        k( 1487) = (   0.0156070   0.7132350   0.0000000), wk =   0.0011898
        k( 1488) = (   0.0156070   0.7152350   0.0000000), wk =   0.0011898
        k( 1489) = (   0.0156070   0.7172350   0.0000000), wk =   0.0011898
        k( 1490) = (   0.0156070   0.7192350   0.0000000), wk =   0.0011898
        k( 1491) = (   0.0156070   0.7212350   0.0000000), wk =   0.0011898
        k( 1492) = (   0.0156070   0.7232350   0.0000000), wk =   0.0011898
        k( 1493) = (   0.0156070   0.7252350   0.0000000), wk =   0.0011898
        k( 1494) = (   0.0156070   0.7272350   0.0000000), wk =   0.0011898
        k( 1495) = (   0.0156070   0.7292350   0.0000000), wk =   0.0011898
        k( 1496) = (   0.0156070   0.7312350   0.0000000), wk =   0.0011898
        k( 1497) = (   0.0156070   0.7332350   0.0000000), wk =   0.0011898
        k( 1498) = (   0.0156070   0.7352350   0.0000000), wk =   0.0011898
        k( 1499) = (   0.0156070   0.7372350   0.0000000), wk =   0.0011898
        k( 1500) = (   0.0156070   0.7392350   0.0000000), wk =   0.0011898
        k( 1501) = (   0.0156070   0.7412350   0.0000000), wk =   0.0011898
        k( 1502) = (   0.0156070   0.7432350   0.0000000), wk =   0.0011898
        k( 1503) = (   0.0156070   0.7452350   0.0000000), wk =   0.0011898
        k( 1504) = (   0.0156070   0.7472350   0.0000000), wk =   0.0011898
        k( 1505) = (   0.0156070   0.7492350   0.0000000), wk =   0.0011898
        k( 1506) = (   0.0156070   0.7512350   0.0000000), wk =   0.0011898
        k( 1507) = (   0.0156070   0.7532350   0.0000000), wk =   0.0011898
        k( 1508) = (   0.0156070   0.7552350   0.0000000), wk =   0.0011898
        k( 1509) = (   0.0156070   0.7572350   0.0000000), wk =   0.0011898
        k( 1510) = (   0.0156070   0.7592350   0.0000000), wk =   0.0011898
        k( 1511) = (   0.0156070   0.7612350   0.0000000), wk =   0.0011898
        k( 1512) = (   0.0156070   0.7632350   0.0000000), wk =   0.0011898
        k( 1513) = (   0.0156070   0.7652350   0.0000000), wk =   0.0011898
        k( 1514) = (   0.0156070   0.7672350   0.0000000), wk =   0.0011898
        k( 1515) = (   0.0156070   0.7692350   0.0000000), wk =   0.0011898
        k( 1516) = (   0.0156070   0.7712350   0.0000000), wk =   0.0011898
        k( 1517) = (   0.0156070   0.7732350   0.0000000), wk =   0.0011898
        k( 1518) = (   0.0176070   0.6932350   0.0000000), wk =   0.0011898
        k( 1519) = (   0.0176070   0.6952350   0.0000000), wk =   0.0011898
        k( 1520) = (   0.0176070   0.6972350   0.0000000), wk =   0.0011898
        k( 1521) = (   0.0176070   0.6992350   0.0000000), wk =   0.0011898
        k( 1522) = (   0.0176070   0.7012350   0.0000000), wk =   0.0011898
        k( 1523) = (   0.0176070   0.7032350   0.0000000), wk =   0.0011898
        k( 1524) = (   0.0176070   0.7052350   0.0000000), wk =   0.0011898
        k( 1525) = (   0.0176070   0.7072350   0.0000000), wk =   0.0011898
        k( 1526) = (   0.0176070   0.7092350   0.0000000), wk =   0.0011898
        k( 1527) = (   0.0176070   0.7112350   0.0000000), wk =   0.0011898
        k( 1528) = (   0.0176070   0.7132350   0.0000000), wk =   0.0011898
        k( 1529) = (   0.0176070   0.7152350   0.0000000), wk =   0.0011898
        k( 1530) = (   0.0176070   0.7172350   0.0000000), wk =   0.0011898
        k( 1531) = (   0.0176070   0.7192350   0.0000000), wk =   0.0011898
        k( 1532) = (   0.0176070   0.7212350   0.0000000), wk =   0.0011898
        k( 1533) = (   0.0176070   0.7232350   0.0000000), wk =   0.0011898
        k( 1534) = (   0.0176070   0.7252350   0.0000000), wk =   0.0011898
        k( 1535) = (   0.0176070   0.7272350   0.0000000), wk =   0.0011898
        k( 1536) = (   0.0176070   0.7292350   0.0000000), wk =   0.0011898
        k( 1537) = (   0.0176070   0.7312350   0.0000000), wk =   0.0011898
        k( 1538) = (   0.0176070   0.7332350   0.0000000), wk =   0.0011898
        k( 1539) = (   0.0176070   0.7352350   0.0000000), wk =   0.0011898
        k( 1540) = (   0.0176070   0.7372350   0.0000000), wk =   0.0011898
        k( 1541) = (   0.0176070   0.7392350   0.0000000), wk =   0.0011898
        k( 1542) = (   0.0176070   0.7412350   0.0000000), wk =   0.0011898
        k( 1543) = (   0.0176070   0.7432350   0.0000000), wk =   0.0011898
        k( 1544) = (   0.0176070   0.7452350   0.0000000), wk =   0.0011898
        k( 1545) = (   0.0176070   0.7472350   0.0000000), wk =   0.0011898
        k( 1546) = (   0.0176070   0.7492350   0.0000000), wk =   0.0011898
        k( 1547) = (   0.0176070   0.7512350   0.0000000), wk =   0.0011898
        k( 1548) = (   0.0176070   0.7532350   0.0000000), wk =   0.0011898
        k( 1549) = (   0.0176070   0.7552350   0.0000000), wk =   0.0011898
        k( 1550) = (   0.0176070   0.7572350   0.0000000), wk =   0.0011898
        k( 1551) = (   0.0176070   0.7592350   0.0000000), wk =   0.0011898
        k( 1552) = (   0.0176070   0.7612350   0.0000000), wk =   0.0011898
        k( 1553) = (   0.0176070   0.7632350   0.0000000), wk =   0.0011898
        k( 1554) = (   0.0176070   0.7652350   0.0000000), wk =   0.0011898
        k( 1555) = (   0.0176070   0.7672350   0.0000000), wk =   0.0011898
        k( 1556) = (   0.0176070   0.7692350   0.0000000), wk =   0.0011898
        k( 1557) = (   0.0176070   0.7712350   0.0000000), wk =   0.0011898
        k( 1558) = (   0.0176070   0.7732350   0.0000000), wk =   0.0011898
        k( 1559) = (   0.0196070   0.6932350   0.0000000), wk =   0.0011898
        k( 1560) = (   0.0196070   0.6952350   0.0000000), wk =   0.0011898
        k( 1561) = (   0.0196070   0.6972350   0.0000000), wk =   0.0011898
        k( 1562) = (   0.0196070   0.6992350   0.0000000), wk =   0.0011898
        k( 1563) = (   0.0196070   0.7012350   0.0000000), wk =   0.0011898
        k( 1564) = (   0.0196070   0.7032350   0.0000000), wk =   0.0011898
        k( 1565) = (   0.0196070   0.7052350   0.0000000), wk =   0.0011898
        k( 1566) = (   0.0196070   0.7072350   0.0000000), wk =   0.0011898
        k( 1567) = (   0.0196070   0.7092350   0.0000000), wk =   0.0011898
        k( 1568) = (   0.0196070   0.7112350   0.0000000), wk =   0.0011898
        k( 1569) = (   0.0196070   0.7132350   0.0000000), wk =   0.0011898
        k( 1570) = (   0.0196070   0.7152350   0.0000000), wk =   0.0011898
        k( 1571) = (   0.0196070   0.7172350   0.0000000), wk =   0.0011898
        k( 1572) = (   0.0196070   0.7192350   0.0000000), wk =   0.0011898
        k( 1573) = (   0.0196070   0.7212350   0.0000000), wk =   0.0011898
        k( 1574) = (   0.0196070   0.7232350   0.0000000), wk =   0.0011898
        k( 1575) = (   0.0196070   0.7252350   0.0000000), wk =   0.0011898
        k( 1576) = (   0.0196070   0.7272350   0.0000000), wk =   0.0011898
        k( 1577) = (   0.0196070   0.7292350   0.0000000), wk =   0.0011898
        k( 1578) = (   0.0196070   0.7312350   0.0000000), wk =   0.0011898
        k( 1579) = (   0.0196070   0.7332350   0.0000000), wk =   0.0011898
        k( 1580) = (   0.0196070   0.7352350   0.0000000), wk =   0.0011898
        k( 1581) = (   0.0196070   0.7372350   0.0000000), wk =   0.0011898
        k( 1582) = (   0.0196070   0.7392350   0.0000000), wk =   0.0011898
        k( 1583) = (   0.0196070   0.7412350   0.0000000), wk =   0.0011898
        k( 1584) = (   0.0196070   0.7432350   0.0000000), wk =   0.0011898
        k( 1585) = (   0.0196070   0.7452350   0.0000000), wk =   0.0011898
        k( 1586) = (   0.0196070   0.7472350   0.0000000), wk =   0.0011898
        k( 1587) = (   0.0196070   0.7492350   0.0000000), wk =   0.0011898
        k( 1588) = (   0.0196070   0.7512350   0.0000000), wk =   0.0011898
        k( 1589) = (   0.0196070   0.7532350   0.0000000), wk =   0.0011898
        k( 1590) = (   0.0196070   0.7552350   0.0000000), wk =   0.0011898
        k( 1591) = (   0.0196070   0.7572350   0.0000000), wk =   0.0011898
        k( 1592) = (   0.0196070   0.7592350   0.0000000), wk =   0.0011898
        k( 1593) = (   0.0196070   0.7612350   0.0000000), wk =   0.0011898
        k( 1594) = (   0.0196070   0.7632350   0.0000000), wk =   0.0011898
        k( 1595) = (   0.0196070   0.7652350   0.0000000), wk =   0.0011898
        k( 1596) = (   0.0196070   0.7672350   0.0000000), wk =   0.0011898
        k( 1597) = (   0.0196070   0.7692350   0.0000000), wk =   0.0011898
        k( 1598) = (   0.0196070   0.7712350   0.0000000), wk =   0.0011898
        k( 1599) = (   0.0196070   0.7732350   0.0000000), wk =   0.0011898
        k( 1600) = (   0.0216070   0.6932350   0.0000000), wk =   0.0011898
        k( 1601) = (   0.0216070   0.6952350   0.0000000), wk =   0.0011898
        k( 1602) = (   0.0216070   0.6972350   0.0000000), wk =   0.0011898
        k( 1603) = (   0.0216070   0.6992350   0.0000000), wk =   0.0011898
        k( 1604) = (   0.0216070   0.7012350   0.0000000), wk =   0.0011898
        k( 1605) = (   0.0216070   0.7032350   0.0000000), wk =   0.0011898
        k( 1606) = (   0.0216070   0.7052350   0.0000000), wk =   0.0011898
        k( 1607) = (   0.0216070   0.7072350   0.0000000), wk =   0.0011898
        k( 1608) = (   0.0216070   0.7092350   0.0000000), wk =   0.0011898
        k( 1609) = (   0.0216070   0.7112350   0.0000000), wk =   0.0011898
        k( 1610) = (   0.0216070   0.7132350   0.0000000), wk =   0.0011898
        k( 1611) = (   0.0216070   0.7152350   0.0000000), wk =   0.0011898
        k( 1612) = (   0.0216070   0.7172350   0.0000000), wk =   0.0011898
        k( 1613) = (   0.0216070   0.7192350   0.0000000), wk =   0.0011898
        k( 1614) = (   0.0216070   0.7212350   0.0000000), wk =   0.0011898
        k( 1615) = (   0.0216070   0.7232350   0.0000000), wk =   0.0011898
        k( 1616) = (   0.0216070   0.7252350   0.0000000), wk =   0.0011898
        k( 1617) = (   0.0216070   0.7272350   0.0000000), wk =   0.0011898
        k( 1618) = (   0.0216070   0.7292350   0.0000000), wk =   0.0011898
        k( 1619) = (   0.0216070   0.7312350   0.0000000), wk =   0.0011898
        k( 1620) = (   0.0216070   0.7332350   0.0000000), wk =   0.0011898
        k( 1621) = (   0.0216070   0.7352350   0.0000000), wk =   0.0011898
        k( 1622) = (   0.0216070   0.7372350   0.0000000), wk =   0.0011898
        k( 1623) = (   0.0216070   0.7392350   0.0000000), wk =   0.0011898
        k( 1624) = (   0.0216070   0.7412350   0.0000000), wk =   0.0011898
        k( 1625) = (   0.0216070   0.7432350   0.0000000), wk =   0.0011898
        k( 1626) = (   0.0216070   0.7452350   0.0000000), wk =   0.0011898
        k( 1627) = (   0.0216070   0.7472350   0.0000000), wk =   0.0011898
        k( 1628) = (   0.0216070   0.7492350   0.0000000), wk =   0.0011898
        k( 1629) = (   0.0216070   0.7512350   0.0000000), wk =   0.0011898
        k( 1630) = (   0.0216070   0.7532350   0.0000000), wk =   0.0011898
        k( 1631) = (   0.0216070   0.7552350   0.0000000), wk =   0.0011898
        k( 1632) = (   0.0216070   0.7572350   0.0000000), wk =   0.0011898
        k( 1633) = (   0.0216070   0.7592350   0.0000000), wk =   0.0011898
        k( 1634) = (   0.0216070   0.7612350   0.0000000), wk =   0.0011898
        k( 1635) = (   0.0216070   0.7632350   0.0000000), wk =   0.0011898
        k( 1636) = (   0.0216070   0.7652350   0.0000000), wk =   0.0011898
        k( 1637) = (   0.0216070   0.7672350   0.0000000), wk =   0.0011898
        k( 1638) = (   0.0216070   0.7692350   0.0000000), wk =   0.0011898
        k( 1639) = (   0.0216070   0.7712350   0.0000000), wk =   0.0011898
        k( 1640) = (   0.0216070   0.7732350   0.0000000), wk =   0.0011898
        k( 1641) = (   0.0236070   0.6932350   0.0000000), wk =   0.0011898
        k( 1642) = (   0.0236070   0.6952350   0.0000000), wk =   0.0011898
        k( 1643) = (   0.0236070   0.6972350   0.0000000), wk =   0.0011898
        k( 1644) = (   0.0236070   0.6992350   0.0000000), wk =   0.0011898
        k( 1645) = (   0.0236070   0.7012350   0.0000000), wk =   0.0011898
        k( 1646) = (   0.0236070   0.7032350   0.0000000), wk =   0.0011898
        k( 1647) = (   0.0236070   0.7052350   0.0000000), wk =   0.0011898
        k( 1648) = (   0.0236070   0.7072350   0.0000000), wk =   0.0011898
        k( 1649) = (   0.0236070   0.7092350   0.0000000), wk =   0.0011898
        k( 1650) = (   0.0236070   0.7112350   0.0000000), wk =   0.0011898
        k( 1651) = (   0.0236070   0.7132350   0.0000000), wk =   0.0011898
        k( 1652) = (   0.0236070   0.7152350   0.0000000), wk =   0.0011898
        k( 1653) = (   0.0236070   0.7172350   0.0000000), wk =   0.0011898
        k( 1654) = (   0.0236070   0.7192350   0.0000000), wk =   0.0011898
        k( 1655) = (   0.0236070   0.7212350   0.0000000), wk =   0.0011898
        k( 1656) = (   0.0236070   0.7232350   0.0000000), wk =   0.0011898
        k( 1657) = (   0.0236070   0.7252350   0.0000000), wk =   0.0011898
        k( 1658) = (   0.0236070   0.7272350   0.0000000), wk =   0.0011898
        k( 1659) = (   0.0236070   0.7292350   0.0000000), wk =   0.0011898
        k( 1660) = (   0.0236070   0.7312350   0.0000000), wk =   0.0011898
        k( 1661) = (   0.0236070   0.7332350   0.0000000), wk =   0.0011898
        k( 1662) = (   0.0236070   0.7352350   0.0000000), wk =   0.0011898
        k( 1663) = (   0.0236070   0.7372350   0.0000000), wk =   0.0011898
        k( 1664) = (   0.0236070   0.7392350   0.0000000), wk =   0.0011898
        k( 1665) = (   0.0236070   0.7412350   0.0000000), wk =   0.0011898
        k( 1666) = (   0.0236070   0.7432350   0.0000000), wk =   0.0011898
        k( 1667) = (   0.0236070   0.7452350   0.0000000), wk =   0.0011898
        k( 1668) = (   0.0236070   0.7472350   0.0000000), wk =   0.0011898
        k( 1669) = (   0.0236070   0.7492350   0.0000000), wk =   0.0011898
        k( 1670) = (   0.0236070   0.7512350   0.0000000), wk =   0.0011898
        k( 1671) = (   0.0236070   0.7532350   0.0000000), wk =   0.0011898
        k( 1672) = (   0.0236070   0.7552350   0.0000000), wk =   0.0011898
        k( 1673) = (   0.0236070   0.7572350   0.0000000), wk =   0.0011898
        k( 1674) = (   0.0236070   0.7592350   0.0000000), wk =   0.0011898
        k( 1675) = (   0.0236070   0.7612350   0.0000000), wk =   0.0011898
        k( 1676) = (   0.0236070   0.7632350   0.0000000), wk =   0.0011898
        k( 1677) = (   0.0236070   0.7652350   0.0000000), wk =   0.0011898
        k( 1678) = (   0.0236070   0.7672350   0.0000000), wk =   0.0011898
        k( 1679) = (   0.0236070   0.7692350   0.0000000), wk =   0.0011898
        k( 1680) = (   0.0236070   0.7712350   0.0000000), wk =   0.0011898
        k( 1681) = (   0.0236070   0.7732350   0.0000000), wk =   0.0011898

                       cryst. coord.
        k(    1) = (  -0.0563930   0.4445272   0.0000000), wk =   0.0011898
        k(    2) = (  -0.0563930   0.4458910   0.0000000), wk =   0.0011898
        k(    3) = (  -0.0563930   0.4472548   0.0000000), wk =   0.0011898
        k(    4) = (  -0.0563930   0.4486186   0.0000000), wk =   0.0011898
        k(    5) = (  -0.0563930   0.4499825   0.0000000), wk =   0.0011898
        k(    6) = (  -0.0563930   0.4513463   0.0000000), wk =   0.0011898
        k(    7) = (  -0.0563930   0.4527101   0.0000000), wk =   0.0011898
        k(    8) = (  -0.0563930   0.4540739   0.0000000), wk =   0.0011898
        k(    9) = (  -0.0563930   0.4554377   0.0000000), wk =   0.0011898
        k(   10) = (  -0.0563930   0.4568016   0.0000000), wk =   0.0011898
        k(   11) = (  -0.0563930   0.4581654   0.0000000), wk =   0.0011898
        k(   12) = (  -0.0563930   0.4595292   0.0000000), wk =   0.0011898
        k(   13) = (  -0.0563930   0.4608930   0.0000000), wk =   0.0011898
        k(   14) = (  -0.0563930   0.4622568   0.0000000), wk =   0.0011898
        k(   15) = (  -0.0563930   0.4636206   0.0000000), wk =   0.0011898
        k(   16) = (  -0.0563930   0.4649845   0.0000000), wk =   0.0011898
        k(   17) = (  -0.0563930   0.4663483   0.0000000), wk =   0.0011898
        k(   18) = (  -0.0563930   0.4677121   0.0000000), wk =   0.0011898
        k(   19) = (  -0.0563930   0.4690759   0.0000000), wk =   0.0011898
        k(   20) = (  -0.0563930   0.4704397   0.0000000), wk =   0.0011898
        k(   21) = (  -0.0563930   0.4718036   0.0000000), wk =   0.0011898
        k(   22) = (  -0.0563930   0.4731674   0.0000000), wk =   0.0011898
        k(   23) = (  -0.0563930   0.4745312   0.0000000), wk =   0.0011898
        k(   24) = (  -0.0563930   0.4758950   0.0000000), wk =   0.0011898
        k(   25) = (  -0.0563930   0.4772588   0.0000000), wk =   0.0011898
        k(   26) = (  -0.0563930   0.4786227   0.0000000), wk =   0.0011898
        k(   27) = (  -0.0563930   0.4799865   0.0000000), wk =   0.0011898
        k(   28) = (  -0.0563930   0.4813503   0.0000000), wk =   0.0011898
        k(   29) = (  -0.0563930   0.4827141   0.0000000), wk =   0.0011898
        k(   30) = (  -0.0563930   0.4840779   0.0000000), wk =   0.0011898
        k(   31) = (  -0.0563930   0.4854418   0.0000000), wk =   0.0011898
        k(   32) = (  -0.0563930   0.4868056   0.0000000), wk =   0.0011898
        k(   33) = (  -0.0563930   0.4881694   0.0000000), wk =   0.0011898
        k(   34) = (  -0.0563930   0.4895332   0.0000000), wk =   0.0011898
        k(   35) = (  -0.0563930   0.4908970   0.0000000), wk =   0.0011898
        k(   36) = (  -0.0563930   0.4922609   0.0000000), wk =   0.0011898
        k(   37) = (  -0.0563930   0.4936247   0.0000000), wk =   0.0011898
        k(   38) = (  -0.0563930   0.4949885   0.0000000), wk =   0.0011898
        k(   39) = (  -0.0563930   0.4963523   0.0000000), wk =   0.0011898
        k(   40) = (  -0.0563930   0.4977161   0.0000000), wk =   0.0011898
        k(   41) = (  -0.0563930   0.4990800   0.0000000), wk =   0.0011898
        k(   42) = (  -0.0543930   0.4455272   0.0000000), wk =   0.0011898
        k(   43) = (  -0.0543930   0.4468910   0.0000000), wk =   0.0011898
        k(   44) = (  -0.0543930   0.4482548   0.0000000), wk =   0.0011898
        k(   45) = (  -0.0543930   0.4496186   0.0000000), wk =   0.0011898
        k(   46) = (  -0.0543930   0.4509825   0.0000000), wk =   0.0011898
        k(   47) = (  -0.0543930   0.4523463   0.0000000), wk =   0.0011898
        k(   48) = (  -0.0543930   0.4537101   0.0000000), wk =   0.0011898
        k(   49) = (  -0.0543930   0.4550739   0.0000000), wk =   0.0011898
        k(   50) = (  -0.0543930   0.4564377   0.0000000), wk =   0.0011898
        k(   51) = (  -0.0543930   0.4578016   0.0000000), wk =   0.0011898
        k(   52) = (  -0.0543930   0.4591654   0.0000000), wk =   0.0011898
        k(   53) = (  -0.0543930   0.4605292   0.0000000), wk =   0.0011898
        k(   54) = (  -0.0543930   0.4618930   0.0000000), wk =   0.0011898
        k(   55) = (  -0.0543930   0.4632568   0.0000000), wk =   0.0011898
        k(   56) = (  -0.0543930   0.4646206   0.0000000), wk =   0.0011898
        k(   57) = (  -0.0543930   0.4659845   0.0000000), wk =   0.0011898
        k(   58) = (  -0.0543930   0.4673483   0.0000000), wk =   0.0011898
        k(   59) = (  -0.0543930   0.4687121   0.0000000), wk =   0.0011898
        k(   60) = (  -0.0543930   0.4700759   0.0000000), wk =   0.0011898
        k(   61) = (  -0.0543930   0.4714397   0.0000000), wk =   0.0011898
        k(   62) = (  -0.0543930   0.4728036   0.0000000), wk =   0.0011898
        k(   63) = (  -0.0543930   0.4741674   0.0000000), wk =   0.0011898
        k(   64) = (  -0.0543930   0.4755312   0.0000000), wk =   0.0011898
        k(   65) = (  -0.0543930   0.4768950   0.0000000), wk =   0.0011898
        k(   66) = (  -0.0543930   0.4782588   0.0000000), wk =   0.0011898
        k(   67) = (  -0.0543930   0.4796227   0.0000000), wk =   0.0011898
        k(   68) = (  -0.0543930   0.4809865   0.0000000), wk =   0.0011898
        k(   69) = (  -0.0543930   0.4823503   0.0000000), wk =   0.0011898
        k(   70) = (  -0.0543930   0.4837141   0.0000000), wk =   0.0011898
        k(   71) = (  -0.0543930   0.4850779   0.0000000), wk =   0.0011898
        k(   72) = (  -0.0543930   0.4864418   0.0000000), wk =   0.0011898
        k(   73) = (  -0.0543930   0.4878056   0.0000000), wk =   0.0011898
        k(   74) = (  -0.0543930   0.4891694   0.0000000), wk =   0.0011898
        k(   75) = (  -0.0543930   0.4905332   0.0000000), wk =   0.0011898
        k(   76) = (  -0.0543930   0.4918970   0.0000000), wk =   0.0011898
        k(   77) = (  -0.0543930   0.4932609   0.0000000), wk =   0.0011898
        k(   78) = (  -0.0543930   0.4946247   0.0000000), wk =   0.0011898
        k(   79) = (  -0.0543930   0.4959885   0.0000000), wk =   0.0011898
        k(   80) = (  -0.0543930   0.4973523   0.0000000), wk =   0.0011898
        k(   81) = (  -0.0543930   0.4987161   0.0000000), wk =   0.0011898
        k(   82) = (  -0.0543930   0.5000800   0.0000000), wk =   0.0011898
        k(   83) = (  -0.0523930   0.4465272   0.0000000), wk =   0.0011898
        k(   84) = (  -0.0523930   0.4478910   0.0000000), wk =   0.0011898
        k(   85) = (  -0.0523930   0.4492548   0.0000000), wk =   0.0011898
        k(   86) = (  -0.0523930   0.4506186   0.0000000), wk =   0.0011898
        k(   87) = (  -0.0523930   0.4519825   0.0000000), wk =   0.0011898
        k(   88) = (  -0.0523930   0.4533463   0.0000000), wk =   0.0011898
        k(   89) = (  -0.0523930   0.4547101   0.0000000), wk =   0.0011898
        k(   90) = (  -0.0523930   0.4560739   0.0000000), wk =   0.0011898
        k(   91) = (  -0.0523930   0.4574377   0.0000000), wk =   0.0011898
        k(   92) = (  -0.0523930   0.4588016   0.0000000), wk =   0.0011898
        k(   93) = (  -0.0523930   0.4601654   0.0000000), wk =   0.0011898
        k(   94) = (  -0.0523930   0.4615292   0.0000000), wk =   0.0011898
        k(   95) = (  -0.0523930   0.4628930   0.0000000), wk =   0.0011898
        k(   96) = (  -0.0523930   0.4642568   0.0000000), wk =   0.0011898
        k(   97) = (  -0.0523930   0.4656206   0.0000000), wk =   0.0011898
        k(   98) = (  -0.0523930   0.4669845   0.0000000), wk =   0.0011898
        k(   99) = (  -0.0523930   0.4683483   0.0000000), wk =   0.0011898
        k(  100) = (  -0.0523930   0.4697121   0.0000000), wk =   0.0011898
        k(  101) = (  -0.0523930   0.4710759   0.0000000), wk =   0.0011898
        k(  102) = (  -0.0523930   0.4724397   0.0000000), wk =   0.0011898
        k(  103) = (  -0.0523930   0.4738036   0.0000000), wk =   0.0011898
        k(  104) = (  -0.0523930   0.4751674   0.0000000), wk =   0.0011898
        k(  105) = (  -0.0523930   0.4765312   0.0000000), wk =   0.0011898
        k(  106) = (  -0.0523930   0.4778950   0.0000000), wk =   0.0011898
        k(  107) = (  -0.0523930   0.4792588   0.0000000), wk =   0.0011898
        k(  108) = (  -0.0523930   0.4806227   0.0000000), wk =   0.0011898
        k(  109) = (  -0.0523930   0.4819865   0.0000000), wk =   0.0011898
        k(  110) = (  -0.0523930   0.4833503   0.0000000), wk =   0.0011898
        k(  111) = (  -0.0523930   0.4847141   0.0000000), wk =   0.0011898
        k(  112) = (  -0.0523930   0.4860779   0.0000000), wk =   0.0011898
        k(  113) = (  -0.0523930   0.4874418   0.0000000), wk =   0.0011898
        k(  114) = (  -0.0523930   0.4888056   0.0000000), wk =   0.0011898
        k(  115) = (  -0.0523930   0.4901694   0.0000000), wk =   0.0011898
        k(  116) = (  -0.0523930   0.4915332   0.0000000), wk =   0.0011898
        k(  117) = (  -0.0523930   0.4928970   0.0000000), wk =   0.0011898
        k(  118) = (  -0.0523930   0.4942609   0.0000000), wk =   0.0011898
        k(  119) = (  -0.0523930   0.4956247   0.0000000), wk =   0.0011898
        k(  120) = (  -0.0523930   0.4969885   0.0000000), wk =   0.0011898
        k(  121) = (  -0.0523930   0.4983523   0.0000000), wk =   0.0011898
        k(  122) = (  -0.0523930   0.4997161   0.0000000), wk =   0.0011898
        k(  123) = (  -0.0523930   0.5010800   0.0000000), wk =   0.0011898
        k(  124) = (  -0.0503930   0.4475272   0.0000000), wk =   0.0011898
        k(  125) = (  -0.0503930   0.4488910   0.0000000), wk =   0.0011898
        k(  126) = (  -0.0503930   0.4502548   0.0000000), wk =   0.0011898
        k(  127) = (  -0.0503930   0.4516186   0.0000000), wk =   0.0011898
        k(  128) = (  -0.0503930   0.4529825   0.0000000), wk =   0.0011898
        k(  129) = (  -0.0503930   0.4543463   0.0000000), wk =   0.0011898
        k(  130) = (  -0.0503930   0.4557101   0.0000000), wk =   0.0011898
        k(  131) = (  -0.0503930   0.4570739   0.0000000), wk =   0.0011898
        k(  132) = (  -0.0503930   0.4584377   0.0000000), wk =   0.0011898
        k(  133) = (  -0.0503930   0.4598016   0.0000000), wk =   0.0011898
        k(  134) = (  -0.0503930   0.4611654   0.0000000), wk =   0.0011898
        k(  135) = (  -0.0503930   0.4625292   0.0000000), wk =   0.0011898
        k(  136) = (  -0.0503930   0.4638930   0.0000000), wk =   0.0011898
        k(  137) = (  -0.0503930   0.4652568   0.0000000), wk =   0.0011898
        k(  138) = (  -0.0503930   0.4666206   0.0000000), wk =   0.0011898
        k(  139) = (  -0.0503930   0.4679845   0.0000000), wk =   0.0011898
        k(  140) = (  -0.0503930   0.4693483   0.0000000), wk =   0.0011898
        k(  141) = (  -0.0503930   0.4707121   0.0000000), wk =   0.0011898
        k(  142) = (  -0.0503930   0.4720759   0.0000000), wk =   0.0011898
        k(  143) = (  -0.0503930   0.4734397   0.0000000), wk =   0.0011898
        k(  144) = (  -0.0503930   0.4748036   0.0000000), wk =   0.0011898
        k(  145) = (  -0.0503930   0.4761674   0.0000000), wk =   0.0011898
        k(  146) = (  -0.0503930   0.4775312   0.0000000), wk =   0.0011898
        k(  147) = (  -0.0503930   0.4788950   0.0000000), wk =   0.0011898
        k(  148) = (  -0.0503930   0.4802588   0.0000000), wk =   0.0011898
        k(  149) = (  -0.0503930   0.4816227   0.0000000), wk =   0.0011898
        k(  150) = (  -0.0503930   0.4829865   0.0000000), wk =   0.0011898
        k(  151) = (  -0.0503930   0.4843503   0.0000000), wk =   0.0011898
        k(  152) = (  -0.0503930   0.4857141   0.0000000), wk =   0.0011898
        k(  153) = (  -0.0503930   0.4870779   0.0000000), wk =   0.0011898
        k(  154) = (  -0.0503930   0.4884418   0.0000000), wk =   0.0011898
        k(  155) = (  -0.0503930   0.4898056   0.0000000), wk =   0.0011898
        k(  156) = (  -0.0503930   0.4911694   0.0000000), wk =   0.0011898
        k(  157) = (  -0.0503930   0.4925332   0.0000000), wk =   0.0011898
        k(  158) = (  -0.0503930   0.4938970   0.0000000), wk =   0.0011898
        k(  159) = (  -0.0503930   0.4952609   0.0000000), wk =   0.0011898
        k(  160) = (  -0.0503930   0.4966247   0.0000000), wk =   0.0011898
        k(  161) = (  -0.0503930   0.4979885   0.0000000), wk =   0.0011898
        k(  162) = (  -0.0503930   0.4993523   0.0000000), wk =   0.0011898
        k(  163) = (  -0.0503930   0.5007161   0.0000000), wk =   0.0011898
        k(  164) = (  -0.0503930   0.5020800   0.0000000), wk =   0.0011898
        k(  165) = (  -0.0483930   0.4485272   0.0000000), wk =   0.0011898
        k(  166) = (  -0.0483930   0.4498910   0.0000000), wk =   0.0011898
        k(  167) = (  -0.0483930   0.4512548   0.0000000), wk =   0.0011898
        k(  168) = (  -0.0483930   0.4526186   0.0000000), wk =   0.0011898
        k(  169) = (  -0.0483930   0.4539825   0.0000000), wk =   0.0011898
        k(  170) = (  -0.0483930   0.4553463   0.0000000), wk =   0.0011898
        k(  171) = (  -0.0483930   0.4567101   0.0000000), wk =   0.0011898
        k(  172) = (  -0.0483930   0.4580739   0.0000000), wk =   0.0011898
        k(  173) = (  -0.0483930   0.4594377   0.0000000), wk =   0.0011898
        k(  174) = (  -0.0483930   0.4608016   0.0000000), wk =   0.0011898
        k(  175) = (  -0.0483930   0.4621654   0.0000000), wk =   0.0011898
        k(  176) = (  -0.0483930   0.4635292   0.0000000), wk =   0.0011898
        k(  177) = (  -0.0483930   0.4648930   0.0000000), wk =   0.0011898
        k(  178) = (  -0.0483930   0.4662568   0.0000000), wk =   0.0011898
        k(  179) = (  -0.0483930   0.4676206   0.0000000), wk =   0.0011898
        k(  180) = (  -0.0483930   0.4689845   0.0000000), wk =   0.0011898
        k(  181) = (  -0.0483930   0.4703483   0.0000000), wk =   0.0011898
        k(  182) = (  -0.0483930   0.4717121   0.0000000), wk =   0.0011898
        k(  183) = (  -0.0483930   0.4730759   0.0000000), wk =   0.0011898
        k(  184) = (  -0.0483930   0.4744397   0.0000000), wk =   0.0011898
        k(  185) = (  -0.0483930   0.4758036   0.0000000), wk =   0.0011898
        k(  186) = (  -0.0483930   0.4771674   0.0000000), wk =   0.0011898
        k(  187) = (  -0.0483930   0.4785312   0.0000000), wk =   0.0011898
        k(  188) = (  -0.0483930   0.4798950   0.0000000), wk =   0.0011898
        k(  189) = (  -0.0483930   0.4812588   0.0000000), wk =   0.0011898
        k(  190) = (  -0.0483930   0.4826227   0.0000000), wk =   0.0011898
        k(  191) = (  -0.0483930   0.4839865   0.0000000), wk =   0.0011898
        k(  192) = (  -0.0483930   0.4853503   0.0000000), wk =   0.0011898
        k(  193) = (  -0.0483930   0.4867141   0.0000000), wk =   0.0011898
        k(  194) = (  -0.0483930   0.4880779   0.0000000), wk =   0.0011898
        k(  195) = (  -0.0483930   0.4894418   0.0000000), wk =   0.0011898
        k(  196) = (  -0.0483930   0.4908056   0.0000000), wk =   0.0011898
        k(  197) = (  -0.0483930   0.4921694   0.0000000), wk =   0.0011898
        k(  198) = (  -0.0483930   0.4935332   0.0000000), wk =   0.0011898
        k(  199) = (  -0.0483930   0.4948970   0.0000000), wk =   0.0011898
        k(  200) = (  -0.0483930   0.4962609   0.0000000), wk =   0.0011898
        k(  201) = (  -0.0483930   0.4976247   0.0000000), wk =   0.0011898
        k(  202) = (  -0.0483930   0.4989885   0.0000000), wk =   0.0011898
        k(  203) = (  -0.0483930   0.5003523   0.0000000), wk =   0.0011898
        k(  204) = (  -0.0483930   0.5017161   0.0000000), wk =   0.0011898
        k(  205) = (  -0.0483930   0.5030800   0.0000000), wk =   0.0011898
        k(  206) = (  -0.0463930   0.4495272   0.0000000), wk =   0.0011898
        k(  207) = (  -0.0463930   0.4508910   0.0000000), wk =   0.0011898
        k(  208) = (  -0.0463930   0.4522548   0.0000000), wk =   0.0011898
        k(  209) = (  -0.0463930   0.4536186   0.0000000), wk =   0.0011898
        k(  210) = (  -0.0463930   0.4549825   0.0000000), wk =   0.0011898
        k(  211) = (  -0.0463930   0.4563463   0.0000000), wk =   0.0011898
        k(  212) = (  -0.0463930   0.4577101   0.0000000), wk =   0.0011898
        k(  213) = (  -0.0463930   0.4590739   0.0000000), wk =   0.0011898
        k(  214) = (  -0.0463930   0.4604377   0.0000000), wk =   0.0011898
        k(  215) = (  -0.0463930   0.4618016   0.0000000), wk =   0.0011898
        k(  216) = (  -0.0463930   0.4631654   0.0000000), wk =   0.0011898
        k(  217) = (  -0.0463930   0.4645292   0.0000000), wk =   0.0011898
        k(  218) = (  -0.0463930   0.4658930   0.0000000), wk =   0.0011898
        k(  219) = (  -0.0463930   0.4672568   0.0000000), wk =   0.0011898
        k(  220) = (  -0.0463930   0.4686206   0.0000000), wk =   0.0011898
        k(  221) = (  -0.0463930   0.4699845   0.0000000), wk =   0.0011898
        k(  222) = (  -0.0463930   0.4713483   0.0000000), wk =   0.0011898
        k(  223) = (  -0.0463930   0.4727121   0.0000000), wk =   0.0011898
        k(  224) = (  -0.0463930   0.4740759   0.0000000), wk =   0.0011898
        k(  225) = (  -0.0463930   0.4754397   0.0000000), wk =   0.0011898
        k(  226) = (  -0.0463930   0.4768036   0.0000000), wk =   0.0011898
        k(  227) = (  -0.0463930   0.4781674   0.0000000), wk =   0.0011898
        k(  228) = (  -0.0463930   0.4795312   0.0000000), wk =   0.0011898
        k(  229) = (  -0.0463930   0.4808950   0.0000000), wk =   0.0011898
        k(  230) = (  -0.0463930   0.4822588   0.0000000), wk =   0.0011898
        k(  231) = (  -0.0463930   0.4836227   0.0000000), wk =   0.0011898
        k(  232) = (  -0.0463930   0.4849865   0.0000000), wk =   0.0011898
        k(  233) = (  -0.0463930   0.4863503   0.0000000), wk =   0.0011898
        k(  234) = (  -0.0463930   0.4877141   0.0000000), wk =   0.0011898
        k(  235) = (  -0.0463930   0.4890779   0.0000000), wk =   0.0011898
        k(  236) = (  -0.0463930   0.4904418   0.0000000), wk =   0.0011898
        k(  237) = (  -0.0463930   0.4918056   0.0000000), wk =   0.0011898
        k(  238) = (  -0.0463930   0.4931694   0.0000000), wk =   0.0011898
        k(  239) = (  -0.0463930   0.4945332   0.0000000), wk =   0.0011898
        k(  240) = (  -0.0463930   0.4958970   0.0000000), wk =   0.0011898
        k(  241) = (  -0.0463930   0.4972609   0.0000000), wk =   0.0011898
        k(  242) = (  -0.0463930   0.4986247   0.0000000), wk =   0.0011898
        k(  243) = (  -0.0463930   0.4999885   0.0000000), wk =   0.0011898
        k(  244) = (  -0.0463930   0.5013523   0.0000000), wk =   0.0011898
        k(  245) = (  -0.0463930   0.5027161   0.0000000), wk =   0.0011898
        k(  246) = (  -0.0463930   0.5040800   0.0000000), wk =   0.0011898
        k(  247) = (  -0.0443930   0.4505272   0.0000000), wk =   0.0011898
        k(  248) = (  -0.0443930   0.4518910   0.0000000), wk =   0.0011898
        k(  249) = (  -0.0443930   0.4532548   0.0000000), wk =   0.0011898
        k(  250) = (  -0.0443930   0.4546186   0.0000000), wk =   0.0011898
        k(  251) = (  -0.0443930   0.4559825   0.0000000), wk =   0.0011898
        k(  252) = (  -0.0443930   0.4573463   0.0000000), wk =   0.0011898
        k(  253) = (  -0.0443930   0.4587101   0.0000000), wk =   0.0011898
        k(  254) = (  -0.0443930   0.4600739   0.0000000), wk =   0.0011898
        k(  255) = (  -0.0443930   0.4614377   0.0000000), wk =   0.0011898
        k(  256) = (  -0.0443930   0.4628016   0.0000000), wk =   0.0011898
        k(  257) = (  -0.0443930   0.4641654   0.0000000), wk =   0.0011898
        k(  258) = (  -0.0443930   0.4655292   0.0000000), wk =   0.0011898
        k(  259) = (  -0.0443930   0.4668930   0.0000000), wk =   0.0011898
        k(  260) = (  -0.0443930   0.4682568   0.0000000), wk =   0.0011898
        k(  261) = (  -0.0443930   0.4696206   0.0000000), wk =   0.0011898
        k(  262) = (  -0.0443930   0.4709845   0.0000000), wk =   0.0011898
        k(  263) = (  -0.0443930   0.4723483   0.0000000), wk =   0.0011898
        k(  264) = (  -0.0443930   0.4737121   0.0000000), wk =   0.0011898
        k(  265) = (  -0.0443930   0.4750759   0.0000000), wk =   0.0011898
        k(  266) = (  -0.0443930   0.4764397   0.0000000), wk =   0.0011898
        k(  267) = (  -0.0443930   0.4778036   0.0000000), wk =   0.0011898
        k(  268) = (  -0.0443930   0.4791674   0.0000000), wk =   0.0011898
        k(  269) = (  -0.0443930   0.4805312   0.0000000), wk =   0.0011898
        k(  270) = (  -0.0443930   0.4818950   0.0000000), wk =   0.0011898
        k(  271) = (  -0.0443930   0.4832588   0.0000000), wk =   0.0011898
        k(  272) = (  -0.0443930   0.4846227   0.0000000), wk =   0.0011898
        k(  273) = (  -0.0443930   0.4859865   0.0000000), wk =   0.0011898
        k(  274) = (  -0.0443930   0.4873503   0.0000000), wk =   0.0011898
        k(  275) = (  -0.0443930   0.4887141   0.0000000), wk =   0.0011898
        k(  276) = (  -0.0443930   0.4900779   0.0000000), wk =   0.0011898
        k(  277) = (  -0.0443930   0.4914418   0.0000000), wk =   0.0011898
        k(  278) = (  -0.0443930   0.4928056   0.0000000), wk =   0.0011898
        k(  279) = (  -0.0443930   0.4941694   0.0000000), wk =   0.0011898
        k(  280) = (  -0.0443930   0.4955332   0.0000000), wk =   0.0011898
        k(  281) = (  -0.0443930   0.4968970   0.0000000), wk =   0.0011898
        k(  282) = (  -0.0443930   0.4982609   0.0000000), wk =   0.0011898
        k(  283) = (  -0.0443930   0.4996247   0.0000000), wk =   0.0011898
        k(  284) = (  -0.0443930   0.5009885   0.0000000), wk =   0.0011898
        k(  285) = (  -0.0443930   0.5023523   0.0000000), wk =   0.0011898
        k(  286) = (  -0.0443930   0.5037161   0.0000000), wk =   0.0011898
        k(  287) = (  -0.0443930   0.5050800   0.0000000), wk =   0.0011898
        k(  288) = (  -0.0423930   0.4515272   0.0000000), wk =   0.0011898
        k(  289) = (  -0.0423930   0.4528910   0.0000000), wk =   0.0011898
        k(  290) = (  -0.0423930   0.4542548   0.0000000), wk =   0.0011898
        k(  291) = (  -0.0423930   0.4556186   0.0000000), wk =   0.0011898
        k(  292) = (  -0.0423930   0.4569825   0.0000000), wk =   0.0011898
        k(  293) = (  -0.0423930   0.4583463   0.0000000), wk =   0.0011898
        k(  294) = (  -0.0423930   0.4597101   0.0000000), wk =   0.0011898
        k(  295) = (  -0.0423930   0.4610739   0.0000000), wk =   0.0011898
        k(  296) = (  -0.0423930   0.4624377   0.0000000), wk =   0.0011898
        k(  297) = (  -0.0423930   0.4638016   0.0000000), wk =   0.0011898
        k(  298) = (  -0.0423930   0.4651654   0.0000000), wk =   0.0011898
        k(  299) = (  -0.0423930   0.4665292   0.0000000), wk =   0.0011898
        k(  300) = (  -0.0423930   0.4678930   0.0000000), wk =   0.0011898
        k(  301) = (  -0.0423930   0.4692568   0.0000000), wk =   0.0011898
        k(  302) = (  -0.0423930   0.4706206   0.0000000), wk =   0.0011898
        k(  303) = (  -0.0423930   0.4719845   0.0000000), wk =   0.0011898
        k(  304) = (  -0.0423930   0.4733483   0.0000000), wk =   0.0011898
        k(  305) = (  -0.0423930   0.4747121   0.0000000), wk =   0.0011898
        k(  306) = (  -0.0423930   0.4760759   0.0000000), wk =   0.0011898
        k(  307) = (  -0.0423930   0.4774397   0.0000000), wk =   0.0011898
        k(  308) = (  -0.0423930   0.4788036   0.0000000), wk =   0.0011898
        k(  309) = (  -0.0423930   0.4801674   0.0000000), wk =   0.0011898
        k(  310) = (  -0.0423930   0.4815312   0.0000000), wk =   0.0011898
        k(  311) = (  -0.0423930   0.4828950   0.0000000), wk =   0.0011898
        k(  312) = (  -0.0423930   0.4842588   0.0000000), wk =   0.0011898
        k(  313) = (  -0.0423930   0.4856227   0.0000000), wk =   0.0011898
        k(  314) = (  -0.0423930   0.4869865   0.0000000), wk =   0.0011898
        k(  315) = (  -0.0423930   0.4883503   0.0000000), wk =   0.0011898
        k(  316) = (  -0.0423930   0.4897141   0.0000000), wk =   0.0011898
        k(  317) = (  -0.0423930   0.4910779   0.0000000), wk =   0.0011898
        k(  318) = (  -0.0423930   0.4924418   0.0000000), wk =   0.0011898
        k(  319) = (  -0.0423930   0.4938056   0.0000000), wk =   0.0011898
        k(  320) = (  -0.0423930   0.4951694   0.0000000), wk =   0.0011898
        k(  321) = (  -0.0423930   0.4965332   0.0000000), wk =   0.0011898
        k(  322) = (  -0.0423930   0.4978970   0.0000000), wk =   0.0011898
        k(  323) = (  -0.0423930   0.4992609   0.0000000), wk =   0.0011898
        k(  324) = (  -0.0423930   0.5006247   0.0000000), wk =   0.0011898
        k(  325) = (  -0.0423930   0.5019885   0.0000000), wk =   0.0011898
        k(  326) = (  -0.0423930   0.5033523   0.0000000), wk =   0.0011898
        k(  327) = (  -0.0423930   0.5047161   0.0000000), wk =   0.0011898
        k(  328) = (  -0.0423930   0.5060800   0.0000000), wk =   0.0011898
        k(  329) = (  -0.0403930   0.4525272   0.0000000), wk =   0.0011898
        k(  330) = (  -0.0403930   0.4538910   0.0000000), wk =   0.0011898
        k(  331) = (  -0.0403930   0.4552548   0.0000000), wk =   0.0011898
        k(  332) = (  -0.0403930   0.4566186   0.0000000), wk =   0.0011898
        k(  333) = (  -0.0403930   0.4579825   0.0000000), wk =   0.0011898
        k(  334) = (  -0.0403930   0.4593463   0.0000000), wk =   0.0011898
        k(  335) = (  -0.0403930   0.4607101   0.0000000), wk =   0.0011898
        k(  336) = (  -0.0403930   0.4620739   0.0000000), wk =   0.0011898
        k(  337) = (  -0.0403930   0.4634377   0.0000000), wk =   0.0011898
        k(  338) = (  -0.0403930   0.4648016   0.0000000), wk =   0.0011898
        k(  339) = (  -0.0403930   0.4661654   0.0000000), wk =   0.0011898
        k(  340) = (  -0.0403930   0.4675292   0.0000000), wk =   0.0011898
        k(  341) = (  -0.0403930   0.4688930   0.0000000), wk =   0.0011898
        k(  342) = (  -0.0403930   0.4702568   0.0000000), wk =   0.0011898
        k(  343) = (  -0.0403930   0.4716206   0.0000000), wk =   0.0011898
        k(  344) = (  -0.0403930   0.4729845   0.0000000), wk =   0.0011898
        k(  345) = (  -0.0403930   0.4743483   0.0000000), wk =   0.0011898
        k(  346) = (  -0.0403930   0.4757121   0.0000000), wk =   0.0011898
        k(  347) = (  -0.0403930   0.4770759   0.0000000), wk =   0.0011898
        k(  348) = (  -0.0403930   0.4784397   0.0000000), wk =   0.0011898
        k(  349) = (  -0.0403930   0.4798036   0.0000000), wk =   0.0011898
        k(  350) = (  -0.0403930   0.4811674   0.0000000), wk =   0.0011898
        k(  351) = (  -0.0403930   0.4825312   0.0000000), wk =   0.0011898
        k(  352) = (  -0.0403930   0.4838950   0.0000000), wk =   0.0011898
        k(  353) = (  -0.0403930   0.4852588   0.0000000), wk =   0.0011898
        k(  354) = (  -0.0403930   0.4866227   0.0000000), wk =   0.0011898
        k(  355) = (  -0.0403930   0.4879865   0.0000000), wk =   0.0011898
        k(  356) = (  -0.0403930   0.4893503   0.0000000), wk =   0.0011898
        k(  357) = (  -0.0403930   0.4907141   0.0000000), wk =   0.0011898
        k(  358) = (  -0.0403930   0.4920779   0.0000000), wk =   0.0011898
        k(  359) = (  -0.0403930   0.4934418   0.0000000), wk =   0.0011898
        k(  360) = (  -0.0403930   0.4948056   0.0000000), wk =   0.0011898
        k(  361) = (  -0.0403930   0.4961694   0.0000000), wk =   0.0011898
        k(  362) = (  -0.0403930   0.4975332   0.0000000), wk =   0.0011898
        k(  363) = (  -0.0403930   0.4988970   0.0000000), wk =   0.0011898
        k(  364) = (  -0.0403930   0.5002609   0.0000000), wk =   0.0011898
        k(  365) = (  -0.0403930   0.5016247   0.0000000), wk =   0.0011898
        k(  366) = (  -0.0403930   0.5029885   0.0000000), wk =   0.0011898
        k(  367) = (  -0.0403930   0.5043523   0.0000000), wk =   0.0011898
        k(  368) = (  -0.0403930   0.5057161   0.0000000), wk =   0.0011898
        k(  369) = (  -0.0403930   0.5070800   0.0000000), wk =   0.0011898
        k(  370) = (  -0.0383930   0.4535272   0.0000000), wk =   0.0011898
        k(  371) = (  -0.0383930   0.4548910   0.0000000), wk =   0.0011898
        k(  372) = (  -0.0383930   0.4562548   0.0000000), wk =   0.0011898
        k(  373) = (  -0.0383930   0.4576186   0.0000000), wk =   0.0011898
        k(  374) = (  -0.0383930   0.4589825   0.0000000), wk =   0.0011898
        k(  375) = (  -0.0383930   0.4603463   0.0000000), wk =   0.0011898
        k(  376) = (  -0.0383930   0.4617101   0.0000000), wk =   0.0011898
        k(  377) = (  -0.0383930   0.4630739   0.0000000), wk =   0.0011898
        k(  378) = (  -0.0383930   0.4644377   0.0000000), wk =   0.0011898
        k(  379) = (  -0.0383930   0.4658016   0.0000000), wk =   0.0011898
        k(  380) = (  -0.0383930   0.4671654   0.0000000), wk =   0.0011898
        k(  381) = (  -0.0383930   0.4685292   0.0000000), wk =   0.0011898
        k(  382) = (  -0.0383930   0.4698930   0.0000000), wk =   0.0011898
        k(  383) = (  -0.0383930   0.4712568   0.0000000), wk =   0.0011898
        k(  384) = (  -0.0383930   0.4726206   0.0000000), wk =   0.0011898
        k(  385) = (  -0.0383930   0.4739845   0.0000000), wk =   0.0011898
        k(  386) = (  -0.0383930   0.4753483   0.0000000), wk =   0.0011898
        k(  387) = (  -0.0383930   0.4767121   0.0000000), wk =   0.0011898
        k(  388) = (  -0.0383930   0.4780759   0.0000000), wk =   0.0011898
        k(  389) = (  -0.0383930   0.4794397   0.0000000), wk =   0.0011898
        k(  390) = (  -0.0383930   0.4808036   0.0000000), wk =   0.0011898
        k(  391) = (  -0.0383930   0.4821674   0.0000000), wk =   0.0011898
        k(  392) = (  -0.0383930   0.4835312   0.0000000), wk =   0.0011898
        k(  393) = (  -0.0383930   0.4848950   0.0000000), wk =   0.0011898
        k(  394) = (  -0.0383930   0.4862588   0.0000000), wk =   0.0011898
        k(  395) = (  -0.0383930   0.4876227   0.0000000), wk =   0.0011898
        k(  396) = (  -0.0383930   0.4889865   0.0000000), wk =   0.0011898
        k(  397) = (  -0.0383930   0.4903503   0.0000000), wk =   0.0011898
        k(  398) = (  -0.0383930   0.4917141   0.0000000), wk =   0.0011898
        k(  399) = (  -0.0383930   0.4930779   0.0000000), wk =   0.0011898
        k(  400) = (  -0.0383930   0.4944418   0.0000000), wk =   0.0011898
        k(  401) = (  -0.0383930   0.4958056   0.0000000), wk =   0.0011898
        k(  402) = (  -0.0383930   0.4971694   0.0000000), wk =   0.0011898
        k(  403) = (  -0.0383930   0.4985332   0.0000000), wk =   0.0011898
        k(  404) = (  -0.0383930   0.4998970   0.0000000), wk =   0.0011898
        k(  405) = (  -0.0383930   0.5012609   0.0000000), wk =   0.0011898
        k(  406) = (  -0.0383930   0.5026247   0.0000000), wk =   0.0011898
        k(  407) = (  -0.0383930   0.5039885   0.0000000), wk =   0.0011898
        k(  408) = (  -0.0383930   0.5053523   0.0000000), wk =   0.0011898
        k(  409) = (  -0.0383930   0.5067161   0.0000000), wk =   0.0011898
        k(  410) = (  -0.0383930   0.5080800   0.0000000), wk =   0.0011898
        k(  411) = (  -0.0363930   0.4545272   0.0000000), wk =   0.0011898
        k(  412) = (  -0.0363930   0.4558910   0.0000000), wk =   0.0011898
        k(  413) = (  -0.0363930   0.4572548   0.0000000), wk =   0.0011898
        k(  414) = (  -0.0363930   0.4586186   0.0000000), wk =   0.0011898
        k(  415) = (  -0.0363930   0.4599825   0.0000000), wk =   0.0011898
        k(  416) = (  -0.0363930   0.4613463   0.0000000), wk =   0.0011898
        k(  417) = (  -0.0363930   0.4627101   0.0000000), wk =   0.0011898
        k(  418) = (  -0.0363930   0.4640739   0.0000000), wk =   0.0011898
        k(  419) = (  -0.0363930   0.4654377   0.0000000), wk =   0.0011898
        k(  420) = (  -0.0363930   0.4668016   0.0000000), wk =   0.0011898
        k(  421) = (  -0.0363930   0.4681654   0.0000000), wk =   0.0011898
        k(  422) = (  -0.0363930   0.4695292   0.0000000), wk =   0.0011898
        k(  423) = (  -0.0363930   0.4708930   0.0000000), wk =   0.0011898
        k(  424) = (  -0.0363930   0.4722568   0.0000000), wk =   0.0011898
        k(  425) = (  -0.0363930   0.4736206   0.0000000), wk =   0.0011898
        k(  426) = (  -0.0363930   0.4749845   0.0000000), wk =   0.0011898
        k(  427) = (  -0.0363930   0.4763483   0.0000000), wk =   0.0011898
        k(  428) = (  -0.0363930   0.4777121   0.0000000), wk =   0.0011898
        k(  429) = (  -0.0363930   0.4790759   0.0000000), wk =   0.0011898
        k(  430) = (  -0.0363930   0.4804397   0.0000000), wk =   0.0011898
        k(  431) = (  -0.0363930   0.4818036   0.0000000), wk =   0.0011898
        k(  432) = (  -0.0363930   0.4831674   0.0000000), wk =   0.0011898
        k(  433) = (  -0.0363930   0.4845312   0.0000000), wk =   0.0011898
        k(  434) = (  -0.0363930   0.4858950   0.0000000), wk =   0.0011898
        k(  435) = (  -0.0363930   0.4872588   0.0000000), wk =   0.0011898
        k(  436) = (  -0.0363930   0.4886227   0.0000000), wk =   0.0011898
        k(  437) = (  -0.0363930   0.4899865   0.0000000), wk =   0.0011898
        k(  438) = (  -0.0363930   0.4913503   0.0000000), wk =   0.0011898
        k(  439) = (  -0.0363930   0.4927141   0.0000000), wk =   0.0011898
        k(  440) = (  -0.0363930   0.4940779   0.0000000), wk =   0.0011898
        k(  441) = (  -0.0363930   0.4954418   0.0000000), wk =   0.0011898
        k(  442) = (  -0.0363930   0.4968056   0.0000000), wk =   0.0011898
        k(  443) = (  -0.0363930   0.4981694   0.0000000), wk =   0.0011898
        k(  444) = (  -0.0363930   0.4995332   0.0000000), wk =   0.0011898
        k(  445) = (  -0.0363930   0.5008970   0.0000000), wk =   0.0011898
        k(  446) = (  -0.0363930   0.5022609   0.0000000), wk =   0.0011898
        k(  447) = (  -0.0363930   0.5036247   0.0000000), wk =   0.0011898
        k(  448) = (  -0.0363930   0.5049885   0.0000000), wk =   0.0011898
        k(  449) = (  -0.0363930   0.5063523   0.0000000), wk =   0.0011898
        k(  450) = (  -0.0363930   0.5077161   0.0000000), wk =   0.0011898
        k(  451) = (  -0.0363930   0.5090800   0.0000000), wk =   0.0011898
        k(  452) = (  -0.0343930   0.4555272   0.0000000), wk =   0.0011898
        k(  453) = (  -0.0343930   0.4568910   0.0000000), wk =   0.0011898
        k(  454) = (  -0.0343930   0.4582548   0.0000000), wk =   0.0011898
        k(  455) = (  -0.0343930   0.4596186   0.0000000), wk =   0.0011898
        k(  456) = (  -0.0343930   0.4609825   0.0000000), wk =   0.0011898
        k(  457) = (  -0.0343930   0.4623463   0.0000000), wk =   0.0011898
        k(  458) = (  -0.0343930   0.4637101   0.0000000), wk =   0.0011898
        k(  459) = (  -0.0343930   0.4650739   0.0000000), wk =   0.0011898
        k(  460) = (  -0.0343930   0.4664377   0.0000000), wk =   0.0011898
        k(  461) = (  -0.0343930   0.4678016   0.0000000), wk =   0.0011898
        k(  462) = (  -0.0343930   0.4691654   0.0000000), wk =   0.0011898
        k(  463) = (  -0.0343930   0.4705292   0.0000000), wk =   0.0011898
        k(  464) = (  -0.0343930   0.4718930   0.0000000), wk =   0.0011898
        k(  465) = (  -0.0343930   0.4732568   0.0000000), wk =   0.0011898
        k(  466) = (  -0.0343930   0.4746206   0.0000000), wk =   0.0011898
        k(  467) = (  -0.0343930   0.4759845   0.0000000), wk =   0.0011898
        k(  468) = (  -0.0343930   0.4773483   0.0000000), wk =   0.0011898
        k(  469) = (  -0.0343930   0.4787121   0.0000000), wk =   0.0011898
        k(  470) = (  -0.0343930   0.4800759   0.0000000), wk =   0.0011898
        k(  471) = (  -0.0343930   0.4814397   0.0000000), wk =   0.0011898
        k(  472) = (  -0.0343930   0.4828036   0.0000000), wk =   0.0011898
        k(  473) = (  -0.0343930   0.4841674   0.0000000), wk =   0.0011898
        k(  474) = (  -0.0343930   0.4855312   0.0000000), wk =   0.0011898
        k(  475) = (  -0.0343930   0.4868950   0.0000000), wk =   0.0011898
        k(  476) = (  -0.0343930   0.4882588   0.0000000), wk =   0.0011898
        k(  477) = (  -0.0343930   0.4896227   0.0000000), wk =   0.0011898
        k(  478) = (  -0.0343930   0.4909865   0.0000000), wk =   0.0011898
        k(  479) = (  -0.0343930   0.4923503   0.0000000), wk =   0.0011898
        k(  480) = (  -0.0343930   0.4937141   0.0000000), wk =   0.0011898
        k(  481) = (  -0.0343930   0.4950779   0.0000000), wk =   0.0011898
        k(  482) = (  -0.0343930   0.4964418   0.0000000), wk =   0.0011898
        k(  483) = (  -0.0343930   0.4978056   0.0000000), wk =   0.0011898
        k(  484) = (  -0.0343930   0.4991694   0.0000000), wk =   0.0011898
        k(  485) = (  -0.0343930   0.5005332   0.0000000), wk =   0.0011898
        k(  486) = (  -0.0343930   0.5018970   0.0000000), wk =   0.0011898
        k(  487) = (  -0.0343930   0.5032609   0.0000000), wk =   0.0011898
        k(  488) = (  -0.0343930   0.5046247   0.0000000), wk =   0.0011898
        k(  489) = (  -0.0343930   0.5059885   0.0000000), wk =   0.0011898
        k(  490) = (  -0.0343930   0.5073523   0.0000000), wk =   0.0011898
        k(  491) = (  -0.0343930   0.5087161   0.0000000), wk =   0.0011898
        k(  492) = (  -0.0343930   0.5100800   0.0000000), wk =   0.0011898
        k(  493) = (  -0.0323930   0.4565272   0.0000000), wk =   0.0011898
        k(  494) = (  -0.0323930   0.4578910   0.0000000), wk =   0.0011898
        k(  495) = (  -0.0323930   0.4592548   0.0000000), wk =   0.0011898
        k(  496) = (  -0.0323930   0.4606186   0.0000000), wk =   0.0011898
        k(  497) = (  -0.0323930   0.4619825   0.0000000), wk =   0.0011898
        k(  498) = (  -0.0323930   0.4633463   0.0000000), wk =   0.0011898
        k(  499) = (  -0.0323930   0.4647101   0.0000000), wk =   0.0011898
        k(  500) = (  -0.0323930   0.4660739   0.0000000), wk =   0.0011898
        k(  501) = (  -0.0323930   0.4674377   0.0000000), wk =   0.0011898
        k(  502) = (  -0.0323930   0.4688016   0.0000000), wk =   0.0011898
        k(  503) = (  -0.0323930   0.4701654   0.0000000), wk =   0.0011898
        k(  504) = (  -0.0323930   0.4715292   0.0000000), wk =   0.0011898
        k(  505) = (  -0.0323930   0.4728930   0.0000000), wk =   0.0011898
        k(  506) = (  -0.0323930   0.4742568   0.0000000), wk =   0.0011898
        k(  507) = (  -0.0323930   0.4756206   0.0000000), wk =   0.0011898
        k(  508) = (  -0.0323930   0.4769845   0.0000000), wk =   0.0011898
        k(  509) = (  -0.0323930   0.4783483   0.0000000), wk =   0.0011898
        k(  510) = (  -0.0323930   0.4797121   0.0000000), wk =   0.0011898
        k(  511) = (  -0.0323930   0.4810759   0.0000000), wk =   0.0011898
        k(  512) = (  -0.0323930   0.4824397   0.0000000), wk =   0.0011898
        k(  513) = (  -0.0323930   0.4838036   0.0000000), wk =   0.0011898
        k(  514) = (  -0.0323930   0.4851674   0.0000000), wk =   0.0011898
        k(  515) = (  -0.0323930   0.4865312   0.0000000), wk =   0.0011898
        k(  516) = (  -0.0323930   0.4878950   0.0000000), wk =   0.0011898
        k(  517) = (  -0.0323930   0.4892588   0.0000000), wk =   0.0011898
        k(  518) = (  -0.0323930   0.4906227   0.0000000), wk =   0.0011898
        k(  519) = (  -0.0323930   0.4919865   0.0000000), wk =   0.0011898
        k(  520) = (  -0.0323930   0.4933503   0.0000000), wk =   0.0011898
        k(  521) = (  -0.0323930   0.4947141   0.0000000), wk =   0.0011898
        k(  522) = (  -0.0323930   0.4960779   0.0000000), wk =   0.0011898
        k(  523) = (  -0.0323930   0.4974418   0.0000000), wk =   0.0011898
        k(  524) = (  -0.0323930   0.4988056   0.0000000), wk =   0.0011898
        k(  525) = (  -0.0323930   0.5001694   0.0000000), wk =   0.0011898
        k(  526) = (  -0.0323930   0.5015332   0.0000000), wk =   0.0011898
        k(  527) = (  -0.0323930   0.5028970   0.0000000), wk =   0.0011898
        k(  528) = (  -0.0323930   0.5042609   0.0000000), wk =   0.0011898
        k(  529) = (  -0.0323930   0.5056247   0.0000000), wk =   0.0011898
        k(  530) = (  -0.0323930   0.5069885   0.0000000), wk =   0.0011898
        k(  531) = (  -0.0323930   0.5083523   0.0000000), wk =   0.0011898
        k(  532) = (  -0.0323930   0.5097161   0.0000000), wk =   0.0011898
        k(  533) = (  -0.0323930   0.5110800   0.0000000), wk =   0.0011898
        k(  534) = (  -0.0303930   0.4575272   0.0000000), wk =   0.0011898
        k(  535) = (  -0.0303930   0.4588910   0.0000000), wk =   0.0011898
        k(  536) = (  -0.0303930   0.4602548   0.0000000), wk =   0.0011898
        k(  537) = (  -0.0303930   0.4616186   0.0000000), wk =   0.0011898
        k(  538) = (  -0.0303930   0.4629825   0.0000000), wk =   0.0011898
        k(  539) = (  -0.0303930   0.4643463   0.0000000), wk =   0.0011898
        k(  540) = (  -0.0303930   0.4657101   0.0000000), wk =   0.0011898
        k(  541) = (  -0.0303930   0.4670739   0.0000000), wk =   0.0011898
        k(  542) = (  -0.0303930   0.4684377   0.0000000), wk =   0.0011898
        k(  543) = (  -0.0303930   0.4698016   0.0000000), wk =   0.0011898
        k(  544) = (  -0.0303930   0.4711654   0.0000000), wk =   0.0011898
        k(  545) = (  -0.0303930   0.4725292   0.0000000), wk =   0.0011898
        k(  546) = (  -0.0303930   0.4738930   0.0000000), wk =   0.0011898
        k(  547) = (  -0.0303930   0.4752568   0.0000000), wk =   0.0011898
        k(  548) = (  -0.0303930   0.4766206   0.0000000), wk =   0.0011898
        k(  549) = (  -0.0303930   0.4779845   0.0000000), wk =   0.0011898
        k(  550) = (  -0.0303930   0.4793483   0.0000000), wk =   0.0011898
        k(  551) = (  -0.0303930   0.4807121   0.0000000), wk =   0.0011898
        k(  552) = (  -0.0303930   0.4820759   0.0000000), wk =   0.0011898
        k(  553) = (  -0.0303930   0.4834397   0.0000000), wk =   0.0011898
        k(  554) = (  -0.0303930   0.4848036   0.0000000), wk =   0.0011898
        k(  555) = (  -0.0303930   0.4861674   0.0000000), wk =   0.0011898
        k(  556) = (  -0.0303930   0.4875312   0.0000000), wk =   0.0011898
        k(  557) = (  -0.0303930   0.4888950   0.0000000), wk =   0.0011898
        k(  558) = (  -0.0303930   0.4902588   0.0000000), wk =   0.0011898
        k(  559) = (  -0.0303930   0.4916227   0.0000000), wk =   0.0011898
        k(  560) = (  -0.0303930   0.4929865   0.0000000), wk =   0.0011898
        k(  561) = (  -0.0303930   0.4943503   0.0000000), wk =   0.0011898
        k(  562) = (  -0.0303930   0.4957141   0.0000000), wk =   0.0011898
        k(  563) = (  -0.0303930   0.4970779   0.0000000), wk =   0.0011898
        k(  564) = (  -0.0303930   0.4984418   0.0000000), wk =   0.0011898
        k(  565) = (  -0.0303930   0.4998056   0.0000000), wk =   0.0011898
        k(  566) = (  -0.0303930   0.5011694   0.0000000), wk =   0.0011898
        k(  567) = (  -0.0303930   0.5025332   0.0000000), wk =   0.0011898
        k(  568) = (  -0.0303930   0.5038970   0.0000000), wk =   0.0011898
        k(  569) = (  -0.0303930   0.5052609   0.0000000), wk =   0.0011898
        k(  570) = (  -0.0303930   0.5066247   0.0000000), wk =   0.0011898
        k(  571) = (  -0.0303930   0.5079885   0.0000000), wk =   0.0011898
        k(  572) = (  -0.0303930   0.5093523   0.0000000), wk =   0.0011898
        k(  573) = (  -0.0303930   0.5107161   0.0000000), wk =   0.0011898
        k(  574) = (  -0.0303930   0.5120800   0.0000000), wk =   0.0011898
        k(  575) = (  -0.0283930   0.4585272   0.0000000), wk =   0.0011898
        k(  576) = (  -0.0283930   0.4598910   0.0000000), wk =   0.0011898
        k(  577) = (  -0.0283930   0.4612548   0.0000000), wk =   0.0011898
        k(  578) = (  -0.0283930   0.4626186   0.0000000), wk =   0.0011898
        k(  579) = (  -0.0283930   0.4639825   0.0000000), wk =   0.0011898
        k(  580) = (  -0.0283930   0.4653463   0.0000000), wk =   0.0011898
        k(  581) = (  -0.0283930   0.4667101   0.0000000), wk =   0.0011898
        k(  582) = (  -0.0283930   0.4680739   0.0000000), wk =   0.0011898
        k(  583) = (  -0.0283930   0.4694377   0.0000000), wk =   0.0011898
        k(  584) = (  -0.0283930   0.4708016   0.0000000), wk =   0.0011898
        k(  585) = (  -0.0283930   0.4721654   0.0000000), wk =   0.0011898
        k(  586) = (  -0.0283930   0.4735292   0.0000000), wk =   0.0011898
        k(  587) = (  -0.0283930   0.4748930   0.0000000), wk =   0.0011898
        k(  588) = (  -0.0283930   0.4762568   0.0000000), wk =   0.0011898
        k(  589) = (  -0.0283930   0.4776206   0.0000000), wk =   0.0011898
        k(  590) = (  -0.0283930   0.4789845   0.0000000), wk =   0.0011898
        k(  591) = (  -0.0283930   0.4803483   0.0000000), wk =   0.0011898
        k(  592) = (  -0.0283930   0.4817121   0.0000000), wk =   0.0011898
        k(  593) = (  -0.0283930   0.4830759   0.0000000), wk =   0.0011898
        k(  594) = (  -0.0283930   0.4844397   0.0000000), wk =   0.0011898
        k(  595) = (  -0.0283930   0.4858036   0.0000000), wk =   0.0011898
        k(  596) = (  -0.0283930   0.4871674   0.0000000), wk =   0.0011898
        k(  597) = (  -0.0283930   0.4885312   0.0000000), wk =   0.0011898
        k(  598) = (  -0.0283930   0.4898950   0.0000000), wk =   0.0011898
        k(  599) = (  -0.0283930   0.4912588   0.0000000), wk =   0.0011898
        k(  600) = (  -0.0283930   0.4926227   0.0000000), wk =   0.0011898
        k(  601) = (  -0.0283930   0.4939865   0.0000000), wk =   0.0011898
        k(  602) = (  -0.0283930   0.4953503   0.0000000), wk =   0.0011898
        k(  603) = (  -0.0283930   0.4967141   0.0000000), wk =   0.0011898
        k(  604) = (  -0.0283930   0.4980779   0.0000000), wk =   0.0011898
        k(  605) = (  -0.0283930   0.4994418   0.0000000), wk =   0.0011898
        k(  606) = (  -0.0283930   0.5008056   0.0000000), wk =   0.0011898
        k(  607) = (  -0.0283930   0.5021694   0.0000000), wk =   0.0011898
        k(  608) = (  -0.0283930   0.5035332   0.0000000), wk =   0.0011898
        k(  609) = (  -0.0283930   0.5048970   0.0000000), wk =   0.0011898
        k(  610) = (  -0.0283930   0.5062609   0.0000000), wk =   0.0011898
        k(  611) = (  -0.0283930   0.5076247   0.0000000), wk =   0.0011898
        k(  612) = (  -0.0283930   0.5089885   0.0000000), wk =   0.0011898
        k(  613) = (  -0.0283930   0.5103523   0.0000000), wk =   0.0011898
        k(  614) = (  -0.0283930   0.5117161   0.0000000), wk =   0.0011898
        k(  615) = (  -0.0283930   0.5130800   0.0000000), wk =   0.0011898
        k(  616) = (  -0.0263930   0.4595272   0.0000000), wk =   0.0011898
        k(  617) = (  -0.0263930   0.4608910   0.0000000), wk =   0.0011898
        k(  618) = (  -0.0263930   0.4622548   0.0000000), wk =   0.0011898
        k(  619) = (  -0.0263930   0.4636186   0.0000000), wk =   0.0011898
        k(  620) = (  -0.0263930   0.4649825   0.0000000), wk =   0.0011898
        k(  621) = (  -0.0263930   0.4663463   0.0000000), wk =   0.0011898
        k(  622) = (  -0.0263930   0.4677101   0.0000000), wk =   0.0011898
        k(  623) = (  -0.0263930   0.4690739   0.0000000), wk =   0.0011898
        k(  624) = (  -0.0263930   0.4704377   0.0000000), wk =   0.0011898
        k(  625) = (  -0.0263930   0.4718016   0.0000000), wk =   0.0011898
        k(  626) = (  -0.0263930   0.4731654   0.0000000), wk =   0.0011898
        k(  627) = (  -0.0263930   0.4745292   0.0000000), wk =   0.0011898
        k(  628) = (  -0.0263930   0.4758930   0.0000000), wk =   0.0011898
        k(  629) = (  -0.0263930   0.4772568   0.0000000), wk =   0.0011898
        k(  630) = (  -0.0263930   0.4786206   0.0000000), wk =   0.0011898
        k(  631) = (  -0.0263930   0.4799845   0.0000000), wk =   0.0011898
        k(  632) = (  -0.0263930   0.4813483   0.0000000), wk =   0.0011898
        k(  633) = (  -0.0263930   0.4827121   0.0000000), wk =   0.0011898
        k(  634) = (  -0.0263930   0.4840759   0.0000000), wk =   0.0011898
        k(  635) = (  -0.0263930   0.4854397   0.0000000), wk =   0.0011898
        k(  636) = (  -0.0263930   0.4868036   0.0000000), wk =   0.0011898
        k(  637) = (  -0.0263930   0.4881674   0.0000000), wk =   0.0011898
        k(  638) = (  -0.0263930   0.4895312   0.0000000), wk =   0.0011898
        k(  639) = (  -0.0263930   0.4908950   0.0000000), wk =   0.0011898
        k(  640) = (  -0.0263930   0.4922588   0.0000000), wk =   0.0011898
        k(  641) = (  -0.0263930   0.4936227   0.0000000), wk =   0.0011898
        k(  642) = (  -0.0263930   0.4949865   0.0000000), wk =   0.0011898
        k(  643) = (  -0.0263930   0.4963503   0.0000000), wk =   0.0011898
        k(  644) = (  -0.0263930   0.4977141   0.0000000), wk =   0.0011898
        k(  645) = (  -0.0263930   0.4990779   0.0000000), wk =   0.0011898
        k(  646) = (  -0.0263930   0.5004418   0.0000000), wk =   0.0011898
        k(  647) = (  -0.0263930   0.5018056   0.0000000), wk =   0.0011898
        k(  648) = (  -0.0263930   0.5031694   0.0000000), wk =   0.0011898
        k(  649) = (  -0.0263930   0.5045332   0.0000000), wk =   0.0011898
        k(  650) = (  -0.0263930   0.5058970   0.0000000), wk =   0.0011898
        k(  651) = (  -0.0263930   0.5072609   0.0000000), wk =   0.0011898
        k(  652) = (  -0.0263930   0.5086247   0.0000000), wk =   0.0011898
        k(  653) = (  -0.0263930   0.5099885   0.0000000), wk =   0.0011898
        k(  654) = (  -0.0263930   0.5113523   0.0000000), wk =   0.0011898
        k(  655) = (  -0.0263930   0.5127161   0.0000000), wk =   0.0011898
        k(  656) = (  -0.0263930   0.5140800   0.0000000), wk =   0.0011898
        k(  657) = (  -0.0243930   0.4605272   0.0000000), wk =   0.0011898
        k(  658) = (  -0.0243930   0.4618910   0.0000000), wk =   0.0011898
        k(  659) = (  -0.0243930   0.4632548   0.0000000), wk =   0.0011898
        k(  660) = (  -0.0243930   0.4646186   0.0000000), wk =   0.0011898
        k(  661) = (  -0.0243930   0.4659825   0.0000000), wk =   0.0011898
        k(  662) = (  -0.0243930   0.4673463   0.0000000), wk =   0.0011898
        k(  663) = (  -0.0243930   0.4687101   0.0000000), wk =   0.0011898
        k(  664) = (  -0.0243930   0.4700739   0.0000000), wk =   0.0011898
        k(  665) = (  -0.0243930   0.4714377   0.0000000), wk =   0.0011898
        k(  666) = (  -0.0243930   0.4728015   0.0000000), wk =   0.0011898
        k(  667) = (  -0.0243930   0.4741654   0.0000000), wk =   0.0011898
        k(  668) = (  -0.0243930   0.4755292   0.0000000), wk =   0.0011898
        k(  669) = (  -0.0243930   0.4768930   0.0000000), wk =   0.0011898
        k(  670) = (  -0.0243930   0.4782568   0.0000000), wk =   0.0011898
        k(  671) = (  -0.0243930   0.4796206   0.0000000), wk =   0.0011898
        k(  672) = (  -0.0243930   0.4809845   0.0000000), wk =   0.0011898
        k(  673) = (  -0.0243930   0.4823483   0.0000000), wk =   0.0011898
        k(  674) = (  -0.0243930   0.4837121   0.0000000), wk =   0.0011898
        k(  675) = (  -0.0243930   0.4850759   0.0000000), wk =   0.0011898
        k(  676) = (  -0.0243930   0.4864397   0.0000000), wk =   0.0011898
        k(  677) = (  -0.0243930   0.4878036   0.0000000), wk =   0.0011898
        k(  678) = (  -0.0243930   0.4891674   0.0000000), wk =   0.0011898
        k(  679) = (  -0.0243930   0.4905312   0.0000000), wk =   0.0011898
        k(  680) = (  -0.0243930   0.4918950   0.0000000), wk =   0.0011898
        k(  681) = (  -0.0243930   0.4932588   0.0000000), wk =   0.0011898
        k(  682) = (  -0.0243930   0.4946227   0.0000000), wk =   0.0011898
        k(  683) = (  -0.0243930   0.4959865   0.0000000), wk =   0.0011898
        k(  684) = (  -0.0243930   0.4973503   0.0000000), wk =   0.0011898
        k(  685) = (  -0.0243930   0.4987141   0.0000000), wk =   0.0011898
        k(  686) = (  -0.0243930   0.5000779   0.0000000), wk =   0.0011898
        k(  687) = (  -0.0243930   0.5014418   0.0000000), wk =   0.0011898
        k(  688) = (  -0.0243930   0.5028056   0.0000000), wk =   0.0011898
        k(  689) = (  -0.0243930   0.5041694   0.0000000), wk =   0.0011898
        k(  690) = (  -0.0243930   0.5055332   0.0000000), wk =   0.0011898
        k(  691) = (  -0.0243930   0.5068970   0.0000000), wk =   0.0011898
        k(  692) = (  -0.0243930   0.5082609   0.0000000), wk =   0.0011898
        k(  693) = (  -0.0243930   0.5096247   0.0000000), wk =   0.0011898
        k(  694) = (  -0.0243930   0.5109885   0.0000000), wk =   0.0011898
        k(  695) = (  -0.0243930   0.5123523   0.0000000), wk =   0.0011898
        k(  696) = (  -0.0243930   0.5137161   0.0000000), wk =   0.0011898
        k(  697) = (  -0.0243930   0.5150800   0.0000000), wk =   0.0011898
        k(  698) = (  -0.0223930   0.4615272   0.0000000), wk =   0.0011898
        k(  699) = (  -0.0223930   0.4628910   0.0000000), wk =   0.0011898
        k(  700) = (  -0.0223930   0.4642548   0.0000000), wk =   0.0011898
        k(  701) = (  -0.0223930   0.4656186   0.0000000), wk =   0.0011898
        k(  702) = (  -0.0223930   0.4669825   0.0000000), wk =   0.0011898
        k(  703) = (  -0.0223930   0.4683463   0.0000000), wk =   0.0011898
        k(  704) = (  -0.0223930   0.4697101   0.0000000), wk =   0.0011898
        k(  705) = (  -0.0223930   0.4710739   0.0000000), wk =   0.0011898
        k(  706) = (  -0.0223930   0.4724377   0.0000000), wk =   0.0011898
        k(  707) = (  -0.0223930   0.4738015   0.0000000), wk =   0.0011898
        k(  708) = (  -0.0223930   0.4751654   0.0000000), wk =   0.0011898
        k(  709) = (  -0.0223930   0.4765292   0.0000000), wk =   0.0011898
        k(  710) = (  -0.0223930   0.4778930   0.0000000), wk =   0.0011898
        k(  711) = (  -0.0223930   0.4792568   0.0000000), wk =   0.0011898
        k(  712) = (  -0.0223930   0.4806206   0.0000000), wk =   0.0011898
        k(  713) = (  -0.0223930   0.4819845   0.0000000), wk =   0.0011898
        k(  714) = (  -0.0223930   0.4833483   0.0000000), wk =   0.0011898
        k(  715) = (  -0.0223930   0.4847121   0.0000000), wk =   0.0011898
        k(  716) = (  -0.0223930   0.4860759   0.0000000), wk =   0.0011898
        k(  717) = (  -0.0223930   0.4874397   0.0000000), wk =   0.0011898
        k(  718) = (  -0.0223930   0.4888036   0.0000000), wk =   0.0011898
        k(  719) = (  -0.0223930   0.4901674   0.0000000), wk =   0.0011898
        k(  720) = (  -0.0223930   0.4915312   0.0000000), wk =   0.0011898
        k(  721) = (  -0.0223930   0.4928950   0.0000000), wk =   0.0011898
        k(  722) = (  -0.0223930   0.4942588   0.0000000), wk =   0.0011898
        k(  723) = (  -0.0223930   0.4956227   0.0000000), wk =   0.0011898
        k(  724) = (  -0.0223930   0.4969865   0.0000000), wk =   0.0011898
        k(  725) = (  -0.0223930   0.4983503   0.0000000), wk =   0.0011898
        k(  726) = (  -0.0223930   0.4997141   0.0000000), wk =   0.0011898
        k(  727) = (  -0.0223930   0.5010779   0.0000000), wk =   0.0011898
        k(  728) = (  -0.0223930   0.5024418   0.0000000), wk =   0.0011898
        k(  729) = (  -0.0223930   0.5038056   0.0000000), wk =   0.0011898
        k(  730) = (  -0.0223930   0.5051694   0.0000000), wk =   0.0011898
        k(  731) = (  -0.0223930   0.5065332   0.0000000), wk =   0.0011898
        k(  732) = (  -0.0223930   0.5078970   0.0000000), wk =   0.0011898
        k(  733) = (  -0.0223930   0.5092609   0.0000000), wk =   0.0011898
        k(  734) = (  -0.0223930   0.5106247   0.0000000), wk =   0.0011898
        k(  735) = (  -0.0223930   0.5119885   0.0000000), wk =   0.0011898
        k(  736) = (  -0.0223930   0.5133523   0.0000000), wk =   0.0011898
        k(  737) = (  -0.0223930   0.5147161   0.0000000), wk =   0.0011898
        k(  738) = (  -0.0223930   0.5160800   0.0000000), wk =   0.0011898
        k(  739) = (  -0.0203930   0.4625272   0.0000000), wk =   0.0011898
        k(  740) = (  -0.0203930   0.4638910   0.0000000), wk =   0.0011898
        k(  741) = (  -0.0203930   0.4652548   0.0000000), wk =   0.0011898
        k(  742) = (  -0.0203930   0.4666186   0.0000000), wk =   0.0011898
        k(  743) = (  -0.0203930   0.4679825   0.0000000), wk =   0.0011898
        k(  744) = (  -0.0203930   0.4693463   0.0000000), wk =   0.0011898
        k(  745) = (  -0.0203930   0.4707101   0.0000000), wk =   0.0011898
        k(  746) = (  -0.0203930   0.4720739   0.0000000), wk =   0.0011898
        k(  747) = (  -0.0203930   0.4734377   0.0000000), wk =   0.0011898
        k(  748) = (  -0.0203930   0.4748015   0.0000000), wk =   0.0011898
        k(  749) = (  -0.0203930   0.4761654   0.0000000), wk =   0.0011898
        k(  750) = (  -0.0203930   0.4775292   0.0000000), wk =   0.0011898
        k(  751) = (  -0.0203930   0.4788930   0.0000000), wk =   0.0011898
        k(  752) = (  -0.0203930   0.4802568   0.0000000), wk =   0.0011898
        k(  753) = (  -0.0203930   0.4816206   0.0000000), wk =   0.0011898
        k(  754) = (  -0.0203930   0.4829845   0.0000000), wk =   0.0011898
        k(  755) = (  -0.0203930   0.4843483   0.0000000), wk =   0.0011898
        k(  756) = (  -0.0203930   0.4857121   0.0000000), wk =   0.0011898
        k(  757) = (  -0.0203930   0.4870759   0.0000000), wk =   0.0011898
        k(  758) = (  -0.0203930   0.4884397   0.0000000), wk =   0.0011898
        k(  759) = (  -0.0203930   0.4898036   0.0000000), wk =   0.0011898
        k(  760) = (  -0.0203930   0.4911674   0.0000000), wk =   0.0011898
        k(  761) = (  -0.0203930   0.4925312   0.0000000), wk =   0.0011898
        k(  762) = (  -0.0203930   0.4938950   0.0000000), wk =   0.0011898
        k(  763) = (  -0.0203930   0.4952588   0.0000000), wk =   0.0011898
        k(  764) = (  -0.0203930   0.4966227   0.0000000), wk =   0.0011898
        k(  765) = (  -0.0203930   0.4979865   0.0000000), wk =   0.0011898
        k(  766) = (  -0.0203930   0.4993503   0.0000000), wk =   0.0011898
        k(  767) = (  -0.0203930   0.5007141   0.0000000), wk =   0.0011898
        k(  768) = (  -0.0203930   0.5020779   0.0000000), wk =   0.0011898
        k(  769) = (  -0.0203930   0.5034418   0.0000000), wk =   0.0011898
        k(  770) = (  -0.0203930   0.5048056   0.0000000), wk =   0.0011898
        k(  771) = (  -0.0203930   0.5061694   0.0000000), wk =   0.0011898
        k(  772) = (  -0.0203930   0.5075332   0.0000000), wk =   0.0011898
        k(  773) = (  -0.0203930   0.5088970   0.0000000), wk =   0.0011898
        k(  774) = (  -0.0203930   0.5102609   0.0000000), wk =   0.0011898
        k(  775) = (  -0.0203930   0.5116247   0.0000000), wk =   0.0011898
        k(  776) = (  -0.0203930   0.5129885   0.0000000), wk =   0.0011898
        k(  777) = (  -0.0203930   0.5143523   0.0000000), wk =   0.0011898
        k(  778) = (  -0.0203930   0.5157161   0.0000000), wk =   0.0011898
        k(  779) = (  -0.0203930   0.5170800   0.0000000), wk =   0.0011898
        k(  780) = (  -0.0183930   0.4635272   0.0000000), wk =   0.0011898
        k(  781) = (  -0.0183930   0.4648910   0.0000000), wk =   0.0011898
        k(  782) = (  -0.0183930   0.4662548   0.0000000), wk =   0.0011898
        k(  783) = (  -0.0183930   0.4676186   0.0000000), wk =   0.0011898
        k(  784) = (  -0.0183930   0.4689825   0.0000000), wk =   0.0011898
        k(  785) = (  -0.0183930   0.4703463   0.0000000), wk =   0.0011898
        k(  786) = (  -0.0183930   0.4717101   0.0000000), wk =   0.0011898
        k(  787) = (  -0.0183930   0.4730739   0.0000000), wk =   0.0011898
        k(  788) = (  -0.0183930   0.4744377   0.0000000), wk =   0.0011898
        k(  789) = (  -0.0183930   0.4758015   0.0000000), wk =   0.0011898
        k(  790) = (  -0.0183930   0.4771654   0.0000000), wk =   0.0011898
        k(  791) = (  -0.0183930   0.4785292   0.0000000), wk =   0.0011898
        k(  792) = (  -0.0183930   0.4798930   0.0000000), wk =   0.0011898
        k(  793) = (  -0.0183930   0.4812568   0.0000000), wk =   0.0011898
        k(  794) = (  -0.0183930   0.4826206   0.0000000), wk =   0.0011898
        k(  795) = (  -0.0183930   0.4839845   0.0000000), wk =   0.0011898
        k(  796) = (  -0.0183930   0.4853483   0.0000000), wk =   0.0011898
        k(  797) = (  -0.0183930   0.4867121   0.0000000), wk =   0.0011898
        k(  798) = (  -0.0183930   0.4880759   0.0000000), wk =   0.0011898
        k(  799) = (  -0.0183930   0.4894397   0.0000000), wk =   0.0011898
        k(  800) = (  -0.0183930   0.4908036   0.0000000), wk =   0.0011898
        k(  801) = (  -0.0183930   0.4921674   0.0000000), wk =   0.0011898
        k(  802) = (  -0.0183930   0.4935312   0.0000000), wk =   0.0011898
        k(  803) = (  -0.0183930   0.4948950   0.0000000), wk =   0.0011898
        k(  804) = (  -0.0183930   0.4962588   0.0000000), wk =   0.0011898
        k(  805) = (  -0.0183930   0.4976227   0.0000000), wk =   0.0011898
        k(  806) = (  -0.0183930   0.4989865   0.0000000), wk =   0.0011898
        k(  807) = (  -0.0183930   0.5003503   0.0000000), wk =   0.0011898
        k(  808) = (  -0.0183930   0.5017141   0.0000000), wk =   0.0011898
        k(  809) = (  -0.0183930   0.5030779   0.0000000), wk =   0.0011898
        k(  810) = (  -0.0183930   0.5044418   0.0000000), wk =   0.0011898
        k(  811) = (  -0.0183930   0.5058056   0.0000000), wk =   0.0011898
        k(  812) = (  -0.0183930   0.5071694   0.0000000), wk =   0.0011898
        k(  813) = (  -0.0183930   0.5085332   0.0000000), wk =   0.0011898
        k(  814) = (  -0.0183930   0.5098970   0.0000000), wk =   0.0011898
        k(  815) = (  -0.0183930   0.5112609   0.0000000), wk =   0.0011898
        k(  816) = (  -0.0183930   0.5126247   0.0000000), wk =   0.0011898
        k(  817) = (  -0.0183930   0.5139885   0.0000000), wk =   0.0011898
        k(  818) = (  -0.0183930   0.5153523   0.0000000), wk =   0.0011898
        k(  819) = (  -0.0183930   0.5167161   0.0000000), wk =   0.0011898
        k(  820) = (  -0.0183930   0.5180800   0.0000000), wk =   0.0011898
        k(  821) = (  -0.0163930   0.4645272   0.0000000), wk =   0.0011898
        k(  822) = (  -0.0163930   0.4658910   0.0000000), wk =   0.0011898
        k(  823) = (  -0.0163930   0.4672548   0.0000000), wk =   0.0011898
        k(  824) = (  -0.0163930   0.4686186   0.0000000), wk =   0.0011898
        k(  825) = (  -0.0163930   0.4699825   0.0000000), wk =   0.0011898
        k(  826) = (  -0.0163930   0.4713463   0.0000000), wk =   0.0011898
        k(  827) = (  -0.0163930   0.4727101   0.0000000), wk =   0.0011898
        k(  828) = (  -0.0163930   0.4740739   0.0000000), wk =   0.0011898
        k(  829) = (  -0.0163930   0.4754377   0.0000000), wk =   0.0011898
        k(  830) = (  -0.0163930   0.4768015   0.0000000), wk =   0.0011898
        k(  831) = (  -0.0163930   0.4781654   0.0000000), wk =   0.0011898
        k(  832) = (  -0.0163930   0.4795292   0.0000000), wk =   0.0011898
        k(  833) = (  -0.0163930   0.4808930   0.0000000), wk =   0.0011898
        k(  834) = (  -0.0163930   0.4822568   0.0000000), wk =   0.0011898
        k(  835) = (  -0.0163930   0.4836206   0.0000000), wk =   0.0011898
        k(  836) = (  -0.0163930   0.4849845   0.0000000), wk =   0.0011898
        k(  837) = (  -0.0163930   0.4863483   0.0000000), wk =   0.0011898
        k(  838) = (  -0.0163930   0.4877121   0.0000000), wk =   0.0011898
        k(  839) = (  -0.0163930   0.4890759   0.0000000), wk =   0.0011898
        k(  840) = (  -0.0163930   0.4904397   0.0000000), wk =   0.0011898
        k(  841) = (  -0.0163930   0.4918036   0.0000000), wk =   0.0011898
        k(  842) = (  -0.0163930   0.4931674   0.0000000), wk =   0.0011898
        k(  843) = (  -0.0163930   0.4945312   0.0000000), wk =   0.0011898
        k(  844) = (  -0.0163930   0.4958950   0.0000000), wk =   0.0011898
        k(  845) = (  -0.0163930   0.4972588   0.0000000), wk =   0.0011898
        k(  846) = (  -0.0163930   0.4986227   0.0000000), wk =   0.0011898
        k(  847) = (  -0.0163930   0.4999865   0.0000000), wk =   0.0011898
        k(  848) = (  -0.0163930   0.5013503   0.0000000), wk =   0.0011898
        k(  849) = (  -0.0163930   0.5027141   0.0000000), wk =   0.0011898
        k(  850) = (  -0.0163930   0.5040779   0.0000000), wk =   0.0011898
        k(  851) = (  -0.0163930   0.5054418   0.0000000), wk =   0.0011898
        k(  852) = (  -0.0163930   0.5068056   0.0000000), wk =   0.0011898
        k(  853) = (  -0.0163930   0.5081694   0.0000000), wk =   0.0011898
        k(  854) = (  -0.0163930   0.5095332   0.0000000), wk =   0.0011898
        k(  855) = (  -0.0163930   0.5108970   0.0000000), wk =   0.0011898
        k(  856) = (  -0.0163930   0.5122609   0.0000000), wk =   0.0011898
        k(  857) = (  -0.0163930   0.5136247   0.0000000), wk =   0.0011898
        k(  858) = (  -0.0163930   0.5149885   0.0000000), wk =   0.0011898
        k(  859) = (  -0.0163930   0.5163523   0.0000000), wk =   0.0011898
        k(  860) = (  -0.0163930   0.5177161   0.0000000), wk =   0.0011898
        k(  861) = (  -0.0163930   0.5190800   0.0000000), wk =   0.0011898
        k(  862) = (  -0.0143930   0.4655272   0.0000000), wk =   0.0011898
        k(  863) = (  -0.0143930   0.4668910   0.0000000), wk =   0.0011898
        k(  864) = (  -0.0143930   0.4682548   0.0000000), wk =   0.0011898
        k(  865) = (  -0.0143930   0.4696186   0.0000000), wk =   0.0011898
        k(  866) = (  -0.0143930   0.4709825   0.0000000), wk =   0.0011898
        k(  867) = (  -0.0143930   0.4723463   0.0000000), wk =   0.0011898
        k(  868) = (  -0.0143930   0.4737101   0.0000000), wk =   0.0011898
        k(  869) = (  -0.0143930   0.4750739   0.0000000), wk =   0.0011898
        k(  870) = (  -0.0143930   0.4764377   0.0000000), wk =   0.0011898
        k(  871) = (  -0.0143930   0.4778015   0.0000000), wk =   0.0011898
        k(  872) = (  -0.0143930   0.4791654   0.0000000), wk =   0.0011898
        k(  873) = (  -0.0143930   0.4805292   0.0000000), wk =   0.0011898
        k(  874) = (  -0.0143930   0.4818930   0.0000000), wk =   0.0011898
        k(  875) = (  -0.0143930   0.4832568   0.0000000), wk =   0.0011898
        k(  876) = (  -0.0143930   0.4846206   0.0000000), wk =   0.0011898
        k(  877) = (  -0.0143930   0.4859845   0.0000000), wk =   0.0011898
        k(  878) = (  -0.0143930   0.4873483   0.0000000), wk =   0.0011898
        k(  879) = (  -0.0143930   0.4887121   0.0000000), wk =   0.0011898
        k(  880) = (  -0.0143930   0.4900759   0.0000000), wk =   0.0011898
        k(  881) = (  -0.0143930   0.4914397   0.0000000), wk =   0.0011898
        k(  882) = (  -0.0143930   0.4928036   0.0000000), wk =   0.0011898
        k(  883) = (  -0.0143930   0.4941674   0.0000000), wk =   0.0011898
        k(  884) = (  -0.0143930   0.4955312   0.0000000), wk =   0.0011898
        k(  885) = (  -0.0143930   0.4968950   0.0000000), wk =   0.0011898
        k(  886) = (  -0.0143930   0.4982588   0.0000000), wk =   0.0011898
        k(  887) = (  -0.0143930   0.4996227   0.0000000), wk =   0.0011898
        k(  888) = (  -0.0143930   0.5009865   0.0000000), wk =   0.0011898
        k(  889) = (  -0.0143930   0.5023503   0.0000000), wk =   0.0011898
        k(  890) = (  -0.0143930   0.5037141   0.0000000), wk =   0.0011898
        k(  891) = (  -0.0143930   0.5050779   0.0000000), wk =   0.0011898
        k(  892) = (  -0.0143930   0.5064418   0.0000000), wk =   0.0011898
        k(  893) = (  -0.0143930   0.5078056   0.0000000), wk =   0.0011898
        k(  894) = (  -0.0143930   0.5091694   0.0000000), wk =   0.0011898
        k(  895) = (  -0.0143930   0.5105332   0.0000000), wk =   0.0011898
        k(  896) = (  -0.0143930   0.5118970   0.0000000), wk =   0.0011898
        k(  897) = (  -0.0143930   0.5132609   0.0000000), wk =   0.0011898
        k(  898) = (  -0.0143930   0.5146247   0.0000000), wk =   0.0011898
        k(  899) = (  -0.0143930   0.5159885   0.0000000), wk =   0.0011898
        k(  900) = (  -0.0143930   0.5173523   0.0000000), wk =   0.0011898
        k(  901) = (  -0.0143930   0.5187161   0.0000000), wk =   0.0011898
        k(  902) = (  -0.0143930   0.5200800   0.0000000), wk =   0.0011898
        k(  903) = (  -0.0123930   0.4665272   0.0000000), wk =   0.0011898
        k(  904) = (  -0.0123930   0.4678910   0.0000000), wk =   0.0011898
        k(  905) = (  -0.0123930   0.4692548   0.0000000), wk =   0.0011898
        k(  906) = (  -0.0123930   0.4706186   0.0000000), wk =   0.0011898
        k(  907) = (  -0.0123930   0.4719825   0.0000000), wk =   0.0011898
        k(  908) = (  -0.0123930   0.4733463   0.0000000), wk =   0.0011898
        k(  909) = (  -0.0123930   0.4747101   0.0000000), wk =   0.0011898
        k(  910) = (  -0.0123930   0.4760739   0.0000000), wk =   0.0011898
        k(  911) = (  -0.0123930   0.4774377   0.0000000), wk =   0.0011898
        k(  912) = (  -0.0123930   0.4788015   0.0000000), wk =   0.0011898
        k(  913) = (  -0.0123930   0.4801654   0.0000000), wk =   0.0011898
        k(  914) = (  -0.0123930   0.4815292   0.0000000), wk =   0.0011898
        k(  915) = (  -0.0123930   0.4828930   0.0000000), wk =   0.0011898
        k(  916) = (  -0.0123930   0.4842568   0.0000000), wk =   0.0011898
        k(  917) = (  -0.0123930   0.4856206   0.0000000), wk =   0.0011898
        k(  918) = (  -0.0123930   0.4869845   0.0000000), wk =   0.0011898
        k(  919) = (  -0.0123930   0.4883483   0.0000000), wk =   0.0011898
        k(  920) = (  -0.0123930   0.4897121   0.0000000), wk =   0.0011898
        k(  921) = (  -0.0123930   0.4910759   0.0000000), wk =   0.0011898
        k(  922) = (  -0.0123930   0.4924397   0.0000000), wk =   0.0011898
        k(  923) = (  -0.0123930   0.4938036   0.0000000), wk =   0.0011898
        k(  924) = (  -0.0123930   0.4951674   0.0000000), wk =   0.0011898
        k(  925) = (  -0.0123930   0.4965312   0.0000000), wk =   0.0011898
        k(  926) = (  -0.0123930   0.4978950   0.0000000), wk =   0.0011898
        k(  927) = (  -0.0123930   0.4992588   0.0000000), wk =   0.0011898
        k(  928) = (  -0.0123930   0.5006227   0.0000000), wk =   0.0011898
        k(  929) = (  -0.0123930   0.5019865   0.0000000), wk =   0.0011898
        k(  930) = (  -0.0123930   0.5033503   0.0000000), wk =   0.0011898
        k(  931) = (  -0.0123930   0.5047141   0.0000000), wk =   0.0011898
        k(  932) = (  -0.0123930   0.5060779   0.0000000), wk =   0.0011898
        k(  933) = (  -0.0123930   0.5074418   0.0000000), wk =   0.0011898
        k(  934) = (  -0.0123930   0.5088056   0.0000000), wk =   0.0011898
        k(  935) = (  -0.0123930   0.5101694   0.0000000), wk =   0.0011898
        k(  936) = (  -0.0123930   0.5115332   0.0000000), wk =   0.0011898
        k(  937) = (  -0.0123930   0.5128970   0.0000000), wk =   0.0011898
        k(  938) = (  -0.0123930   0.5142609   0.0000000), wk =   0.0011898
        k(  939) = (  -0.0123930   0.5156247   0.0000000), wk =   0.0011898
        k(  940) = (  -0.0123930   0.5169885   0.0000000), wk =   0.0011898
        k(  941) = (  -0.0123930   0.5183523   0.0000000), wk =   0.0011898
        k(  942) = (  -0.0123930   0.5197161   0.0000000), wk =   0.0011898
        k(  943) = (  -0.0123930   0.5210800   0.0000000), wk =   0.0011898
        k(  944) = (  -0.0103930   0.4675272   0.0000000), wk =   0.0011898
        k(  945) = (  -0.0103930   0.4688910   0.0000000), wk =   0.0011898
        k(  946) = (  -0.0103930   0.4702548   0.0000000), wk =   0.0011898
        k(  947) = (  -0.0103930   0.4716186   0.0000000), wk =   0.0011898
        k(  948) = (  -0.0103930   0.4729825   0.0000000), wk =   0.0011898
        k(  949) = (  -0.0103930   0.4743463   0.0000000), wk =   0.0011898
        k(  950) = (  -0.0103930   0.4757101   0.0000000), wk =   0.0011898
        k(  951) = (  -0.0103930   0.4770739   0.0000000), wk =   0.0011898
        k(  952) = (  -0.0103930   0.4784377   0.0000000), wk =   0.0011898
        k(  953) = (  -0.0103930   0.4798015   0.0000000), wk =   0.0011898
        k(  954) = (  -0.0103930   0.4811654   0.0000000), wk =   0.0011898
        k(  955) = (  -0.0103930   0.4825292   0.0000000), wk =   0.0011898
        k(  956) = (  -0.0103930   0.4838930   0.0000000), wk =   0.0011898
        k(  957) = (  -0.0103930   0.4852568   0.0000000), wk =   0.0011898
        k(  958) = (  -0.0103930   0.4866206   0.0000000), wk =   0.0011898
        k(  959) = (  -0.0103930   0.4879845   0.0000000), wk =   0.0011898
        k(  960) = (  -0.0103930   0.4893483   0.0000000), wk =   0.0011898
        k(  961) = (  -0.0103930   0.4907121   0.0000000), wk =   0.0011898
        k(  962) = (  -0.0103930   0.4920759   0.0000000), wk =   0.0011898
        k(  963) = (  -0.0103930   0.4934397   0.0000000), wk =   0.0011898
        k(  964) = (  -0.0103930   0.4948036   0.0000000), wk =   0.0011898
        k(  965) = (  -0.0103930   0.4961674   0.0000000), wk =   0.0011898
        k(  966) = (  -0.0103930   0.4975312   0.0000000), wk =   0.0011898
        k(  967) = (  -0.0103930   0.4988950   0.0000000), wk =   0.0011898
        k(  968) = (  -0.0103930   0.5002588   0.0000000), wk =   0.0011898
        k(  969) = (  -0.0103930   0.5016227   0.0000000), wk =   0.0011898
        k(  970) = (  -0.0103930   0.5029865   0.0000000), wk =   0.0011898
        k(  971) = (  -0.0103930   0.5043503   0.0000000), wk =   0.0011898
        k(  972) = (  -0.0103930   0.5057141   0.0000000), wk =   0.0011898
        k(  973) = (  -0.0103930   0.5070779   0.0000000), wk =   0.0011898
        k(  974) = (  -0.0103930   0.5084418   0.0000000), wk =   0.0011898
        k(  975) = (  -0.0103930   0.5098056   0.0000000), wk =   0.0011898
        k(  976) = (  -0.0103930   0.5111694   0.0000000), wk =   0.0011898
        k(  977) = (  -0.0103930   0.5125332   0.0000000), wk =   0.0011898
        k(  978) = (  -0.0103930   0.5138970   0.0000000), wk =   0.0011898
        k(  979) = (  -0.0103930   0.5152609   0.0000000), wk =   0.0011898
        k(  980) = (  -0.0103930   0.5166247   0.0000000), wk =   0.0011898
        k(  981) = (  -0.0103930   0.5179885   0.0000000), wk =   0.0011898
        k(  982) = (  -0.0103930   0.5193523   0.0000000), wk =   0.0011898
        k(  983) = (  -0.0103930   0.5207161   0.0000000), wk =   0.0011898
        k(  984) = (  -0.0103930   0.5220800   0.0000000), wk =   0.0011898
        k(  985) = (  -0.0083930   0.4685272   0.0000000), wk =   0.0011898
        k(  986) = (  -0.0083930   0.4698910   0.0000000), wk =   0.0011898
        k(  987) = (  -0.0083930   0.4712548   0.0000000), wk =   0.0011898
        k(  988) = (  -0.0083930   0.4726186   0.0000000), wk =   0.0011898
        k(  989) = (  -0.0083930   0.4739825   0.0000000), wk =   0.0011898
        k(  990) = (  -0.0083930   0.4753463   0.0000000), wk =   0.0011898
        k(  991) = (  -0.0083930   0.4767101   0.0000000), wk =   0.0011898
        k(  992) = (  -0.0083930   0.4780739   0.0000000), wk =   0.0011898
        k(  993) = (  -0.0083930   0.4794377   0.0000000), wk =   0.0011898
        k(  994) = (  -0.0083930   0.4808015   0.0000000), wk =   0.0011898
        k(  995) = (  -0.0083930   0.4821654   0.0000000), wk =   0.0011898
        k(  996) = (  -0.0083930   0.4835292   0.0000000), wk =   0.0011898
        k(  997) = (  -0.0083930   0.4848930   0.0000000), wk =   0.0011898
        k(  998) = (  -0.0083930   0.4862568   0.0000000), wk =   0.0011898
        k(  999) = (  -0.0083930   0.4876206   0.0000000), wk =   0.0011898
        k( 1000) = (  -0.0083930   0.4889845   0.0000000), wk =   0.0011898
        k( 1001) = (  -0.0083930   0.4903483   0.0000000), wk =   0.0011898
        k( 1002) = (  -0.0083930   0.4917121   0.0000000), wk =   0.0011898
        k( 1003) = (  -0.0083930   0.4930759   0.0000000), wk =   0.0011898
        k( 1004) = (  -0.0083930   0.4944397   0.0000000), wk =   0.0011898
        k( 1005) = (  -0.0083930   0.4958036   0.0000000), wk =   0.0011898
        k( 1006) = (  -0.0083930   0.4971674   0.0000000), wk =   0.0011898
        k( 1007) = (  -0.0083930   0.4985312   0.0000000), wk =   0.0011898
        k( 1008) = (  -0.0083930   0.4998950   0.0000000), wk =   0.0011898
        k( 1009) = (  -0.0083930   0.5012588   0.0000000), wk =   0.0011898
        k( 1010) = (  -0.0083930   0.5026227   0.0000000), wk =   0.0011898
        k( 1011) = (  -0.0083930   0.5039865   0.0000000), wk =   0.0011898
        k( 1012) = (  -0.0083930   0.5053503   0.0000000), wk =   0.0011898
        k( 1013) = (  -0.0083930   0.5067141   0.0000000), wk =   0.0011898
        k( 1014) = (  -0.0083930   0.5080779   0.0000000), wk =   0.0011898
        k( 1015) = (  -0.0083930   0.5094418   0.0000000), wk =   0.0011898
        k( 1016) = (  -0.0083930   0.5108056   0.0000000), wk =   0.0011898
        k( 1017) = (  -0.0083930   0.5121694   0.0000000), wk =   0.0011898
        k( 1018) = (  -0.0083930   0.5135332   0.0000000), wk =   0.0011898
        k( 1019) = (  -0.0083930   0.5148970   0.0000000), wk =   0.0011898
        k( 1020) = (  -0.0083930   0.5162609   0.0000000), wk =   0.0011898
        k( 1021) = (  -0.0083930   0.5176247   0.0000000), wk =   0.0011898
        k( 1022) = (  -0.0083930   0.5189885   0.0000000), wk =   0.0011898
        k( 1023) = (  -0.0083930   0.5203523   0.0000000), wk =   0.0011898
        k( 1024) = (  -0.0083930   0.5217161   0.0000000), wk =   0.0011898
        k( 1025) = (  -0.0083930   0.5230800   0.0000000), wk =   0.0011898
        k( 1026) = (  -0.0063930   0.4695272   0.0000000), wk =   0.0011898
        k( 1027) = (  -0.0063930   0.4708910   0.0000000), wk =   0.0011898
        k( 1028) = (  -0.0063930   0.4722548   0.0000000), wk =   0.0011898
        k( 1029) = (  -0.0063930   0.4736186   0.0000000), wk =   0.0011898
        k( 1030) = (  -0.0063930   0.4749825   0.0000000), wk =   0.0011898
        k( 1031) = (  -0.0063930   0.4763463   0.0000000), wk =   0.0011898
        k( 1032) = (  -0.0063930   0.4777101   0.0000000), wk =   0.0011898
        k( 1033) = (  -0.0063930   0.4790739   0.0000000), wk =   0.0011898
        k( 1034) = (  -0.0063930   0.4804377   0.0000000), wk =   0.0011898
        k( 1035) = (  -0.0063930   0.4818015   0.0000000), wk =   0.0011898
        k( 1036) = (  -0.0063930   0.4831654   0.0000000), wk =   0.0011898
        k( 1037) = (  -0.0063930   0.4845292   0.0000000), wk =   0.0011898
        k( 1038) = (  -0.0063930   0.4858930   0.0000000), wk =   0.0011898
        k( 1039) = (  -0.0063930   0.4872568   0.0000000), wk =   0.0011898
        k( 1040) = (  -0.0063930   0.4886206   0.0000000), wk =   0.0011898
        k( 1041) = (  -0.0063930   0.4899845   0.0000000), wk =   0.0011898
        k( 1042) = (  -0.0063930   0.4913483   0.0000000), wk =   0.0011898
        k( 1043) = (  -0.0063930   0.4927121   0.0000000), wk =   0.0011898
        k( 1044) = (  -0.0063930   0.4940759   0.0000000), wk =   0.0011898
        k( 1045) = (  -0.0063930   0.4954397   0.0000000), wk =   0.0011898
        k( 1046) = (  -0.0063930   0.4968036   0.0000000), wk =   0.0011898
        k( 1047) = (  -0.0063930   0.4981674   0.0000000), wk =   0.0011898
        k( 1048) = (  -0.0063930   0.4995312   0.0000000), wk =   0.0011898
        k( 1049) = (  -0.0063930   0.5008950   0.0000000), wk =   0.0011898
        k( 1050) = (  -0.0063930   0.5022588   0.0000000), wk =   0.0011898
        k( 1051) = (  -0.0063930   0.5036227   0.0000000), wk =   0.0011898
        k( 1052) = (  -0.0063930   0.5049865   0.0000000), wk =   0.0011898
        k( 1053) = (  -0.0063930   0.5063503   0.0000000), wk =   0.0011898
        k( 1054) = (  -0.0063930   0.5077141   0.0000000), wk =   0.0011898
        k( 1055) = (  -0.0063930   0.5090779   0.0000000), wk =   0.0011898
        k( 1056) = (  -0.0063930   0.5104418   0.0000000), wk =   0.0011898
        k( 1057) = (  -0.0063930   0.5118056   0.0000000), wk =   0.0011898
        k( 1058) = (  -0.0063930   0.5131694   0.0000000), wk =   0.0011898
        k( 1059) = (  -0.0063930   0.5145332   0.0000000), wk =   0.0011898
        k( 1060) = (  -0.0063930   0.5158970   0.0000000), wk =   0.0011898
        k( 1061) = (  -0.0063930   0.5172609   0.0000000), wk =   0.0011898
        k( 1062) = (  -0.0063930   0.5186247   0.0000000), wk =   0.0011898
        k( 1063) = (  -0.0063930   0.5199885   0.0000000), wk =   0.0011898
        k( 1064) = (  -0.0063930   0.5213523   0.0000000), wk =   0.0011898
        k( 1065) = (  -0.0063930   0.5227161   0.0000000), wk =   0.0011898
        k( 1066) = (  -0.0063930   0.5240799   0.0000000), wk =   0.0011898
        k( 1067) = (  -0.0043930   0.4705272   0.0000000), wk =   0.0011898
        k( 1068) = (  -0.0043930   0.4718910   0.0000000), wk =   0.0011898
        k( 1069) = (  -0.0043930   0.4732548   0.0000000), wk =   0.0011898
        k( 1070) = (  -0.0043930   0.4746186   0.0000000), wk =   0.0011898
        k( 1071) = (  -0.0043930   0.4759825   0.0000000), wk =   0.0011898
        k( 1072) = (  -0.0043930   0.4773463   0.0000000), wk =   0.0011898
        k( 1073) = (  -0.0043930   0.4787101   0.0000000), wk =   0.0011898
        k( 1074) = (  -0.0043930   0.4800739   0.0000000), wk =   0.0011898
        k( 1075) = (  -0.0043930   0.4814377   0.0000000), wk =   0.0011898
        k( 1076) = (  -0.0043930   0.4828015   0.0000000), wk =   0.0011898
        k( 1077) = (  -0.0043930   0.4841654   0.0000000), wk =   0.0011898
        k( 1078) = (  -0.0043930   0.4855292   0.0000000), wk =   0.0011898
        k( 1079) = (  -0.0043930   0.4868930   0.0000000), wk =   0.0011898
        k( 1080) = (  -0.0043930   0.4882568   0.0000000), wk =   0.0011898
        k( 1081) = (  -0.0043930   0.4896206   0.0000000), wk =   0.0011898
        k( 1082) = (  -0.0043930   0.4909845   0.0000000), wk =   0.0011898
        k( 1083) = (  -0.0043930   0.4923483   0.0000000), wk =   0.0011898
        k( 1084) = (  -0.0043930   0.4937121   0.0000000), wk =   0.0011898
        k( 1085) = (  -0.0043930   0.4950759   0.0000000), wk =   0.0011898
        k( 1086) = (  -0.0043930   0.4964397   0.0000000), wk =   0.0011898
        k( 1087) = (  -0.0043930   0.4978036   0.0000000), wk =   0.0011898
        k( 1088) = (  -0.0043930   0.4991674   0.0000000), wk =   0.0011898
        k( 1089) = (  -0.0043930   0.5005312   0.0000000), wk =   0.0011898
        k( 1090) = (  -0.0043930   0.5018950   0.0000000), wk =   0.0011898
        k( 1091) = (  -0.0043930   0.5032588   0.0000000), wk =   0.0011898
        k( 1092) = (  -0.0043930   0.5046227   0.0000000), wk =   0.0011898
        k( 1093) = (  -0.0043930   0.5059865   0.0000000), wk =   0.0011898
        k( 1094) = (  -0.0043930   0.5073503   0.0000000), wk =   0.0011898
        k( 1095) = (  -0.0043930   0.5087141   0.0000000), wk =   0.0011898
        k( 1096) = (  -0.0043930   0.5100779   0.0000000), wk =   0.0011898
        k( 1097) = (  -0.0043930   0.5114418   0.0000000), wk =   0.0011898
        k( 1098) = (  -0.0043930   0.5128056   0.0000000), wk =   0.0011898
        k( 1099) = (  -0.0043930   0.5141694   0.0000000), wk =   0.0011898
        k( 1100) = (  -0.0043930   0.5155332   0.0000000), wk =   0.0011898
        k( 1101) = (  -0.0043930   0.5168970   0.0000000), wk =   0.0011898
        k( 1102) = (  -0.0043930   0.5182609   0.0000000), wk =   0.0011898
        k( 1103) = (  -0.0043930   0.5196247   0.0000000), wk =   0.0011898
        k( 1104) = (  -0.0043930   0.5209885   0.0000000), wk =   0.0011898
        k( 1105) = (  -0.0043930   0.5223523   0.0000000), wk =   0.0011898
        k( 1106) = (  -0.0043930   0.5237161   0.0000000), wk =   0.0011898
        k( 1107) = (  -0.0043930   0.5250799   0.0000000), wk =   0.0011898
        k( 1108) = (  -0.0023930   0.4715272   0.0000000), wk =   0.0011898
        k( 1109) = (  -0.0023930   0.4728910   0.0000000), wk =   0.0011898
        k( 1110) = (  -0.0023930   0.4742548   0.0000000), wk =   0.0011898
        k( 1111) = (  -0.0023930   0.4756186   0.0000000), wk =   0.0011898
        k( 1112) = (  -0.0023930   0.4769825   0.0000000), wk =   0.0011898
        k( 1113) = (  -0.0023930   0.4783463   0.0000000), wk =   0.0011898
        k( 1114) = (  -0.0023930   0.4797101   0.0000000), wk =   0.0011898
        k( 1115) = (  -0.0023930   0.4810739   0.0000000), wk =   0.0011898
        k( 1116) = (  -0.0023930   0.4824377   0.0000000), wk =   0.0011898
        k( 1117) = (  -0.0023930   0.4838015   0.0000000), wk =   0.0011898
        k( 1118) = (  -0.0023930   0.4851654   0.0000000), wk =   0.0011898
        k( 1119) = (  -0.0023930   0.4865292   0.0000000), wk =   0.0011898
        k( 1120) = (  -0.0023930   0.4878930   0.0000000), wk =   0.0011898
        k( 1121) = (  -0.0023930   0.4892568   0.0000000), wk =   0.0011898
        k( 1122) = (  -0.0023930   0.4906206   0.0000000), wk =   0.0011898
        k( 1123) = (  -0.0023930   0.4919845   0.0000000), wk =   0.0011898
        k( 1124) = (  -0.0023930   0.4933483   0.0000000), wk =   0.0011898
        k( 1125) = (  -0.0023930   0.4947121   0.0000000), wk =   0.0011898
        k( 1126) = (  -0.0023930   0.4960759   0.0000000), wk =   0.0011898
        k( 1127) = (  -0.0023930   0.4974397   0.0000000), wk =   0.0011898
        k( 1128) = (  -0.0023930   0.4988036   0.0000000), wk =   0.0011898
        k( 1129) = (  -0.0023930   0.5001674   0.0000000), wk =   0.0011898
        k( 1130) = (  -0.0023930   0.5015312   0.0000000), wk =   0.0011898
        k( 1131) = (  -0.0023930   0.5028950   0.0000000), wk =   0.0011898
        k( 1132) = (  -0.0023930   0.5042588   0.0000000), wk =   0.0011898
        k( 1133) = (  -0.0023930   0.5056227   0.0000000), wk =   0.0011898
        k( 1134) = (  -0.0023930   0.5069865   0.0000000), wk =   0.0011898
        k( 1135) = (  -0.0023930   0.5083503   0.0000000), wk =   0.0011898
        k( 1136) = (  -0.0023930   0.5097141   0.0000000), wk =   0.0011898
        k( 1137) = (  -0.0023930   0.5110779   0.0000000), wk =   0.0011898
        k( 1138) = (  -0.0023930   0.5124418   0.0000000), wk =   0.0011898
        k( 1139) = (  -0.0023930   0.5138056   0.0000000), wk =   0.0011898
        k( 1140) = (  -0.0023930   0.5151694   0.0000000), wk =   0.0011898
        k( 1141) = (  -0.0023930   0.5165332   0.0000000), wk =   0.0011898
        k( 1142) = (  -0.0023930   0.5178970   0.0000000), wk =   0.0011898
        k( 1143) = (  -0.0023930   0.5192609   0.0000000), wk =   0.0011898
        k( 1144) = (  -0.0023930   0.5206247   0.0000000), wk =   0.0011898
        k( 1145) = (  -0.0023930   0.5219885   0.0000000), wk =   0.0011898
        k( 1146) = (  -0.0023930   0.5233523   0.0000000), wk =   0.0011898
        k( 1147) = (  -0.0023930   0.5247161   0.0000000), wk =   0.0011898
        k( 1148) = (  -0.0023930   0.5260799   0.0000000), wk =   0.0011898
        k( 1149) = (  -0.0003930   0.4725272   0.0000000), wk =   0.0011898
        k( 1150) = (  -0.0003930   0.4738910   0.0000000), wk =   0.0011898
        k( 1151) = (  -0.0003930   0.4752548   0.0000000), wk =   0.0011898
        k( 1152) = (  -0.0003930   0.4766186   0.0000000), wk =   0.0011898
        k( 1153) = (  -0.0003930   0.4779825   0.0000000), wk =   0.0011898
        k( 1154) = (  -0.0003930   0.4793463   0.0000000), wk =   0.0011898
        k( 1155) = (  -0.0003930   0.4807101   0.0000000), wk =   0.0011898
        k( 1156) = (  -0.0003930   0.4820739   0.0000000), wk =   0.0011898
        k( 1157) = (  -0.0003930   0.4834377   0.0000000), wk =   0.0011898
        k( 1158) = (  -0.0003930   0.4848015   0.0000000), wk =   0.0011898
        k( 1159) = (  -0.0003930   0.4861654   0.0000000), wk =   0.0011898
        k( 1160) = (  -0.0003930   0.4875292   0.0000000), wk =   0.0011898
        k( 1161) = (  -0.0003930   0.4888930   0.0000000), wk =   0.0011898
        k( 1162) = (  -0.0003930   0.4902568   0.0000000), wk =   0.0011898
        k( 1163) = (  -0.0003930   0.4916206   0.0000000), wk =   0.0011898
        k( 1164) = (  -0.0003930   0.4929845   0.0000000), wk =   0.0011898
        k( 1165) = (  -0.0003930   0.4943483   0.0000000), wk =   0.0011898
        k( 1166) = (  -0.0003930   0.4957121   0.0000000), wk =   0.0011898
        k( 1167) = (  -0.0003930   0.4970759   0.0000000), wk =   0.0011898
        k( 1168) = (  -0.0003930   0.4984397   0.0000000), wk =   0.0011898
        k( 1169) = (  -0.0003930   0.4998036   0.0000000), wk =   0.0011898
        k( 1170) = (  -0.0003930   0.5011674   0.0000000), wk =   0.0011898
        k( 1171) = (  -0.0003930   0.5025312   0.0000000), wk =   0.0011898
        k( 1172) = (  -0.0003930   0.5038950   0.0000000), wk =   0.0011898
        k( 1173) = (  -0.0003930   0.5052588   0.0000000), wk =   0.0011898
        k( 1174) = (  -0.0003930   0.5066227   0.0000000), wk =   0.0011898
        k( 1175) = (  -0.0003930   0.5079865   0.0000000), wk =   0.0011898
        k( 1176) = (  -0.0003930   0.5093503   0.0000000), wk =   0.0011898
        k( 1177) = (  -0.0003930   0.5107141   0.0000000), wk =   0.0011898
        k( 1178) = (  -0.0003930   0.5120779   0.0000000), wk =   0.0011898
        k( 1179) = (  -0.0003930   0.5134418   0.0000000), wk =   0.0011898
        k( 1180) = (  -0.0003930   0.5148056   0.0000000), wk =   0.0011898
        k( 1181) = (  -0.0003930   0.5161694   0.0000000), wk =   0.0011898
        k( 1182) = (  -0.0003930   0.5175332   0.0000000), wk =   0.0011898
        k( 1183) = (  -0.0003930   0.5188970   0.0000000), wk =   0.0011898
        k( 1184) = (  -0.0003930   0.5202609   0.0000000), wk =   0.0011898
        k( 1185) = (  -0.0003930   0.5216247   0.0000000), wk =   0.0011898
        k( 1186) = (  -0.0003930   0.5229885   0.0000000), wk =   0.0011898
        k( 1187) = (  -0.0003930   0.5243523   0.0000000), wk =   0.0011898
        k( 1188) = (  -0.0003930   0.5257161   0.0000000), wk =   0.0011898
        k( 1189) = (  -0.0003930   0.5270799   0.0000000), wk =   0.0011898
        k( 1190) = (   0.0016070   0.4735272   0.0000000), wk =   0.0011898
        k( 1191) = (   0.0016070   0.4748910   0.0000000), wk =   0.0011898
        k( 1192) = (   0.0016070   0.4762548   0.0000000), wk =   0.0011898
        k( 1193) = (   0.0016070   0.4776186   0.0000000), wk =   0.0011898
        k( 1194) = (   0.0016070   0.4789825   0.0000000), wk =   0.0011898
        k( 1195) = (   0.0016070   0.4803463   0.0000000), wk =   0.0011898
        k( 1196) = (   0.0016070   0.4817101   0.0000000), wk =   0.0011898
        k( 1197) = (   0.0016070   0.4830739   0.0000000), wk =   0.0011898
        k( 1198) = (   0.0016070   0.4844377   0.0000000), wk =   0.0011898
        k( 1199) = (   0.0016070   0.4858015   0.0000000), wk =   0.0011898
        k( 1200) = (   0.0016070   0.4871654   0.0000000), wk =   0.0011898
        k( 1201) = (   0.0016070   0.4885292   0.0000000), wk =   0.0011898
        k( 1202) = (   0.0016070   0.4898930   0.0000000), wk =   0.0011898
        k( 1203) = (   0.0016070   0.4912568   0.0000000), wk =   0.0011898
        k( 1204) = (   0.0016070   0.4926206   0.0000000), wk =   0.0011898
        k( 1205) = (   0.0016070   0.4939845   0.0000000), wk =   0.0011898
        k( 1206) = (   0.0016070   0.4953483   0.0000000), wk =   0.0011898
        k( 1207) = (   0.0016070   0.4967121   0.0000000), wk =   0.0011898
        k( 1208) = (   0.0016070   0.4980759   0.0000000), wk =   0.0011898
        k( 1209) = (   0.0016070   0.4994397   0.0000000), wk =   0.0011898
        k( 1210) = (   0.0016070   0.5008036   0.0000000), wk =   0.0011898
        k( 1211) = (   0.0016070   0.5021674   0.0000000), wk =   0.0011898
        k( 1212) = (   0.0016070   0.5035312   0.0000000), wk =   0.0011898
        k( 1213) = (   0.0016070   0.5048950   0.0000000), wk =   0.0011898
        k( 1214) = (   0.0016070   0.5062588   0.0000000), wk =   0.0011898
        k( 1215) = (   0.0016070   0.5076227   0.0000000), wk =   0.0011898
        k( 1216) = (   0.0016070   0.5089865   0.0000000), wk =   0.0011898
        k( 1217) = (   0.0016070   0.5103503   0.0000000), wk =   0.0011898
        k( 1218) = (   0.0016070   0.5117141   0.0000000), wk =   0.0011898
        k( 1219) = (   0.0016070   0.5130779   0.0000000), wk =   0.0011898
        k( 1220) = (   0.0016070   0.5144418   0.0000000), wk =   0.0011898
        k( 1221) = (   0.0016070   0.5158056   0.0000000), wk =   0.0011898
        k( 1222) = (   0.0016070   0.5171694   0.0000000), wk =   0.0011898
        k( 1223) = (   0.0016070   0.5185332   0.0000000), wk =   0.0011898
        k( 1224) = (   0.0016070   0.5198970   0.0000000), wk =   0.0011898
        k( 1225) = (   0.0016070   0.5212609   0.0000000), wk =   0.0011898
        k( 1226) = (   0.0016070   0.5226247   0.0000000), wk =   0.0011898
        k( 1227) = (   0.0016070   0.5239885   0.0000000), wk =   0.0011898
        k( 1228) = (   0.0016070   0.5253523   0.0000000), wk =   0.0011898
        k( 1229) = (   0.0016070   0.5267161   0.0000000), wk =   0.0011898
        k( 1230) = (   0.0016070   0.5280799   0.0000000), wk =   0.0011898
        k( 1231) = (   0.0036070   0.4745272   0.0000000), wk =   0.0011898
        k( 1232) = (   0.0036070   0.4758910   0.0000000), wk =   0.0011898
        k( 1233) = (   0.0036070   0.4772548   0.0000000), wk =   0.0011898
        k( 1234) = (   0.0036070   0.4786186   0.0000000), wk =   0.0011898
        k( 1235) = (   0.0036070   0.4799825   0.0000000), wk =   0.0011898
        k( 1236) = (   0.0036070   0.4813463   0.0000000), wk =   0.0011898
        k( 1237) = (   0.0036070   0.4827101   0.0000000), wk =   0.0011898
        k( 1238) = (   0.0036070   0.4840739   0.0000000), wk =   0.0011898
        k( 1239) = (   0.0036070   0.4854377   0.0000000), wk =   0.0011898
        k( 1240) = (   0.0036070   0.4868015   0.0000000), wk =   0.0011898
        k( 1241) = (   0.0036070   0.4881654   0.0000000), wk =   0.0011898
        k( 1242) = (   0.0036070   0.4895292   0.0000000), wk =   0.0011898
        k( 1243) = (   0.0036070   0.4908930   0.0000000), wk =   0.0011898
        k( 1244) = (   0.0036070   0.4922568   0.0000000), wk =   0.0011898
        k( 1245) = (   0.0036070   0.4936206   0.0000000), wk =   0.0011898
        k( 1246) = (   0.0036070   0.4949845   0.0000000), wk =   0.0011898
        k( 1247) = (   0.0036070   0.4963483   0.0000000), wk =   0.0011898
        k( 1248) = (   0.0036070   0.4977121   0.0000000), wk =   0.0011898
        k( 1249) = (   0.0036070   0.4990759   0.0000000), wk =   0.0011898
        k( 1250) = (   0.0036070   0.5004397   0.0000000), wk =   0.0011898
        k( 1251) = (   0.0036070   0.5018036   0.0000000), wk =   0.0011898
        k( 1252) = (   0.0036070   0.5031674   0.0000000), wk =   0.0011898
        k( 1253) = (   0.0036070   0.5045312   0.0000000), wk =   0.0011898
        k( 1254) = (   0.0036070   0.5058950   0.0000000), wk =   0.0011898
        k( 1255) = (   0.0036070   0.5072588   0.0000000), wk =   0.0011898
        k( 1256) = (   0.0036070   0.5086227   0.0000000), wk =   0.0011898
        k( 1257) = (   0.0036070   0.5099865   0.0000000), wk =   0.0011898
        k( 1258) = (   0.0036070   0.5113503   0.0000000), wk =   0.0011898
        k( 1259) = (   0.0036070   0.5127141   0.0000000), wk =   0.0011898
        k( 1260) = (   0.0036070   0.5140779   0.0000000), wk =   0.0011898
        k( 1261) = (   0.0036070   0.5154418   0.0000000), wk =   0.0011898
        k( 1262) = (   0.0036070   0.5168056   0.0000000), wk =   0.0011898
        k( 1263) = (   0.0036070   0.5181694   0.0000000), wk =   0.0011898
        k( 1264) = (   0.0036070   0.5195332   0.0000000), wk =   0.0011898
        k( 1265) = (   0.0036070   0.5208970   0.0000000), wk =   0.0011898
        k( 1266) = (   0.0036070   0.5222609   0.0000000), wk =   0.0011898
        k( 1267) = (   0.0036070   0.5236247   0.0000000), wk =   0.0011898
        k( 1268) = (   0.0036070   0.5249885   0.0000000), wk =   0.0011898
        k( 1269) = (   0.0036070   0.5263523   0.0000000), wk =   0.0011898
        k( 1270) = (   0.0036070   0.5277161   0.0000000), wk =   0.0011898
        k( 1271) = (   0.0036070   0.5290799   0.0000000), wk =   0.0011898
        k( 1272) = (   0.0056070   0.4755272   0.0000000), wk =   0.0011898
        k( 1273) = (   0.0056070   0.4768910   0.0000000), wk =   0.0011898
        k( 1274) = (   0.0056070   0.4782548   0.0000000), wk =   0.0011898
        k( 1275) = (   0.0056070   0.4796186   0.0000000), wk =   0.0011898
        k( 1276) = (   0.0056070   0.4809825   0.0000000), wk =   0.0011898
        k( 1277) = (   0.0056070   0.4823463   0.0000000), wk =   0.0011898
        k( 1278) = (   0.0056070   0.4837101   0.0000000), wk =   0.0011898
        k( 1279) = (   0.0056070   0.4850739   0.0000000), wk =   0.0011898
        k( 1280) = (   0.0056070   0.4864377   0.0000000), wk =   0.0011898
        k( 1281) = (   0.0056070   0.4878015   0.0000000), wk =   0.0011898
        k( 1282) = (   0.0056070   0.4891654   0.0000000), wk =   0.0011898
        k( 1283) = (   0.0056070   0.4905292   0.0000000), wk =   0.0011898
        k( 1284) = (   0.0056070   0.4918930   0.0000000), wk =   0.0011898
        k( 1285) = (   0.0056070   0.4932568   0.0000000), wk =   0.0011898
        k( 1286) = (   0.0056070   0.4946206   0.0000000), wk =   0.0011898
        k( 1287) = (   0.0056070   0.4959845   0.0000000), wk =   0.0011898
        k( 1288) = (   0.0056070   0.4973483   0.0000000), wk =   0.0011898
        k( 1289) = (   0.0056070   0.4987121   0.0000000), wk =   0.0011898
        k( 1290) = (   0.0056070   0.5000759   0.0000000), wk =   0.0011898
        k( 1291) = (   0.0056070   0.5014397   0.0000000), wk =   0.0011898
        k( 1292) = (   0.0056070   0.5028036   0.0000000), wk =   0.0011898
        k( 1293) = (   0.0056070   0.5041674   0.0000000), wk =   0.0011898
        k( 1294) = (   0.0056070   0.5055312   0.0000000), wk =   0.0011898
        k( 1295) = (   0.0056070   0.5068950   0.0000000), wk =   0.0011898
        k( 1296) = (   0.0056070   0.5082588   0.0000000), wk =   0.0011898
        k( 1297) = (   0.0056070   0.5096227   0.0000000), wk =   0.0011898
        k( 1298) = (   0.0056070   0.5109865   0.0000000), wk =   0.0011898
        k( 1299) = (   0.0056070   0.5123503   0.0000000), wk =   0.0011898
        k( 1300) = (   0.0056070   0.5137141   0.0000000), wk =   0.0011898
        k( 1301) = (   0.0056070   0.5150779   0.0000000), wk =   0.0011898
        k( 1302) = (   0.0056070   0.5164418   0.0000000), wk =   0.0011898
        k( 1303) = (   0.0056070   0.5178056   0.0000000), wk =   0.0011898
        k( 1304) = (   0.0056070   0.5191694   0.0000000), wk =   0.0011898
        k( 1305) = (   0.0056070   0.5205332   0.0000000), wk =   0.0011898
        k( 1306) = (   0.0056070   0.5218970   0.0000000), wk =   0.0011898
        k( 1307) = (   0.0056070   0.5232609   0.0000000), wk =   0.0011898
        k( 1308) = (   0.0056070   0.5246247   0.0000000), wk =   0.0011898
        k( 1309) = (   0.0056070   0.5259885   0.0000000), wk =   0.0011898
        k( 1310) = (   0.0056070   0.5273523   0.0000000), wk =   0.0011898
        k( 1311) = (   0.0056070   0.5287161   0.0000000), wk =   0.0011898
        k( 1312) = (   0.0056070   0.5300799   0.0000000), wk =   0.0011898
        k( 1313) = (   0.0076070   0.4765272   0.0000000), wk =   0.0011898
        k( 1314) = (   0.0076070   0.4778910   0.0000000), wk =   0.0011898
        k( 1315) = (   0.0076070   0.4792548   0.0000000), wk =   0.0011898
        k( 1316) = (   0.0076070   0.4806186   0.0000000), wk =   0.0011898
        k( 1317) = (   0.0076070   0.4819825   0.0000000), wk =   0.0011898
        k( 1318) = (   0.0076070   0.4833463   0.0000000), wk =   0.0011898
        k( 1319) = (   0.0076070   0.4847101   0.0000000), wk =   0.0011898
        k( 1320) = (   0.0076070   0.4860739   0.0000000), wk =   0.0011898
        k( 1321) = (   0.0076070   0.4874377   0.0000000), wk =   0.0011898
        k( 1322) = (   0.0076070   0.4888015   0.0000000), wk =   0.0011898
        k( 1323) = (   0.0076070   0.4901654   0.0000000), wk =   0.0011898
        k( 1324) = (   0.0076070   0.4915292   0.0000000), wk =   0.0011898
        k( 1325) = (   0.0076070   0.4928930   0.0000000), wk =   0.0011898
        k( 1326) = (   0.0076070   0.4942568   0.0000000), wk =   0.0011898
        k( 1327) = (   0.0076070   0.4956206   0.0000000), wk =   0.0011898
        k( 1328) = (   0.0076070   0.4969845   0.0000000), wk =   0.0011898
        k( 1329) = (   0.0076070   0.4983483   0.0000000), wk =   0.0011898
        k( 1330) = (   0.0076070   0.4997121   0.0000000), wk =   0.0011898
        k( 1331) = (   0.0076070   0.5010759   0.0000000), wk =   0.0011898
        k( 1332) = (   0.0076070   0.5024397   0.0000000), wk =   0.0011898
        k( 1333) = (   0.0076070   0.5038036   0.0000000), wk =   0.0011898
        k( 1334) = (   0.0076070   0.5051674   0.0000000), wk =   0.0011898
        k( 1335) = (   0.0076070   0.5065312   0.0000000), wk =   0.0011898
        k( 1336) = (   0.0076070   0.5078950   0.0000000), wk =   0.0011898
        k( 1337) = (   0.0076070   0.5092588   0.0000000), wk =   0.0011898
        k( 1338) = (   0.0076070   0.5106227   0.0000000), wk =   0.0011898
        k( 1339) = (   0.0076070   0.5119865   0.0000000), wk =   0.0011898
        k( 1340) = (   0.0076070   0.5133503   0.0000000), wk =   0.0011898
        k( 1341) = (   0.0076070   0.5147141   0.0000000), wk =   0.0011898
        k( 1342) = (   0.0076070   0.5160779   0.0000000), wk =   0.0011898
        k( 1343) = (   0.0076070   0.5174418   0.0000000), wk =   0.0011898
        k( 1344) = (   0.0076070   0.5188056   0.0000000), wk =   0.0011898
        k( 1345) = (   0.0076070   0.5201694   0.0000000), wk =   0.0011898
        k( 1346) = (   0.0076070   0.5215332   0.0000000), wk =   0.0011898
        k( 1347) = (   0.0076070   0.5228970   0.0000000), wk =   0.0011898
        k( 1348) = (   0.0076070   0.5242609   0.0000000), wk =   0.0011898
        k( 1349) = (   0.0076070   0.5256247   0.0000000), wk =   0.0011898
        k( 1350) = (   0.0076070   0.5269885   0.0000000), wk =   0.0011898
        k( 1351) = (   0.0076070   0.5283523   0.0000000), wk =   0.0011898
        k( 1352) = (   0.0076070   0.5297161   0.0000000), wk =   0.0011898
        k( 1353) = (   0.0076070   0.5310799   0.0000000), wk =   0.0011898
        k( 1354) = (   0.0096070   0.4775272   0.0000000), wk =   0.0011898
        k( 1355) = (   0.0096070   0.4788910   0.0000000), wk =   0.0011898
        k( 1356) = (   0.0096070   0.4802548   0.0000000), wk =   0.0011898
        k( 1357) = (   0.0096070   0.4816186   0.0000000), wk =   0.0011898
        k( 1358) = (   0.0096070   0.4829824   0.0000000), wk =   0.0011898
        k( 1359) = (   0.0096070   0.4843463   0.0000000), wk =   0.0011898
        k( 1360) = (   0.0096070   0.4857101   0.0000000), wk =   0.0011898
        k( 1361) = (   0.0096070   0.4870739   0.0000000), wk =   0.0011898
        k( 1362) = (   0.0096070   0.4884377   0.0000000), wk =   0.0011898
        k( 1363) = (   0.0096070   0.4898015   0.0000000), wk =   0.0011898
        k( 1364) = (   0.0096070   0.4911654   0.0000000), wk =   0.0011898
        k( 1365) = (   0.0096070   0.4925292   0.0000000), wk =   0.0011898
        k( 1366) = (   0.0096070   0.4938930   0.0000000), wk =   0.0011898
        k( 1367) = (   0.0096070   0.4952568   0.0000000), wk =   0.0011898
        k( 1368) = (   0.0096070   0.4966206   0.0000000), wk =   0.0011898
        k( 1369) = (   0.0096070   0.4979845   0.0000000), wk =   0.0011898
        k( 1370) = (   0.0096070   0.4993483   0.0000000), wk =   0.0011898
        k( 1371) = (   0.0096070   0.5007121   0.0000000), wk =   0.0011898
        k( 1372) = (   0.0096070   0.5020759   0.0000000), wk =   0.0011898
        k( 1373) = (   0.0096070   0.5034397   0.0000000), wk =   0.0011898
        k( 1374) = (   0.0096070   0.5048036   0.0000000), wk =   0.0011898
        k( 1375) = (   0.0096070   0.5061674   0.0000000), wk =   0.0011898
        k( 1376) = (   0.0096070   0.5075312   0.0000000), wk =   0.0011898
        k( 1377) = (   0.0096070   0.5088950   0.0000000), wk =   0.0011898
        k( 1378) = (   0.0096070   0.5102588   0.0000000), wk =   0.0011898
        k( 1379) = (   0.0096070   0.5116227   0.0000000), wk =   0.0011898
        k( 1380) = (   0.0096070   0.5129865   0.0000000), wk =   0.0011898
        k( 1381) = (   0.0096070   0.5143503   0.0000000), wk =   0.0011898
        k( 1382) = (   0.0096070   0.5157141   0.0000000), wk =   0.0011898
        k( 1383) = (   0.0096070   0.5170779   0.0000000), wk =   0.0011898
        k( 1384) = (   0.0096070   0.5184418   0.0000000), wk =   0.0011898
        k( 1385) = (   0.0096070   0.5198056   0.0000000), wk =   0.0011898
        k( 1386) = (   0.0096070   0.5211694   0.0000000), wk =   0.0011898
        k( 1387) = (   0.0096070   0.5225332   0.0000000), wk =   0.0011898
        k( 1388) = (   0.0096070   0.5238970   0.0000000), wk =   0.0011898
        k( 1389) = (   0.0096070   0.5252609   0.0000000), wk =   0.0011898
        k( 1390) = (   0.0096070   0.5266247   0.0000000), wk =   0.0011898
        k( 1391) = (   0.0096070   0.5279885   0.0000000), wk =   0.0011898
        k( 1392) = (   0.0096070   0.5293523   0.0000000), wk =   0.0011898
        k( 1393) = (   0.0096070   0.5307161   0.0000000), wk =   0.0011898
        k( 1394) = (   0.0096070   0.5320799   0.0000000), wk =   0.0011898
        k( 1395) = (   0.0116070   0.4785272   0.0000000), wk =   0.0011898
        k( 1396) = (   0.0116070   0.4798910   0.0000000), wk =   0.0011898
        k( 1397) = (   0.0116070   0.4812548   0.0000000), wk =   0.0011898
        k( 1398) = (   0.0116070   0.4826186   0.0000000), wk =   0.0011898
        k( 1399) = (   0.0116070   0.4839824   0.0000000), wk =   0.0011898
        k( 1400) = (   0.0116070   0.4853463   0.0000000), wk =   0.0011898
        k( 1401) = (   0.0116070   0.4867101   0.0000000), wk =   0.0011898
        k( 1402) = (   0.0116070   0.4880739   0.0000000), wk =   0.0011898
        k( 1403) = (   0.0116070   0.4894377   0.0000000), wk =   0.0011898
        k( 1404) = (   0.0116070   0.4908015   0.0000000), wk =   0.0011898
        k( 1405) = (   0.0116070   0.4921654   0.0000000), wk =   0.0011898
        k( 1406) = (   0.0116070   0.4935292   0.0000000), wk =   0.0011898
        k( 1407) = (   0.0116070   0.4948930   0.0000000), wk =   0.0011898
        k( 1408) = (   0.0116070   0.4962568   0.0000000), wk =   0.0011898
        k( 1409) = (   0.0116070   0.4976206   0.0000000), wk =   0.0011898
        k( 1410) = (   0.0116070   0.4989845   0.0000000), wk =   0.0011898
        k( 1411) = (   0.0116070   0.5003483   0.0000000), wk =   0.0011898
        k( 1412) = (   0.0116070   0.5017121   0.0000000), wk =   0.0011898
        k( 1413) = (   0.0116070   0.5030759   0.0000000), wk =   0.0011898
        k( 1414) = (   0.0116070   0.5044397   0.0000000), wk =   0.0011898
        k( 1415) = (   0.0116070   0.5058036   0.0000000), wk =   0.0011898
        k( 1416) = (   0.0116070   0.5071674   0.0000000), wk =   0.0011898
        k( 1417) = (   0.0116070   0.5085312   0.0000000), wk =   0.0011898
        k( 1418) = (   0.0116070   0.5098950   0.0000000), wk =   0.0011898
        k( 1419) = (   0.0116070   0.5112588   0.0000000), wk =   0.0011898
        k( 1420) = (   0.0116070   0.5126227   0.0000000), wk =   0.0011898
        k( 1421) = (   0.0116070   0.5139865   0.0000000), wk =   0.0011898
        k( 1422) = (   0.0116070   0.5153503   0.0000000), wk =   0.0011898
        k( 1423) = (   0.0116070   0.5167141   0.0000000), wk =   0.0011898
        k( 1424) = (   0.0116070   0.5180779   0.0000000), wk =   0.0011898
        k( 1425) = (   0.0116070   0.5194418   0.0000000), wk =   0.0011898
        k( 1426) = (   0.0116070   0.5208056   0.0000000), wk =   0.0011898
        k( 1427) = (   0.0116070   0.5221694   0.0000000), wk =   0.0011898
        k( 1428) = (   0.0116070   0.5235332   0.0000000), wk =   0.0011898
        k( 1429) = (   0.0116070   0.5248970   0.0000000), wk =   0.0011898
        k( 1430) = (   0.0116070   0.5262609   0.0000000), wk =   0.0011898
        k( 1431) = (   0.0116070   0.5276247   0.0000000), wk =   0.0011898
        k( 1432) = (   0.0116070   0.5289885   0.0000000), wk =   0.0011898
        k( 1433) = (   0.0116070   0.5303523   0.0000000), wk =   0.0011898
        k( 1434) = (   0.0116070   0.5317161   0.0000000), wk =   0.0011898
        k( 1435) = (   0.0116070   0.5330799   0.0000000), wk =   0.0011898
        k( 1436) = (   0.0136070   0.4795272   0.0000000), wk =   0.0011898
        k( 1437) = (   0.0136070   0.4808910   0.0000000), wk =   0.0011898
        k( 1438) = (   0.0136070   0.4822548   0.0000000), wk =   0.0011898
        k( 1439) = (   0.0136070   0.4836186   0.0000000), wk =   0.0011898
        k( 1440) = (   0.0136070   0.4849824   0.0000000), wk =   0.0011898
        k( 1441) = (   0.0136070   0.4863463   0.0000000), wk =   0.0011898
        k( 1442) = (   0.0136070   0.4877101   0.0000000), wk =   0.0011898
        k( 1443) = (   0.0136070   0.4890739   0.0000000), wk =   0.0011898
        k( 1444) = (   0.0136070   0.4904377   0.0000000), wk =   0.0011898
        k( 1445) = (   0.0136070   0.4918015   0.0000000), wk =   0.0011898
        k( 1446) = (   0.0136070   0.4931654   0.0000000), wk =   0.0011898
        k( 1447) = (   0.0136070   0.4945292   0.0000000), wk =   0.0011898
        k( 1448) = (   0.0136070   0.4958930   0.0000000), wk =   0.0011898
        k( 1449) = (   0.0136070   0.4972568   0.0000000), wk =   0.0011898
        k( 1450) = (   0.0136070   0.4986206   0.0000000), wk =   0.0011898
        k( 1451) = (   0.0136070   0.4999845   0.0000000), wk =   0.0011898
        k( 1452) = (   0.0136070   0.5013483   0.0000000), wk =   0.0011898
        k( 1453) = (   0.0136070   0.5027121   0.0000000), wk =   0.0011898
        k( 1454) = (   0.0136070   0.5040759   0.0000000), wk =   0.0011898
        k( 1455) = (   0.0136070   0.5054397   0.0000000), wk =   0.0011898
        k( 1456) = (   0.0136070   0.5068036   0.0000000), wk =   0.0011898
        k( 1457) = (   0.0136070   0.5081674   0.0000000), wk =   0.0011898
        k( 1458) = (   0.0136070   0.5095312   0.0000000), wk =   0.0011898
        k( 1459) = (   0.0136070   0.5108950   0.0000000), wk =   0.0011898
        k( 1460) = (   0.0136070   0.5122588   0.0000000), wk =   0.0011898
        k( 1461) = (   0.0136070   0.5136227   0.0000000), wk =   0.0011898
        k( 1462) = (   0.0136070   0.5149865   0.0000000), wk =   0.0011898
        k( 1463) = (   0.0136070   0.5163503   0.0000000), wk =   0.0011898
        k( 1464) = (   0.0136070   0.5177141   0.0000000), wk =   0.0011898
        k( 1465) = (   0.0136070   0.5190779   0.0000000), wk =   0.0011898
        k( 1466) = (   0.0136070   0.5204418   0.0000000), wk =   0.0011898
        k( 1467) = (   0.0136070   0.5218056   0.0000000), wk =   0.0011898
        k( 1468) = (   0.0136070   0.5231694   0.0000000), wk =   0.0011898
        k( 1469) = (   0.0136070   0.5245332   0.0000000), wk =   0.0011898
        k( 1470) = (   0.0136070   0.5258970   0.0000000), wk =   0.0011898
        k( 1471) = (   0.0136070   0.5272609   0.0000000), wk =   0.0011898
        k( 1472) = (   0.0136070   0.5286247   0.0000000), wk =   0.0011898
        k( 1473) = (   0.0136070   0.5299885   0.0000000), wk =   0.0011898
        k( 1474) = (   0.0136070   0.5313523   0.0000000), wk =   0.0011898
        k( 1475) = (   0.0136070   0.5327161   0.0000000), wk =   0.0011898
        k( 1476) = (   0.0136070   0.5340799   0.0000000), wk =   0.0011898
        k( 1477) = (   0.0156070   0.4805272   0.0000000), wk =   0.0011898
        k( 1478) = (   0.0156070   0.4818910   0.0000000), wk =   0.0011898
        k( 1479) = (   0.0156070   0.4832548   0.0000000), wk =   0.0011898
        k( 1480) = (   0.0156070   0.4846186   0.0000000), wk =   0.0011898
        k( 1481) = (   0.0156070   0.4859824   0.0000000), wk =   0.0011898
        k( 1482) = (   0.0156070   0.4873463   0.0000000), wk =   0.0011898
        k( 1483) = (   0.0156070   0.4887101   0.0000000), wk =   0.0011898
        k( 1484) = (   0.0156070   0.4900739   0.0000000), wk =   0.0011898
        k( 1485) = (   0.0156070   0.4914377   0.0000000), wk =   0.0011898
        k( 1486) = (   0.0156070   0.4928015   0.0000000), wk =   0.0011898
        k( 1487) = (   0.0156070   0.4941654   0.0000000), wk =   0.0011898
        k( 1488) = (   0.0156070   0.4955292   0.0000000), wk =   0.0011898
        k( 1489) = (   0.0156070   0.4968930   0.0000000), wk =   0.0011898
        k( 1490) = (   0.0156070   0.4982568   0.0000000), wk =   0.0011898
        k( 1491) = (   0.0156070   0.4996206   0.0000000), wk =   0.0011898
        k( 1492) = (   0.0156070   0.5009845   0.0000000), wk =   0.0011898
        k( 1493) = (   0.0156070   0.5023483   0.0000000), wk =   0.0011898
        k( 1494) = (   0.0156070   0.5037121   0.0000000), wk =   0.0011898
        k( 1495) = (   0.0156070   0.5050759   0.0000000), wk =   0.0011898
        k( 1496) = (   0.0156070   0.5064397   0.0000000), wk =   0.0011898
        k( 1497) = (   0.0156070   0.5078036   0.0000000), wk =   0.0011898
        k( 1498) = (   0.0156070   0.5091674   0.0000000), wk =   0.0011898
        k( 1499) = (   0.0156070   0.5105312   0.0000000), wk =   0.0011898
        k( 1500) = (   0.0156070   0.5118950   0.0000000), wk =   0.0011898
        k( 1501) = (   0.0156070   0.5132588   0.0000000), wk =   0.0011898
        k( 1502) = (   0.0156070   0.5146227   0.0000000), wk =   0.0011898
        k( 1503) = (   0.0156070   0.5159865   0.0000000), wk =   0.0011898
        k( 1504) = (   0.0156070   0.5173503   0.0000000), wk =   0.0011898
        k( 1505) = (   0.0156070   0.5187141   0.0000000), wk =   0.0011898
        k( 1506) = (   0.0156070   0.5200779   0.0000000), wk =   0.0011898
        k( 1507) = (   0.0156070   0.5214418   0.0000000), wk =   0.0011898
        k( 1508) = (   0.0156070   0.5228056   0.0000000), wk =   0.0011898
        k( 1509) = (   0.0156070   0.5241694   0.0000000), wk =   0.0011898
        k( 1510) = (   0.0156070   0.5255332   0.0000000), wk =   0.0011898
        k( 1511) = (   0.0156070   0.5268970   0.0000000), wk =   0.0011898
        k( 1512) = (   0.0156070   0.5282609   0.0000000), wk =   0.0011898
        k( 1513) = (   0.0156070   0.5296247   0.0000000), wk =   0.0011898
        k( 1514) = (   0.0156070   0.5309885   0.0000000), wk =   0.0011898
        k( 1515) = (   0.0156070   0.5323523   0.0000000), wk =   0.0011898
        k( 1516) = (   0.0156070   0.5337161   0.0000000), wk =   0.0011898
        k( 1517) = (   0.0156070   0.5350799   0.0000000), wk =   0.0011898
        k( 1518) = (   0.0176070   0.4815272   0.0000000), wk =   0.0011898
        k( 1519) = (   0.0176070   0.4828910   0.0000000), wk =   0.0011898
        k( 1520) = (   0.0176070   0.4842548   0.0000000), wk =   0.0011898
        k( 1521) = (   0.0176070   0.4856186   0.0000000), wk =   0.0011898
        k( 1522) = (   0.0176070   0.4869824   0.0000000), wk =   0.0011898
        k( 1523) = (   0.0176070   0.4883463   0.0000000), wk =   0.0011898
        k( 1524) = (   0.0176070   0.4897101   0.0000000), wk =   0.0011898
        k( 1525) = (   0.0176070   0.4910739   0.0000000), wk =   0.0011898
        k( 1526) = (   0.0176070   0.4924377   0.0000000), wk =   0.0011898
        k( 1527) = (   0.0176070   0.4938015   0.0000000), wk =   0.0011898
        k( 1528) = (   0.0176070   0.4951654   0.0000000), wk =   0.0011898
        k( 1529) = (   0.0176070   0.4965292   0.0000000), wk =   0.0011898
        k( 1530) = (   0.0176070   0.4978930   0.0000000), wk =   0.0011898
        k( 1531) = (   0.0176070   0.4992568   0.0000000), wk =   0.0011898
        k( 1532) = (   0.0176070   0.5006206   0.0000000), wk =   0.0011898
        k( 1533) = (   0.0176070   0.5019845   0.0000000), wk =   0.0011898
        k( 1534) = (   0.0176070   0.5033483   0.0000000), wk =   0.0011898
        k( 1535) = (   0.0176070   0.5047121   0.0000000), wk =   0.0011898
        k( 1536) = (   0.0176070   0.5060759   0.0000000), wk =   0.0011898
        k( 1537) = (   0.0176070   0.5074397   0.0000000), wk =   0.0011898
        k( 1538) = (   0.0176070   0.5088036   0.0000000), wk =   0.0011898
        k( 1539) = (   0.0176070   0.5101674   0.0000000), wk =   0.0011898
        k( 1540) = (   0.0176070   0.5115312   0.0000000), wk =   0.0011898
        k( 1541) = (   0.0176070   0.5128950   0.0000000), wk =   0.0011898
        k( 1542) = (   0.0176070   0.5142588   0.0000000), wk =   0.0011898
        k( 1543) = (   0.0176070   0.5156227   0.0000000), wk =   0.0011898
        k( 1544) = (   0.0176070   0.5169865   0.0000000), wk =   0.0011898
        k( 1545) = (   0.0176070   0.5183503   0.0000000), wk =   0.0011898
        k( 1546) = (   0.0176070   0.5197141   0.0000000), wk =   0.0011898
        k( 1547) = (   0.0176070   0.5210779   0.0000000), wk =   0.0011898
        k( 1548) = (   0.0176070   0.5224418   0.0000000), wk =   0.0011898
        k( 1549) = (   0.0176070   0.5238056   0.0000000), wk =   0.0011898
        k( 1550) = (   0.0176070   0.5251694   0.0000000), wk =   0.0011898
        k( 1551) = (   0.0176070   0.5265332   0.0000000), wk =   0.0011898
        k( 1552) = (   0.0176070   0.5278970   0.0000000), wk =   0.0011898
        k( 1553) = (   0.0176070   0.5292609   0.0000000), wk =   0.0011898
        k( 1554) = (   0.0176070   0.5306247   0.0000000), wk =   0.0011898
        k( 1555) = (   0.0176070   0.5319885   0.0000000), wk =   0.0011898
        k( 1556) = (   0.0176070   0.5333523   0.0000000), wk =   0.0011898
        k( 1557) = (   0.0176070   0.5347161   0.0000000), wk =   0.0011898
        k( 1558) = (   0.0176070   0.5360799   0.0000000), wk =   0.0011898
        k( 1559) = (   0.0196070   0.4825272   0.0000000), wk =   0.0011898
        k( 1560) = (   0.0196070   0.4838910   0.0000000), wk =   0.0011898
        k( 1561) = (   0.0196070   0.4852548   0.0000000), wk =   0.0011898
        k( 1562) = (   0.0196070   0.4866186   0.0000000), wk =   0.0011898
        k( 1563) = (   0.0196070   0.4879824   0.0000000), wk =   0.0011898
        k( 1564) = (   0.0196070   0.4893463   0.0000000), wk =   0.0011898
        k( 1565) = (   0.0196070   0.4907101   0.0000000), wk =   0.0011898
        k( 1566) = (   0.0196070   0.4920739   0.0000000), wk =   0.0011898
        k( 1567) = (   0.0196070   0.4934377   0.0000000), wk =   0.0011898
        k( 1568) = (   0.0196070   0.4948015   0.0000000), wk =   0.0011898
        k( 1569) = (   0.0196070   0.4961654   0.0000000), wk =   0.0011898
        k( 1570) = (   0.0196070   0.4975292   0.0000000), wk =   0.0011898
        k( 1571) = (   0.0196070   0.4988930   0.0000000), wk =   0.0011898
        k( 1572) = (   0.0196070   0.5002568   0.0000000), wk =   0.0011898
        k( 1573) = (   0.0196070   0.5016206   0.0000000), wk =   0.0011898
        k( 1574) = (   0.0196070   0.5029845   0.0000000), wk =   0.0011898
        k( 1575) = (   0.0196070   0.5043483   0.0000000), wk =   0.0011898
        k( 1576) = (   0.0196070   0.5057121   0.0000000), wk =   0.0011898
        k( 1577) = (   0.0196070   0.5070759   0.0000000), wk =   0.0011898
        k( 1578) = (   0.0196070   0.5084397   0.0000000), wk =   0.0011898
        k( 1579) = (   0.0196070   0.5098036   0.0000000), wk =   0.0011898
        k( 1580) = (   0.0196070   0.5111674   0.0000000), wk =   0.0011898
        k( 1581) = (   0.0196070   0.5125312   0.0000000), wk =   0.0011898
        k( 1582) = (   0.0196070   0.5138950   0.0000000), wk =   0.0011898
        k( 1583) = (   0.0196070   0.5152588   0.0000000), wk =   0.0011898
        k( 1584) = (   0.0196070   0.5166227   0.0000000), wk =   0.0011898
        k( 1585) = (   0.0196070   0.5179865   0.0000000), wk =   0.0011898
        k( 1586) = (   0.0196070   0.5193503   0.0000000), wk =   0.0011898
        k( 1587) = (   0.0196070   0.5207141   0.0000000), wk =   0.0011898
        k( 1588) = (   0.0196070   0.5220779   0.0000000), wk =   0.0011898
        k( 1589) = (   0.0196070   0.5234418   0.0000000), wk =   0.0011898
        k( 1590) = (   0.0196070   0.5248056   0.0000000), wk =   0.0011898
        k( 1591) = (   0.0196070   0.5261694   0.0000000), wk =   0.0011898
        k( 1592) = (   0.0196070   0.5275332   0.0000000), wk =   0.0011898
        k( 1593) = (   0.0196070   0.5288970   0.0000000), wk =   0.0011898
        k( 1594) = (   0.0196070   0.5302609   0.0000000), wk =   0.0011898
        k( 1595) = (   0.0196070   0.5316247   0.0000000), wk =   0.0011898
        k( 1596) = (   0.0196070   0.5329885   0.0000000), wk =   0.0011898
        k( 1597) = (   0.0196070   0.5343523   0.0000000), wk =   0.0011898
        k( 1598) = (   0.0196070   0.5357161   0.0000000), wk =   0.0011898
        k( 1599) = (   0.0196070   0.5370799   0.0000000), wk =   0.0011898
        k( 1600) = (   0.0216070   0.4835272   0.0000000), wk =   0.0011898
        k( 1601) = (   0.0216070   0.4848910   0.0000000), wk =   0.0011898
        k( 1602) = (   0.0216070   0.4862548   0.0000000), wk =   0.0011898
        k( 1603) = (   0.0216070   0.4876186   0.0000000), wk =   0.0011898
        k( 1604) = (   0.0216070   0.4889824   0.0000000), wk =   0.0011898
        k( 1605) = (   0.0216070   0.4903463   0.0000000), wk =   0.0011898
        k( 1606) = (   0.0216070   0.4917101   0.0000000), wk =   0.0011898
        k( 1607) = (   0.0216070   0.4930739   0.0000000), wk =   0.0011898
        k( 1608) = (   0.0216070   0.4944377   0.0000000), wk =   0.0011898
        k( 1609) = (   0.0216070   0.4958015   0.0000000), wk =   0.0011898
        k( 1610) = (   0.0216070   0.4971654   0.0000000), wk =   0.0011898
        k( 1611) = (   0.0216070   0.4985292   0.0000000), wk =   0.0011898
        k( 1612) = (   0.0216070   0.4998930   0.0000000), wk =   0.0011898
        k( 1613) = (   0.0216070   0.5012568   0.0000000), wk =   0.0011898
        k( 1614) = (   0.0216070   0.5026206   0.0000000), wk =   0.0011898
        k( 1615) = (   0.0216070   0.5039845   0.0000000), wk =   0.0011898
        k( 1616) = (   0.0216070   0.5053483   0.0000000), wk =   0.0011898
        k( 1617) = (   0.0216070   0.5067121   0.0000000), wk =   0.0011898
        k( 1618) = (   0.0216070   0.5080759   0.0000000), wk =   0.0011898
        k( 1619) = (   0.0216070   0.5094397   0.0000000), wk =   0.0011898
        k( 1620) = (   0.0216070   0.5108036   0.0000000), wk =   0.0011898
        k( 1621) = (   0.0216070   0.5121674   0.0000000), wk =   0.0011898
        k( 1622) = (   0.0216070   0.5135312   0.0000000), wk =   0.0011898
        k( 1623) = (   0.0216070   0.5148950   0.0000000), wk =   0.0011898
        k( 1624) = (   0.0216070   0.5162588   0.0000000), wk =   0.0011898
        k( 1625) = (   0.0216070   0.5176227   0.0000000), wk =   0.0011898
        k( 1626) = (   0.0216070   0.5189865   0.0000000), wk =   0.0011898
        k( 1627) = (   0.0216070   0.5203503   0.0000000), wk =   0.0011898
        k( 1628) = (   0.0216070   0.5217141   0.0000000), wk =   0.0011898
        k( 1629) = (   0.0216070   0.5230779   0.0000000), wk =   0.0011898
        k( 1630) = (   0.0216070   0.5244418   0.0000000), wk =   0.0011898
        k( 1631) = (   0.0216070   0.5258056   0.0000000), wk =   0.0011898
        k( 1632) = (   0.0216070   0.5271694   0.0000000), wk =   0.0011898
        k( 1633) = (   0.0216070   0.5285332   0.0000000), wk =   0.0011898
        k( 1634) = (   0.0216070   0.5298970   0.0000000), wk =   0.0011898
        k( 1635) = (   0.0216070   0.5312609   0.0000000), wk =   0.0011898
        k( 1636) = (   0.0216070   0.5326247   0.0000000), wk =   0.0011898
        k( 1637) = (   0.0216070   0.5339885   0.0000000), wk =   0.0011898
        k( 1638) = (   0.0216070   0.5353523   0.0000000), wk =   0.0011898
        k( 1639) = (   0.0216070   0.5367161   0.0000000), wk =   0.0011898
        k( 1640) = (   0.0216070   0.5380799   0.0000000), wk =   0.0011898
        k( 1641) = (   0.0236070   0.4845272   0.0000000), wk =   0.0011898
        k( 1642) = (   0.0236070   0.4858910   0.0000000), wk =   0.0011898
        k( 1643) = (   0.0236070   0.4872548   0.0000000), wk =   0.0011898
        k( 1644) = (   0.0236070   0.4886186   0.0000000), wk =   0.0011898
        k( 1645) = (   0.0236070   0.4899824   0.0000000), wk =   0.0011898
        k( 1646) = (   0.0236070   0.4913463   0.0000000), wk =   0.0011898
        k( 1647) = (   0.0236070   0.4927101   0.0000000), wk =   0.0011898
        k( 1648) = (   0.0236070   0.4940739   0.0000000), wk =   0.0011898
        k( 1649) = (   0.0236070   0.4954377   0.0000000), wk =   0.0011898
        k( 1650) = (   0.0236070   0.4968015   0.0000000), wk =   0.0011898
        k( 1651) = (   0.0236070   0.4981654   0.0000000), wk =   0.0011898
        k( 1652) = (   0.0236070   0.4995292   0.0000000), wk =   0.0011898
        k( 1653) = (   0.0236070   0.5008930   0.0000000), wk =   0.0011898
        k( 1654) = (   0.0236070   0.5022568   0.0000000), wk =   0.0011898
        k( 1655) = (   0.0236070   0.5036206   0.0000000), wk =   0.0011898
        k( 1656) = (   0.0236070   0.5049845   0.0000000), wk =   0.0011898
        k( 1657) = (   0.0236070   0.5063483   0.0000000), wk =   0.0011898
        k( 1658) = (   0.0236070   0.5077121   0.0000000), wk =   0.0011898
        k( 1659) = (   0.0236070   0.5090759   0.0000000), wk =   0.0011898
        k( 1660) = (   0.0236070   0.5104397   0.0000000), wk =   0.0011898
        k( 1661) = (   0.0236070   0.5118036   0.0000000), wk =   0.0011898
        k( 1662) = (   0.0236070   0.5131674   0.0000000), wk =   0.0011898
        k( 1663) = (   0.0236070   0.5145312   0.0000000), wk =   0.0011898
        k( 1664) = (   0.0236070   0.5158950   0.0000000), wk =   0.0011898
        k( 1665) = (   0.0236070   0.5172588   0.0000000), wk =   0.0011898
        k( 1666) = (   0.0236070   0.5186227   0.0000000), wk =   0.0011898
        k( 1667) = (   0.0236070   0.5199865   0.0000000), wk =   0.0011898
        k( 1668) = (   0.0236070   0.5213503   0.0000000), wk =   0.0011898
        k( 1669) = (   0.0236070   0.5227141   0.0000000), wk =   0.0011898
        k( 1670) = (   0.0236070   0.5240779   0.0000000), wk =   0.0011898
        k( 1671) = (   0.0236070   0.5254418   0.0000000), wk =   0.0011898
        k( 1672) = (   0.0236070   0.5268056   0.0000000), wk =   0.0011898
        k( 1673) = (   0.0236070   0.5281694   0.0000000), wk =   0.0011898
        k( 1674) = (   0.0236070   0.5295332   0.0000000), wk =   0.0011898
        k( 1675) = (   0.0236070   0.5308970   0.0000000), wk =   0.0011898
        k( 1676) = (   0.0236070   0.5322609   0.0000000), wk =   0.0011898
        k( 1677) = (   0.0236070   0.5336247   0.0000000), wk =   0.0011898
        k( 1678) = (   0.0236070   0.5349885   0.0000000), wk =   0.0011898
        k( 1679) = (   0.0236070   0.5363523   0.0000000), wk =   0.0011898
        k( 1680) = (   0.0236070   0.5377161   0.0000000), wk =   0.0011898
        k( 1681) = (   0.0236070   0.5390799   0.0000000), wk =   0.0011898

     Dense  grid:    22701 G-vectors     FFT dimensions: (  24,  24, 120)

     Dynamical RAM for                 wfc:       0.35 MB

     Dynamical RAM for     wfc (w. buffer):       0.35 MB

     Dynamical RAM for           str. fact:       0.35 MB

     Dynamical RAM for           local pot:       0.00 MB

     Dynamical RAM for          nlocal pot:       0.70 MB

     Dynamical RAM for                qrad:       0.29 MB

     Dynamical RAM for          rho,v,vnew:       2.62 MB

     Dynamical RAM for           G-vectors:       1.47 MB

     Dynamical RAM for          h,s,v(r/c):       0.01 MB

     Dynamical RAM for          <psi|beta>:       0.00 MB

     Dynamical RAM for                 psi:       0.70 MB

     Dynamical RAM for                hpsi:       0.70 MB

     Dynamical RAM for                spsi:       0.70 MB

     Dynamical RAM for      wfcinit/wfcrot:       0.70 MB

     Dynamical RAM for           addusdens:       2.25 MB

     Estimated static dynamical RAM per process >       9.10 MB

     Estimated max dynamical RAM per process >      11.35 MB

     Estimated total dynamical RAM >      90.83 MB

     Check: negative core charge=   -0.000012

     The potential is recalculated from file :
     ./tmp/graphene27.0upper.save/charge-density


     negative rho (up, down):  1.966E-03 0.000E+00
     Starting wfcs are    8 randomized atomic wfcs
     Checking if some PAW data can be deallocated... 

     Band Structure Calculation
     Davidson diagonalization with overlap

     Computing kpt #:     1  of   211 on this pool
     total cpu time spent up to now is        1.6 secs

     Computing kpt #:     2  of   211 on this pool
     total cpu time spent up to now is        1.7 secs

     Computing kpt #:     3  of   211 on this pool
     total cpu time spent up to now is        1.9 secs

     Computing kpt #:     4  of   211 on this pool
     total cpu time spent up to now is        2.0 secs

     Computing kpt #:     5  of   211 on this pool
     total cpu time spent up to now is        2.2 secs

     Computing kpt #:     6  of   211 on this pool
     total cpu time spent up to now is        2.3 secs

     Computing kpt #:     7  of   211 on this pool
     total cpu time spent up to now is        2.5 secs

     Computing kpt #:     8  of   211 on this pool
     total cpu time spent up to now is        2.6 secs

     Computing kpt #:     9  of   211 on this pool
     total cpu time spent up to now is        2.7 secs

     Computing kpt #:    10  of   211 on this pool
     total cpu time spent up to now is        2.9 secs

     Computing kpt #:    11  of   211 on this pool
     total cpu time spent up to now is        3.0 secs

     Computing kpt #:    12  of   211 on this pool
     total cpu time spent up to now is        3.1 secs

     Computing kpt #:    13  of   211 on this pool
     total cpu time spent up to now is        3.3 secs

     Computing kpt #:    14  of   211 on this pool
     total cpu time spent up to now is        3.4 secs

     Computing kpt #:    15  of   211 on this pool
     total cpu time spent up to now is        3.6 secs

     Computing kpt #:    16  of   211 on this pool
     total cpu time spent up to now is        3.7 secs

     Computing kpt #:    17  of   211 on this pool
     total cpu time spent up to now is        3.9 secs

     Computing kpt #:    18  of   211 on this pool
     total cpu time spent up to now is        4.0 secs

     Computing kpt #:    19  of   211 on this pool
     total cpu time spent up to now is        4.1 secs

     Computing kpt #:    20  of   211 on this pool
     total cpu time spent up to now is        4.3 secs

     Computing kpt #:    21  of   211 on this pool
     total cpu time spent up to now is        4.4 secs

     Computing kpt #:    22  of   211 on this pool
     total cpu time spent up to now is        4.5 secs

     Computing kpt #:    23  of   211 on this pool
     total cpu time spent up to now is        4.7 secs

     Computing kpt #:    24  of   211 on this pool
     total cpu time spent up to now is        4.8 secs

     Computing kpt #:    25  of   211 on this pool
     total cpu time spent up to now is        4.9 secs

     Computing kpt #:    26  of   211 on this pool
     total cpu time spent up to now is        5.1 secs

     Computing kpt #:    27  of   211 on this pool
     total cpu time spent up to now is        5.2 secs

     Computing kpt #:    28  of   211 on this pool
     total cpu time spent up to now is        5.4 secs

     Computing kpt #:    29  of   211 on this pool
     total cpu time spent up to now is        5.6 secs

     Computing kpt #:    30  of   211 on this pool
     total cpu time spent up to now is        5.7 secs

     Computing kpt #:    31  of   211 on this pool
     total cpu time spent up to now is        5.8 secs

     Computing kpt #:    32  of   211 on this pool
     total cpu time spent up to now is        6.0 secs

     Computing kpt #:    33  of   211 on this pool
     total cpu time spent up to now is        6.1 secs

     Computing kpt #:    34  of   211 on this pool
     total cpu time spent up to now is        6.3 secs

     Computing kpt #:    35  of   211 on this pool
     total cpu time spent up to now is        6.4 secs

     Computing kpt #:    36  of   211 on this pool
     total cpu time spent up to now is        6.5 secs

     Computing kpt #:    37  of   211 on this pool
     total cpu time spent up to now is        6.7 secs

     Computing kpt #:    38  of   211 on this pool
     total cpu time spent up to now is        6.8 secs

     Computing kpt #:    39  of   211 on this pool
     total cpu time spent up to now is        7.0 secs

     Computing kpt #:    40  of   211 on this pool
     total cpu time spent up to now is        7.1 secs

     Computing kpt #:    41  of   211 on this pool
     total cpu time spent up to now is        7.2 secs

     Computing kpt #:    42  of   211 on this pool
     total cpu time spent up to now is        7.4 secs

     Computing kpt #:    43  of   211 on this pool
     total cpu time spent up to now is        7.5 secs

     Computing kpt #:    44  of   211 on this pool
     total cpu time spent up to now is        7.7 secs

     Computing kpt #:    45  of   211 on this pool
     total cpu time spent up to now is        7.9 secs

     Computing kpt #:    46  of   211 on this pool
     total cpu time spent up to now is        8.0 secs

     Computing kpt #:    47  of   211 on this pool
     total cpu time spent up to now is        8.2 secs

     Computing kpt #:    48  of   211 on this pool
     total cpu time spent up to now is        8.3 secs

     Computing kpt #:    49  of   211 on this pool
     total cpu time spent up to now is        8.5 secs

     Computing kpt #:    50  of   211 on this pool
     total cpu time spent up to now is        8.6 secs

     Computing kpt #:    51  of   211 on this pool
     total cpu time spent up to now is        8.8 secs

     Computing kpt #:    52  of   211 on this pool
     total cpu time spent up to now is        8.9 secs

     Computing kpt #:    53  of   211 on this pool
     total cpu time spent up to now is        9.0 secs

     Computing kpt #:    54  of   211 on this pool
     total cpu time spent up to now is        9.2 secs

     Computing kpt #:    55  of   211 on this pool
     total cpu time spent up to now is        9.3 secs

     Computing kpt #:    56  of   211 on this pool
     total cpu time spent up to now is        9.4 secs

     Computing kpt #:    57  of   211 on this pool
     total cpu time spent up to now is        9.6 secs

     Computing kpt #:    58  of   211 on this pool
     total cpu time spent up to now is        9.7 secs

     Computing kpt #:    59  of   211 on this pool
     total cpu time spent up to now is        9.8 secs

     Computing kpt #:    60  of   211 on this pool
     total cpu time spent up to now is       10.0 secs

     Computing kpt #:    61  of   211 on this pool
     total cpu time spent up to now is       10.1 secs

     Computing kpt #:    62  of   211 on this pool
     total cpu time spent up to now is       10.3 secs

     Computing kpt #:    63  of   211 on this pool
     total cpu time spent up to now is       10.4 secs

     Computing kpt #:    64  of   211 on this pool
     total cpu time spent up to now is       10.6 secs

     Computing kpt #:    65  of   211 on this pool
     total cpu time spent up to now is       10.7 secs

     Computing kpt #:    66  of   211 on this pool
     total cpu time spent up to now is       10.9 secs

     Computing kpt #:    67  of   211 on this pool
     total cpu time spent up to now is       11.0 secs

     Computing kpt #:    68  of   211 on this pool
     total cpu time spent up to now is       11.1 secs

     Computing kpt #:    69  of   211 on this pool
     total cpu time spent up to now is       11.3 secs

     Computing kpt #:    70  of   211 on this pool
     total cpu time spent up to now is       11.4 secs

     Computing kpt #:    71  of   211 on this pool
     total cpu time spent up to now is       11.6 secs

     Computing kpt #:    72  of   211 on this pool
     total cpu time spent up to now is       11.7 secs

     Computing kpt #:    73  of   211 on this pool
     total cpu time spent up to now is       11.8 secs

     Computing kpt #:    74  of   211 on this pool
     total cpu time spent up to now is       12.0 secs

     Computing kpt #:    75  of   211 on this pool
     total cpu time spent up to now is       12.1 secs

     Computing kpt #:    76  of   211 on this pool
     total cpu time spent up to now is       12.2 secs

     Computing kpt #:    77  of   211 on this pool
     total cpu time spent up to now is       12.4 secs

     Computing kpt #:    78  of   211 on this pool
     total cpu time spent up to now is       12.5 secs

     Computing kpt #:    79  of   211 on this pool
     total cpu time spent up to now is       12.7 secs

     Computing kpt #:    80  of   211 on this pool
     total cpu time spent up to now is       12.8 secs

     Computing kpt #:    81  of   211 on this pool
     total cpu time spent up to now is       12.9 secs

     Computing kpt #:    82  of   211 on this pool
     total cpu time spent up to now is       13.1 secs

     Computing kpt #:    83  of   211 on this pool
     total cpu time spent up to now is       13.2 secs

     Computing kpt #:    84  of   211 on this pool
     total cpu time spent up to now is       13.3 secs

     Computing kpt #:    85  of   211 on this pool
     total cpu time spent up to now is       13.5 secs

     Computing kpt #:    86  of   211 on this pool
     total cpu time spent up to now is       13.6 secs

     Computing kpt #:    87  of   211 on this pool
     total cpu time spent up to now is       13.8 secs

     Computing kpt #:    88  of   211 on this pool
     total cpu time spent up to now is       13.9 secs

     Computing kpt #:    89  of   211 on this pool
     total cpu time spent up to now is       14.1 secs

     Computing kpt #:    90  of   211 on this pool
     total cpu time spent up to now is       14.3 secs

     Computing kpt #:    91  of   211 on this pool
     total cpu time spent up to now is       14.4 secs

     Computing kpt #:    92  of   211 on this pool
     total cpu time spent up to now is       14.5 secs

     Computing kpt #:    93  of   211 on this pool
     total cpu time spent up to now is       14.7 secs

     Computing kpt #:    94  of   211 on this pool
     total cpu time spent up to now is       14.8 secs

     Computing kpt #:    95  of   211 on this pool
     total cpu time spent up to now is       15.0 secs

     Computing kpt #:    96  of   211 on this pool
     total cpu time spent up to now is       15.1 secs

     Computing kpt #:    97  of   211 on this pool
     total cpu time spent up to now is       15.3 secs

     Computing kpt #:    98  of   211 on this pool
     total cpu time spent up to now is       15.4 secs

     Computing kpt #:    99  of   211 on this pool
     total cpu time spent up to now is       15.5 secs

     Computing kpt #:   100  of   211 on this pool
     total cpu time spent up to now is       15.7 secs

     Computing kpt #:   101  of   211 on this pool
     total cpu time spent up to now is       15.8 secs

     Computing kpt #:   102  of   211 on this pool
     total cpu time spent up to now is       15.9 secs

     Computing kpt #:   103  of   211 on this pool
     total cpu time spent up to now is       16.1 secs

     Computing kpt #:   104  of   211 on this pool
     total cpu time spent up to now is       16.2 secs

     Computing kpt #:   105  of   211 on this pool
     total cpu time spent up to now is       16.4 secs

     Computing kpt #:   106  of   211 on this pool
     total cpu time spent up to now is       16.5 secs

     Computing kpt #:   107  of   211 on this pool
     total cpu time spent up to now is       16.7 secs

     Computing kpt #:   108  of   211 on this pool
     total cpu time spent up to now is       16.8 secs

     Computing kpt #:   109  of   211 on this pool
     total cpu time spent up to now is       17.0 secs

     Computing kpt #:   110  of   211 on this pool
     total cpu time spent up to now is       17.1 secs

     Computing kpt #:   111  of   211 on this pool
     total cpu time spent up to now is       17.2 secs

     Computing kpt #:   112  of   211 on this pool
     total cpu time spent up to now is       17.4 secs

     Computing kpt #:   113  of   211 on this pool
     total cpu time spent up to now is       17.5 secs

     Computing kpt #:   114  of   211 on this pool
     total cpu time spent up to now is       17.7 secs

     Computing kpt #:   115  of   211 on this pool
     total cpu time spent up to now is       17.8 secs

     Computing kpt #:   116  of   211 on this pool
     total cpu time spent up to now is       17.9 secs

     Computing kpt #:   117  of   211 on this pool
     total cpu time spent up to now is       18.1 secs

     Computing kpt #:   118  of   211 on this pool
     total cpu time spent up to now is       18.2 secs

     Computing kpt #:   119  of   211 on this pool
     total cpu time spent up to now is       18.3 secs

     Computing kpt #:   120  of   211 on this pool
     total cpu time spent up to now is       18.5 secs

     Computing kpt #:   121  of   211 on this pool
     total cpu time spent up to now is       18.6 secs

     Computing kpt #:   122  of   211 on this pool
     total cpu time spent up to now is       18.7 secs

     Computing kpt #:   123  of   211 on this pool
     total cpu time spent up to now is       18.9 secs

     Computing kpt #:   124  of   211 on this pool
     total cpu time spent up to now is       19.0 secs

     Computing kpt #:   125  of   211 on this pool
     total cpu time spent up to now is       19.2 secs

     Computing kpt #:   126  of   211 on this pool
     total cpu time spent up to now is       19.3 secs

     Computing kpt #:   127  of   211 on this pool
     total cpu time spent up to now is       19.5 secs

     Computing kpt #:   128  of   211 on this pool
     total cpu time spent up to now is       19.7 secs

     Computing kpt #:   129  of   211 on this pool
     total cpu time spent up to now is       19.8 secs

     Computing kpt #:   130  of   211 on this pool
     total cpu time spent up to now is       20.0 secs

     Computing kpt #:   131  of   211 on this pool
     total cpu time spent up to now is       20.1 secs

     Computing kpt #:   132  of   211 on this pool
     total cpu time spent up to now is       20.2 secs

     Computing kpt #:   133  of   211 on this pool
     total cpu time spent up to now is       20.4 secs

     Computing kpt #:   134  of   211 on this pool
     total cpu time spent up to now is       20.5 secs

     Computing kpt #:   135  of   211 on this pool
     total cpu time spent up to now is       20.7 secs

     Computing kpt #:   136  of   211 on this pool
     total cpu time spent up to now is       20.8 secs

     Computing kpt #:   137  of   211 on this pool
     total cpu time spent up to now is       20.9 secs

     Computing kpt #:   138  of   211 on this pool
     total cpu time spent up to now is       21.1 secs

     Computing kpt #:   139  of   211 on this pool
     total cpu time spent up to now is       21.2 secs

     Computing kpt #:   140  of   211 on this pool
     total cpu time spent up to now is       21.4 secs

     Computing kpt #:   141  of   211 on this pool
     total cpu time spent up to now is       21.5 secs

     Computing kpt #:   142  of   211 on this pool
     total cpu time spent up to now is       21.6 secs

     Computing kpt #:   143  of   211 on this pool
     total cpu time spent up to now is       21.8 secs

     Computing kpt #:   144  of   211 on this pool
     total cpu time spent up to now is       21.9 secs

     Computing kpt #:   145  of   211 on this pool
     total cpu time spent up to now is       22.0 secs

     Computing kpt #:   146  of   211 on this pool
     total cpu time spent up to now is       22.2 secs

     Computing kpt #:   147  of   211 on this pool
     total cpu time spent up to now is       22.3 secs

     Computing kpt #:   148  of   211 on this pool
     total cpu time spent up to now is       22.5 secs

     Computing kpt #:   149  of   211 on this pool
     total cpu time spent up to now is       22.6 secs

     Computing kpt #:   150  of   211 on this pool
     total cpu time spent up to now is       22.8 secs

     Computing kpt #:   151  of   211 on this pool
     total cpu time spent up to now is       22.9 secs

     Computing kpt #:   152  of   211 on this pool
     total cpu time spent up to now is       23.1 secs

     Computing kpt #:   153  of   211 on this pool
     total cpu time spent up to now is       23.3 secs

     Computing kpt #:   154  of   211 on this pool
     total cpu time spent up to now is       23.4 secs

     Computing kpt #:   155  of   211 on this pool
     total cpu time spent up to now is       23.6 secs

     Computing kpt #:   156  of   211 on this pool
     total cpu time spent up to now is       23.7 secs

     Computing kpt #:   157  of   211 on this pool
     total cpu time spent up to now is       23.8 secs

     Computing kpt #:   158  of   211 on this pool
     total cpu time spent up to now is       24.0 secs

     Computing kpt #:   159  of   211 on this pool
     total cpu time spent up to now is       24.1 secs

     Computing kpt #:   160  of   211 on this pool
     total cpu time spent up to now is       24.3 secs

     Computing kpt #:   161  of   211 on this pool
     total cpu time spent up to now is       24.4 secs

     Computing kpt #:   162  of   211 on this pool
     total cpu time spent up to now is       24.5 secs

     Computing kpt #:   163  of   211 on this pool
     total cpu time spent up to now is       24.7 secs

     Computing kpt #:   164  of   211 on this pool
     total cpu time spent up to now is       24.8 secs

     Computing kpt #:   165  of   211 on this pool
     total cpu time spent up to now is       24.9 secs

     Computing kpt #:   166  of   211 on this pool
     total cpu time spent up to now is       25.1 secs

     Computing kpt #:   167  of   211 on this pool
     total cpu time spent up to now is       25.2 secs

     Computing kpt #:   168  of   211 on this pool
     total cpu time spent up to now is       25.4 secs

     Computing kpt #:   169  of   211 on this pool
     total cpu time spent up to now is       25.5 secs

     Computing kpt #:   170  of   211 on this pool
     total cpu time spent up to now is       25.6 secs

     Computing kpt #:   171  of   211 on this pool
     total cpu time spent up to now is       25.8 secs

     Computing kpt #:   172  of   211 on this pool
     total cpu time spent up to now is       25.9 secs

     Computing kpt #:   173  of   211 on this pool
     total cpu time spent up to now is       26.1 secs

     Computing kpt #:   174  of   211 on this pool
     total cpu time spent up to now is       26.2 secs

     Computing kpt #:   175  of   211 on this pool
     total cpu time spent up to now is       26.4 secs

     Computing kpt #:   176  of   211 on this pool
     total cpu time spent up to now is       26.5 secs

     Computing kpt #:   177  of   211 on this pool
     total cpu time spent up to now is       26.7 secs

     Computing kpt #:   178  of   211 on this pool
     total cpu time spent up to now is       26.8 secs

     Computing kpt #:   179  of   211 on this pool
     total cpu time spent up to now is       27.0 secs

     Computing kpt #:   180  of   211 on this pool
     total cpu time spent up to now is       27.1 secs

     Computing kpt #:   181  of   211 on this pool
     total cpu time spent up to now is       27.2 secs

     Computing kpt #:   182  of   211 on this pool
     total cpu time spent up to now is       27.4 secs

     Computing kpt #:   183  of   211 on this pool
     total cpu time spent up to now is       27.5 secs

     Computing kpt #:   184  of   211 on this pool
     total cpu time spent up to now is       27.7 secs

     Computing kpt #:   185  of   211 on this pool
     total cpu time spent up to now is       27.8 secs

     Computing kpt #:   186  of   211 on this pool
     total cpu time spent up to now is       27.9 secs

     Computing kpt #:   187  of   211 on this pool
     total cpu time spent up to now is       28.1 secs

     Computing kpt #:   188  of   211 on this pool
     total cpu time spent up to now is       28.2 secs

     Computing kpt #:   189  of   211 on this pool
     total cpu time spent up to now is       28.4 secs

     Computing kpt #:   190  of   211 on this pool
     total cpu time spent up to now is       28.5 secs

     Computing kpt #:   191  of   211 on this pool
     total cpu time spent up to now is       28.6 secs

     Computing kpt #:   192  of   211 on this pool
     total cpu time spent up to now is       28.8 secs

     Computing kpt #:   193  of   211 on this pool
     total cpu time spent up to now is       28.9 secs

     Computing kpt #:   194  of   211 on this pool
     total cpu time spent up to now is       29.1 secs

     Computing kpt #:   195  of   211 on this pool
     total cpu time spent up to now is       29.2 secs

     Computing kpt #:   196  of   211 on this pool
     total cpu time spent up to now is       29.3 secs

     Computing kpt #:   197  of   211 on this pool
     total cpu time spent up to now is       29.5 secs

     Computing kpt #:   198  of   211 on this pool
     total cpu time spent up to now is       29.6 secs

     Computing kpt #:   199  of   211 on this pool
     total cpu time spent up to now is       29.8 secs

     Computing kpt #:   200  of   211 on this pool
     total cpu time spent up to now is       29.9 secs

     Computing kpt #:   201  of   211 on this pool
     total cpu time spent up to now is       30.0 secs

     Computing kpt #:   202  of   211 on this pool
     total cpu time spent up to now is       30.2 secs

     Computing kpt #:   203  of   211 on this pool
     total cpu time spent up to now is       30.3 secs

     Computing kpt #:   204  of   211 on this pool
     total cpu time spent up to now is       30.4 secs

     Computing kpt #:   205  of   211 on this pool
     total cpu time spent up to now is       30.6 secs

     Computing kpt #:   206  of   211 on this pool
     total cpu time spent up to now is       30.7 secs

     Computing kpt #:   207  of   211 on this pool
     total cpu time spent up to now is       30.9 secs

     Computing kpt #:   208  of   211 on this pool
     total cpu time spent up to now is       31.0 secs

     Computing kpt #:   209  of   211 on this pool
     total cpu time spent up to now is       31.2 secs

     Computing kpt #:   210  of   211 on this pool
     total cpu time spent up to now is       31.3 secs

     Computing kpt #:   211  of   211 on this pool
     total cpu time spent up to now is       31.4 secs

     ethr =  1.25E-08,  avg # of iterations = 32.0

     total cpu time spent up to now is       31.4 secs

     End of band structure calculation

          k =-0.0564 0.6932 0.0000 (  2861 PWs)   bands (ev):

   -15.4989 -13.3115  -9.7409  -3.0570  -1.9574  -1.9033   8.3472   8.5139

          k =-0.0564 0.6952 0.0000 (  2861 PWs)   bands (ev):

   -15.4867 -13.3250  -9.7431  -3.0304  -1.9843  -1.9053   8.3862   8.5319

          k =-0.0564 0.6972 0.0000 (  2861 PWs)   bands (ev):

   -15.4750 -13.3379  -9.7452  -3.0039  -2.0112  -1.9071   8.4251   8.5490

          k =-0.0564 0.6992 0.0000 (  2857 PWs)   bands (ev):

   -15.4637 -13.3502  -9.7472  -2.9773  -2.0381  -1.9088   8.4640   8.5654

          k =-0.0564 0.7012 0.0000 (  2857 PWs)   bands (ev):

   -15.4531 -13.3620  -9.7490  -2.9509  -2.0649  -1.9105   8.5027   8.5809

          k =-0.0564 0.7032 0.0000 (  2853 PWs)   bands (ev):

   -15.4429 -13.3732  -9.7508  -2.9244  -2.0916  -1.9120   8.5414   8.5956

          k =-0.0564 0.7052 0.0000 (  2850 PWs)   bands (ev):

   -15.4332 -13.3838  -9.7524  -2.8980  -2.1183  -1.9134   8.5799   8.6094

          k =-0.0564 0.7072 0.0000 (  2848 PWs)   bands (ev):

   -15.4242 -13.3937  -9.7539  -2.8717  -2.1449  -1.9147   8.6183   8.6223

          k =-0.0564 0.7092 0.0000 (  2848 PWs)   bands (ev):

   -15.4157 -13.4030  -9.7554  -2.8455  -2.1713  -1.9160   8.6343   8.6565

          k =-0.0564 0.7112 0.0000 (  2848 PWs)   bands (ev):

   -15.4079 -13.4116  -9.7567  -2.8194  -2.1977  -1.9171   8.6455   8.6943

          k =-0.0564 0.7132 0.0000 (  2848 PWs)   bands (ev):

   -15.4006 -13.4196  -9.7579  -2.7934  -2.2238  -1.9182   8.6557   8.7318

          k =-0.0564 0.7152 0.0000 (  2852 PWs)   bands (ev):

   -15.3941 -13.4268  -9.7590  -2.7677  -2.2497  -1.9191   8.6649   8.7688

          k =-0.0564 0.7172 0.0000 (  2852 PWs)   bands (ev):

   -15.3881 -13.4333  -9.7599  -2.7423  -2.2753  -1.9200   8.6732   8.8051

          k =-0.0564 0.7192 0.0000 (  2852 PWs)   bands (ev):

   -15.3828 -13.4391  -9.7608  -2.7173  -2.3005  -1.9207   8.6806   8.8405

          k =-0.0564 0.7212 0.0000 (  2850 PWs)   bands (ev):

   -15.3783 -13.4441  -9.7615  -2.6929  -2.3250  -1.9214   8.6870   8.8747

          k =-0.0564 0.7232 0.0000 (  2852 PWs)   bands (ev):

   -15.3743 -13.4484  -9.7621  -2.6693  -2.3487  -1.9219   8.6924   8.9072

          k =-0.0564 0.7252 0.0000 (  2854 PWs)   bands (ev):

   -15.3711 -13.4519  -9.7626  -2.6471  -2.3711  -1.9224   8.6968   8.9372

          k =-0.0564 0.7272 0.0000 (  2854 PWs)   bands (ev):

   -15.3686 -13.4546  -9.7630  -2.6269  -2.3913  -1.9227   8.7003   8.9636

          k =-0.0564 0.7292 0.0000 (  2854 PWs)   bands (ev):

   -15.3668 -13.4566  -9.7633  -2.6100  -2.4083  -1.9230   8.7028   8.9848

          k =-0.0564 0.7312 0.0000 (  2852 PWs)   bands (ev):

   -15.3658 -13.4578  -9.7635  -2.5983  -2.4200  -1.9231   8.7043   8.9989

          k =-0.0564 0.7332 0.0000 (  2852 PWs)   bands (ev):

   -15.3654 -13.4582  -9.7635  -2.5941  -2.4242  -1.9232   8.7048   9.0039

          k =-0.0564 0.7352 0.0000 (  2852 PWs)   bands (ev):

   -15.3658 -13.4578  -9.7635  -2.5983  -2.4200  -1.9231   8.7043   8.9989

          k =-0.0564 0.7372 0.0000 (  2854 PWs)   bands (ev):

   -15.3668 -13.4566  -9.7633  -2.6100  -2.4083  -1.9230   8.7028   8.9848

          k =-0.0564 0.7392 0.0000 (  2854 PWs)   bands (ev):

   -15.3686 -13.4546  -9.7630  -2.6269  -2.3913  -1.9227   8.7003   8.9636

          k =-0.0564 0.7412 0.0000 (  2854 PWs)   bands (ev):

   -15.3711 -13.4519  -9.7626  -2.6471  -2.3711  -1.9224   8.6968   8.9372

          k =-0.0564 0.7432 0.0000 (  2852 PWs)   bands (ev):

   -15.3743 -13.4484  -9.7621  -2.6693  -2.3487  -1.9219   8.6924   8.9072

          k =-0.0564 0.7452 0.0000 (  2850 PWs)   bands (ev):

   -15.3782 -13.4441  -9.7615  -2.6929  -2.3250  -1.9214   8.6870   8.8747

          k =-0.0564 0.7472 0.0000 (  2852 PWs)   bands (ev):

   -15.3828 -13.4391  -9.7608  -2.7173  -2.3005  -1.9207   8.6806   8.8405

          k =-0.0564 0.7492 0.0000 (  2852 PWs)   bands (ev):

   -15.3881 -13.4333  -9.7599  -2.7423  -2.2753  -1.9200   8.6732   8.8051

          k =-0.0564 0.7512 0.0000 (  2852 PWs)   bands (ev):

   -15.3941 -13.4268  -9.7589  -2.7677  -2.2497  -1.9191   8.6649   8.7687

          k =-0.0564 0.7532 0.0000 (  2848 PWs)   bands (ev):

   -15.4006 -13.4196  -9.7579  -2.7934  -2.2238  -1.9182   8.6557   8.7318

          k =-0.0564 0.7552 0.0000 (  2848 PWs)   bands (ev):

   -15.4079 -13.4116  -9.7567  -2.8194  -2.1977  -1.9171   8.6455   8.6943

          k =-0.0564 0.7572 0.0000 (  2848 PWs)   bands (ev):

   -15.4157 -13.4030  -9.7554  -2.8454  -2.1714  -1.9160   8.6343   8.6565

          k =-0.0564 0.7592 0.0000 (  2848 PWs)   bands (ev):

   -15.4242 -13.3937  -9.7539  -2.8717  -2.1449  -1.9147   8.6183   8.6223

          k =-0.0564 0.7612 0.0000 (  2850 PWs)   bands (ev):

   -15.4332 -13.3838  -9.7524  -2.8980  -2.1183  -1.9134   8.5799   8.6094

          k =-0.0564 0.7632 0.0000 (  2853 PWs)   bands (ev):

   -15.4429 -13.3732  -9.7508  -2.9244  -2.0917  -1.9120   8.5414   8.5956

          k =-0.0564 0.7652 0.0000 (  2857 PWs)   bands (ev):

   -15.4530 -13.3620  -9.7490  -2.9508  -2.0649  -1.9105   8.5027   8.5809

          k =-0.0564 0.7672 0.0000 (  2857 PWs)   bands (ev):

   -15.4637 -13.3503  -9.7471  -2.9773  -2.0381  -1.9088   8.4640   8.5654

          k =-0.0564 0.7692 0.0000 (  2861 PWs)   bands (ev):

   -15.4750 -13.3379  -9.7452  -3.0038  -2.0112  -1.9071   8.4251   8.5490

          k =-0.0564 0.7712 0.0000 (  2861 PWs)   bands (ev):

   -15.4867 -13.3250  -9.7431  -3.0304  -1.9843  -1.9053   8.3862   8.5319

          k =-0.0564 0.7732 0.0000 (  2861 PWs)   bands (ev):

   -15.4989 -13.3115  -9.7408  -3.0569  -1.9574  -1.9033   8.3472   8.5139

          k =-0.0544 0.6932 0.0000 (  2861 PWs)   bands (ev):

   -15.4986 -13.3134  -9.7326  -3.0566  -1.9569  -1.9180   8.3442   8.5179

          k =-0.0544 0.6952 0.0000 (  2861 PWs)   bands (ev):

   -15.4864 -13.3269  -9.7348  -3.0300  -1.9839  -1.9199   8.3832   8.5361

          k =-0.0544 0.6972 0.0000 (  2859 PWs)   bands (ev):

   -15.4747 -13.3399  -9.7369  -3.0034  -2.0109  -1.9217   8.4221   8.5535

          k =-0.0544 0.6992 0.0000 (  2857 PWs)   bands (ev):

   -15.4634 -13.3523  -9.7388  -2.9768  -2.0378  -1.9235   8.4610   8.5701

          k =-0.0544 0.7012 0.0000 (  2853 PWs)   bands (ev):

   -15.4527 -13.3641  -9.7407  -2.9503  -2.0647  -1.9251   8.4997   8.5859

          k =-0.0544 0.7032 0.0000 (  2851 PWs)   bands (ev):

   -15.4425 -13.3753  -9.7424  -2.9238  -2.0915  -1.9266   8.5384   8.6008

          k =-0.0544 0.7052 0.0000 (  2850 PWs)   bands (ev):

   -15.4328 -13.3859  -9.7441  -2.8974  -2.1182  -1.9281   8.5770   8.6148

          k =-0.0544 0.7072 0.0000 (  2850 PWs)   bands (ev):

   -15.4238 -13.3959  -9.7456  -2.8710  -2.1449  -1.9294   8.6154   8.6280

          k =-0.0544 0.7092 0.0000 (  2848 PWs)   bands (ev):

   -15.4153 -13.4052  -9.7470  -2.8446  -2.1714  -1.9307   8.6402   8.6535

          k =-0.0544 0.7112 0.0000 (  2850 PWs)   bands (ev):

   -15.4074 -13.4139  -9.7483  -2.8185  -2.1979  -1.9318   8.6515   8.6914

          k =-0.0544 0.7132 0.0000 (  2850 PWs)   bands (ev):

   -15.4002 -13.4218  -9.7495  -2.7924  -2.2241  -1.9328   8.6619   8.7289

          k =-0.0544 0.7152 0.0000 (  2850 PWs)   bands (ev):

   -15.3935 -13.4291  -9.7506  -2.7666  -2.2501  -1.9338   8.6714   8.7659

          k =-0.0544 0.7172 0.0000 (  2852 PWs)   bands (ev):

   -15.3876 -13.4356  -9.7515  -2.7411  -2.2759  -1.9347   8.6798   8.8022

          k =-0.0544 0.7192 0.0000 (  2850 PWs)   bands (ev):

   -15.3823 -13.4414  -9.7524  -2.7159  -2.3012  -1.9354   8.6873   8.8377

          k =-0.0544 0.7212 0.0000 (  2850 PWs)   bands (ev):

   -15.3777 -13.4465  -9.7531  -2.6913  -2.3259  -1.9360   8.6938   8.8719

          k =-0.0544 0.7232 0.0000 (  2854 PWs)   bands (ev):

   -15.3738 -13.4508  -9.7537  -2.6675  -2.3499  -1.9366   8.6994   8.9044

          k =-0.0544 0.7252 0.0000 (  2854 PWs)   bands (ev):

   -15.3705 -13.4543  -9.7542  -2.6449  -2.3725  -1.9370   8.7039   8.9344

          k =-0.0544 0.7272 0.0000 (  2854 PWs)   bands (ev):

   -15.3680 -13.4570  -9.7546  -2.6244  -2.3932  -1.9374   8.7074   8.9609

          k =-0.0544 0.7292 0.0000 (  2856 PWs)   bands (ev):

   -15.3662 -13.4590  -9.7549  -2.6071  -2.4105  -1.9377   8.7100   8.9822

          k =-0.0544 0.7312 0.0000 (  2856 PWs)   bands (ev):

   -15.3651 -13.4602  -9.7551  -2.5950  -2.4226  -1.9378   8.7115   8.9963

          k =-0.0544 0.7332 0.0000 (  2856 PWs)   bands (ev):

   -15.3648 -13.4606  -9.7551  -2.5906  -2.4270  -1.9379   8.7120   9.0012

          k =-0.0544 0.7352 0.0000 (  2856 PWs)   bands (ev):

   -15.3651 -13.4602  -9.7551  -2.5950  -2.4226  -1.9378   8.7115   8.9963

          k =-0.0544 0.7372 0.0000 (  2856 PWs)   bands (ev):

   -15.3662 -13.4590  -9.7549  -2.6071  -2.4105  -1.9377   8.7100   8.9822

          k =-0.0544 0.7392 0.0000 (  2854 PWs)   bands (ev):

   -15.3680 -13.4570  -9.7546  -2.6243  -2.3932  -1.9374   8.7074   8.9609

          k =-0.0544 0.7412 0.0000 (  2854 PWs)   bands (ev):

   -15.3705 -13.4543  -9.7542  -2.6449  -2.3725  -1.9370   8.7039   8.9344

          k =-0.0544 0.7432 0.0000 (  2854 PWs)   bands (ev):

   -15.3738 -13.4508  -9.7537  -2.6675  -2.3499  -1.9366   8.6994   8.9044

          k =-0.0544 0.7452 0.0000 (  2850 PWs)   bands (ev):

   -15.3777 -13.4465  -9.7531  -2.6913  -2.3260  -1.9360   8.6939   8.8719

          k =-0.0544 0.7472 0.0000 (  2850 PWs)   bands (ev):

   -15.3823 -13.4414  -9.7524  -2.7159  -2.3012  -1.9354   8.6873   8.8377

          k =-0.0544 0.7492 0.0000 (  2852 PWs)   bands (ev):

   -15.3876 -13.4356  -9.7515  -2.7410  -2.2759  -1.9347   8.6798   8.8022

          k =-0.0544 0.7512 0.0000 (  2850 PWs)   bands (ev):

   -15.3935 -13.4291  -9.7506  -2.7666  -2.2502  -1.9338   8.6714   8.7659

          k =-0.0544 0.7532 0.0000 (  2850 PWs)   bands (ev):

   -15.4001 -13.4218  -9.7495  -2.7924  -2.2241  -1.9328   8.6619   8.7289

          k =-0.0544 0.7552 0.0000 (  2850 PWs)   bands (ev):

   -15.4074 -13.4139  -9.7483  -2.8184  -2.1979  -1.9318   8.6515   8.6914

          k =-0.0544 0.7572 0.0000 (  2848 PWs)   bands (ev):

   -15.4153 -13.4052  -9.7470  -2.8446  -2.1715  -1.9307   8.6402   8.6535

          k =-0.0544 0.7592 0.0000 (  2850 PWs)   bands (ev):

   -15.4238 -13.3959  -9.7456  -2.8710  -2.1449  -1.9294   8.6154   8.6280

          k =-0.0544 0.7612 0.0000 (  2850 PWs)   bands (ev):

   -15.4328 -13.3859  -9.7441  -2.8973  -2.1183  -1.9281   8.5770   8.6148

          k =-0.0544 0.7632 0.0000 (  2851 PWs)   bands (ev):

   -15.4425 -13.3753  -9.7424  -2.9238  -2.0915  -1.9266   8.5384   8.6008

          k =-0.0544 0.7652 0.0000 (  2853 PWs)   bands (ev):

   -15.4527 -13.3641  -9.7407  -2.9503  -2.0647  -1.9251   8.4997   8.5859

          k =-0.0544 0.7672 0.0000 (  2857 PWs)   bands (ev):

   -15.4634 -13.3523  -9.7388  -2.9768  -2.0378  -1.9235   8.4610   8.5701

          k =-0.0544 0.7692 0.0000 (  2859 PWs)   bands (ev):

   -15.4747 -13.3399  -9.7369  -3.0034  -2.0109  -1.9217   8.4221   8.5535

          k =-0.0544 0.7712 0.0000 (  2861 PWs)   bands (ev):

   -15.4864 -13.3269  -9.7348  -3.0300  -1.9840  -1.9199   8.3832   8.5361

          k =-0.0544 0.7732 0.0000 (  2861 PWs)   bands (ev):

   -15.4986 -13.3134  -9.7326  -3.0566  -1.9570  -1.9180   8.3442   8.5179

          k =-0.0524 0.6932 0.0000 (  2863 PWs)   bands (ev):

   -15.4984 -13.3152  -9.7246  -3.0563  -1.9565  -1.9321   8.3413   8.5218

          k =-0.0524 0.6952 0.0000 (  2861 PWs)   bands (ev):

   -15.4862 -13.3287  -9.7268  -3.0297  -1.9835  -1.9341   8.3803   8.5402

          k =-0.0524 0.6972 0.0000 (  2857 PWs)   bands (ev):

   -15.4744 -13.3418  -9.7288  -3.0030  -2.0106  -1.9359   8.4192   8.5578

          k =-0.0524 0.6992 0.0000 (  2855 PWs)   bands (ev):

   -15.4631 -13.3542  -9.7308  -2.9764  -2.0375  -1.9376   8.4581   8.5747

          k =-0.0524 0.7012 0.0000 (  2851 PWs)   bands (ev):

   -15.4523 -13.3661  -9.7326  -2.9498  -2.0645  -1.9393   8.4969   8.5907

          k =-0.0524 0.7032 0.0000 (  2851 PWs)   bands (ev):

   -15.4421 -13.3773  -9.7344  -2.9232  -2.0913  -1.9408   8.5356   8.6058

          k =-0.0524 0.7052 0.0000 (  2850 PWs)   bands (ev):

   -15.4324 -13.3880  -9.7360  -2.8967  -2.1182  -1.9422   8.5741   8.6201

          k =-0.0524 0.7072 0.0000 (  2850 PWs)   bands (ev):

   -15.4233 -13.3980  -9.7375  -2.8703  -2.1449  -1.9436   8.6125   8.6334

          k =-0.0524 0.7092 0.0000 (  2850 PWs)   bands (ev):

   -15.4148 -13.4073  -9.7389  -2.8439  -2.1715  -1.9448   8.6459   8.6507

          k =-0.0524 0.7112 0.0000 (  2848 PWs)   bands (ev):

   -15.4069 -13.4160  -9.7402  -2.8176  -2.1980  -1.9460   8.6574   8.6886

          k =-0.0524 0.7132 0.0000 (  2848 PWs)   bands (ev):

   -15.3997 -13.4240  -9.7414  -2.7915  -2.2244  -1.9470   8.6680   8.7261

          k =-0.0524 0.7152 0.0000 (  2852 PWs)   bands (ev):

   -15.3930 -13.4313  -9.7424  -2.7655  -2.2505  -1.9480   8.6776   8.7631

          k =-0.0524 0.7172 0.0000 (  2852 PWs)   bands (ev):

   -15.3871 -13.4378  -9.7434  -2.7399  -2.2764  -1.9488   8.6862   8.7995

          k =-0.0524 0.7192 0.0000 (  2852 PWs)   bands (ev):

   -15.3818 -13.4437  -9.7442  -2.7145  -2.3019  -1.9496   8.6938   8.8349

          k =-0.0524 0.7212 0.0000 (  2852 PWs)   bands (ev):

   -15.3771 -13.4487  -9.7450  -2.6897  -2.3268  -1.9502   8.7005   8.8692

          k =-0.0524 0.7232 0.0000 (  2856 PWs)   bands (ev):

   -15.3732 -13.4530  -9.7456  -2.6657  -2.3510  -1.9508   8.7061   8.9017

          k =-0.0524 0.7252 0.0000 (  2856 PWs)   bands (ev):

   -15.3700 -13.4566  -9.7461  -2.6429  -2.3739  -1.9512   8.7107   8.9318

          k =-0.0524 0.7272 0.0000 (  2856 PWs)   bands (ev):

   -15.3674 -13.4593  -9.7465  -2.6220  -2.3949  -1.9516   8.7143   8.9583

          k =-0.0524 0.7292 0.0000 (  2856 PWs)   bands (ev):

   -15.3656 -13.4613  -9.7468  -2.6043  -2.4126  -1.9518   8.7169   8.9796

          k =-0.0524 0.7312 0.0000 (  2856 PWs)   bands (ev):

   -15.3646 -13.4625  -9.7469  -2.5919  -2.4251  -1.9520   8.7185   8.9937

          k =-0.0524 0.7332 0.0000 (  2856 PWs)   bands (ev):

   -15.3642 -13.4629  -9.7470  -2.5873  -2.4296  -1.9520   8.7190   8.9987

          k =-0.0524 0.7352 0.0000 (  2856 PWs)   bands (ev):

   -15.3646 -13.4625  -9.7469  -2.5919  -2.4251  -1.9520   8.7185   8.9937

          k =-0.0524 0.7372 0.0000 (  2856 PWs)   bands (ev):

   -15.3656 -13.4613  -9.7468  -2.6043  -2.4126  -1.9518   8.7169   8.9796

          k =-0.0524 0.7392 0.0000 (  2856 PWs)   bands (ev):

   -15.3674 -13.4593  -9.7465  -2.6220  -2.3949  -1.9516   8.7143   8.9583

          k =-0.0524 0.7412 0.0000 (  2856 PWs)   bands (ev):

   -15.3700 -13.4566  -9.7461  -2.6429  -2.3739  -1.9512   8.7107   8.9318

          k =-0.0524 0.7432 0.0000 (  2856 PWs)   bands (ev):

   -15.3732 -13.4530  -9.7456  -2.6657  -2.3510  -1.9508   8.7061   8.9017

          k =-0.0524 0.7452 0.0000 (  2852 PWs)   bands (ev):

   -15.3771 -13.4487  -9.7449  -2.6897  -2.3268  -1.9502   8.7005   8.8692

          k =-0.0524 0.7472 0.0000 (  2852 PWs)   bands (ev):

   -15.3818 -13.4437  -9.7442  -2.7145  -2.3019  -1.9496   8.6938   8.8349

          k =-0.0524 0.7492 0.0000 (  2852 PWs)   bands (ev):

   -15.3871 -13.4378  -9.7434  -2.7399  -2.2764  -1.9488   8.6862   8.7995

          k =-0.0524 0.7512 0.0000 (  2852 PWs)   bands (ev):

   -15.3930 -13.4313  -9.7424  -2.7655  -2.2505  -1.9480   8.6776   8.7631

          k =-0.0524 0.7532 0.0000 (  2848 PWs)   bands (ev):

   -15.3997 -13.4240  -9.7414  -2.7915  -2.2244  -1.9470   8.6680   8.7261

          k =-0.0524 0.7552 0.0000 (  2848 PWs)   bands (ev):

   -15.4069 -13.4160  -9.7402  -2.8176  -2.1980  -1.9460   8.6574   8.6886

          k =-0.0524 0.7572 0.0000 (  2850 PWs)   bands (ev):

   -15.4148 -13.4073  -9.7389  -2.8439  -2.1715  -1.9448   8.6459   8.6507

          k =-0.0524 0.7592 0.0000 (  2850 PWs)   bands (ev):

   -15.4233 -13.3980  -9.7375  -2.8703  -2.1449  -1.9436   8.6125   8.6334

          k =-0.0524 0.7612 0.0000 (  2850 PWs)   bands (ev):

   -15.4324 -13.3880  -9.7360  -2.8967  -2.1182  -1.9422   8.5741   8.6201

          k =-0.0524 0.7632 0.0000 (  2851 PWs)   bands (ev):

   -15.4421 -13.3773  -9.7344  -2.9232  -2.0914  -1.9408   8.5356   8.6058

          k =-0.0524 0.7652 0.0000 (  2851 PWs)   bands (ev):

   -15.4523 -13.3661  -9.7326  -2.9498  -2.0645  -1.9393   8.4969   8.5907

          k =-0.0524 0.7672 0.0000 (  2855 PWs)   bands (ev):

   -15.4631 -13.3542  -9.7308  -2.9764  -2.0376  -1.9376   8.4581   8.5747

          k =-0.0524 0.7692 0.0000 (  2857 PWs)   bands (ev):

   -15.4744 -13.3418  -9.7288  -3.0030  -2.0106  -1.9359   8.4192   8.5579

          k =-0.0524 0.7712 0.0000 (  2861 PWs)   bands (ev):

   -15.4862 -13.3288  -9.7268  -3.0297  -1.9836  -1.9341   8.3803   8.5402

          k =-0.0524 0.7732 0.0000 (  2863 PWs)   bands (ev):

   -15.4984 -13.3152  -9.7246  -3.0563  -1.9565  -1.9321   8.3413   8.5218

          k =-0.0504 0.6932 0.0000 (  2861 PWs)   bands (ev):

   -15.4982 -13.3169  -9.7168  -3.0560  -1.9561  -1.9458   8.3385   8.5255

          k =-0.0504 0.6952 0.0000 (  2859 PWs)   bands (ev):

   -15.4859 -13.3305  -9.7190  -3.0294  -1.9832  -1.9477   8.3774   8.5441

          k =-0.0504 0.6972 0.0000 (  2855 PWs)   bands (ev):

   -15.4741 -13.3436  -9.7210  -3.0027  -2.0102  -1.9496   8.4164   8.5620

          k =-0.0504 0.6992 0.0000 (  2853 PWs)   bands (ev):

   -15.4628 -13.3561  -9.7230  -2.9760  -2.0372  -1.9513   8.4553   8.5790

          k =-0.0504 0.7012 0.0000 (  2849 PWs)   bands (ev):

   -15.4520 -13.3680  -9.7248  -2.9493  -2.0642  -1.9529   8.4941   8.5953

          k =-0.0504 0.7032 0.0000 (  2849 PWs)   bands (ev):

   -15.4418 -13.3793  -9.7265  -2.9227  -2.0912  -1.9545   8.5328   8.6106

          k =-0.0504 0.7052 0.0000 (  2850 PWs)   bands (ev):

   -15.4321 -13.3900  -9.7282  -2.8962  -2.1180  -1.9559   8.5714   8.6251

          k =-0.0504 0.7072 0.0000 (  2850 PWs)   bands (ev):

   -15.4230 -13.4000  -9.7297  -2.8696  -2.1448  -1.9573   8.6098   8.6387

          k =-0.0504 0.7092 0.0000 (  2850 PWs)   bands (ev):

   -15.4144 -13.4094  -9.7311  -2.8432  -2.1715  -1.9585   8.6480   8.6514

          k =-0.0504 0.7112 0.0000 (  2850 PWs)   bands (ev):

   -15.4065 -13.4181  -9.7323  -2.8169  -2.1981  -1.9597   8.6630   8.6859

          k =-0.0504 0.7132 0.0000 (  2848 PWs)   bands (ev):

   -15.3992 -13.4261  -9.7335  -2.7906  -2.2246  -1.9607   8.6738   8.7234

          k =-0.0504 0.7152 0.0000 (  2854 PWs)   bands (ev):

   -15.3926 -13.4334  -9.7346  -2.7646  -2.2509  -1.9617   8.6835   8.7605

          k =-0.0504 0.7172 0.0000 (  2854 PWs)   bands (ev):

   -15.3866 -13.4400  -9.7355  -2.7388  -2.2768  -1.9625   8.6923   8.7968

          k =-0.0504 0.7192 0.0000 (  2856 PWs)   bands (ev):

   -15.3813 -13.4458  -9.7364  -2.7133  -2.3025  -1.9633   8.7001   8.8323

          k =-0.0504 0.7212 0.0000 (  2858 PWs)   bands (ev):

   -15.3766 -13.4509  -9.7371  -2.6883  -2.3276  -1.9640   8.7069   8.8666

          k =-0.0504 0.7232 0.0000 (  2856 PWs)   bands (ev):

   -15.3727 -13.4552  -9.7377  -2.6641  -2.3519  -1.9645   8.7126   8.8992

          k =-0.0504 0.7252 0.0000 (  2856 PWs)   bands (ev):

   -15.3694 -13.4588  -9.7382  -2.6410  -2.3751  -1.9649   8.7173   8.9293

          k =-0.0504 0.7272 0.0000 (  2856 PWs)   bands (ev):

   -15.3669 -13.4616  -9.7386  -2.6197  -2.3965  -1.9653   8.7210   8.9558

          k =-0.0504 0.7292 0.0000 (  2856 PWs)   bands (ev):

   -15.3651 -13.4635  -9.7389  -2.6016  -2.4146  -1.9655   8.7236   8.9771

          k =-0.0504 0.7312 0.0000 (  2856 PWs)   bands (ev):

   -15.3640 -13.4647  -9.7390  -2.5888  -2.4275  -1.9657   8.7252   8.9913

          k =-0.0504 0.7332 0.0000 (  2856 PWs)   bands (ev):

   -15.3636 -13.4651  -9.7391  -2.5841  -2.4322  -1.9657   8.7257   8.9963

          k =-0.0504 0.7352 0.0000 (  2856 PWs)   bands (ev):

   -15.3640 -13.4647  -9.7390  -2.5888  -2.4275  -1.9657   8.7252   8.9913

          k =-0.0504 0.7372 0.0000 (  2856 PWs)   bands (ev):

   -15.3651 -13.4635  -9.7389  -2.6016  -2.4146  -1.9655   8.7236   8.9771

          k =-0.0504 0.7392 0.0000 (  2856 PWs)   bands (ev):

   -15.3669 -13.4616  -9.7386  -2.6197  -2.3965  -1.9653   8.7210   8.9558

          k =-0.0504 0.7412 0.0000 (  2856 PWs)   bands (ev):

   -15.3694 -13.4588  -9.7382  -2.6410  -2.3752  -1.9649   8.7173   8.9293

          k =-0.0504 0.7432 0.0000 (  2856 PWs)   bands (ev):

   -15.3727 -13.4552  -9.7377  -2.6641  -2.3520  -1.9645   8.7126   8.8992

          k =-0.0504 0.7452 0.0000 (  2858 PWs)   bands (ev):

   -15.3766 -13.4509  -9.7371  -2.6883  -2.3276  -1.9640   8.7069   8.8666

          k =-0.0504 0.7472 0.0000 (  2856 PWs)   bands (ev):

   -15.3813 -13.4458  -9.7363  -2.7133  -2.3025  -1.9633   8.7001   8.8323

          k =-0.0504 0.7492 0.0000 (  2854 PWs)   bands (ev):

   -15.3866 -13.4400  -9.7355  -2.7388  -2.2768  -1.9626   8.6923   8.7968

          k =-0.0504 0.7512 0.0000 (  2854 PWs)   bands (ev):

   -15.3926 -13.4334  -9.7346  -2.7646  -2.2509  -1.9617   8.6836   8.7605

          k =-0.0504 0.7532 0.0000 (  2848 PWs)   bands (ev):

   -15.3992 -13.4261  -9.7335  -2.7906  -2.2246  -1.9607   8.6738   8.7234

          k =-0.0504 0.7552 0.0000 (  2850 PWs)   bands (ev):

   -15.4065 -13.4181  -9.7323  -2.8168  -2.1981  -1.9597   8.6630   8.6859

          k =-0.0504 0.7572 0.0000 (  2850 PWs)   bands (ev):

   -15.4144 -13.4094  -9.7311  -2.8432  -2.1716  -1.9585   8.6479   8.6514

          k =-0.0504 0.7592 0.0000 (  2850 PWs)   bands (ev):

   -15.4230 -13.4000  -9.7297  -2.8696  -2.1449  -1.9573   8.6098   8.6387

          k =-0.0504 0.7612 0.0000 (  2850 PWs)   bands (ev):

   -15.4321 -13.3900  -9.7282  -2.8961  -2.1181  -1.9559   8.5714   8.6251

          k =-0.0504 0.7632 0.0000 (  2849 PWs)   bands (ev):

   -15.4418 -13.3793  -9.7265  -2.9227  -2.0912  -1.9545   8.5328   8.6106

          k =-0.0504 0.7652 0.0000 (  2849 PWs)   bands (ev):

   -15.4520 -13.3680  -9.7248  -2.9493  -2.0642  -1.9529   8.4941   8.5953

          k =-0.0504 0.7672 0.0000 (  2853 PWs)   bands (ev):

   -15.4628 -13.3561  -9.7230  -2.9760  -2.0373  -1.9513   8.4553   8.5790

          k =-0.0504 0.7692 0.0000 (  2855 PWs)   bands (ev):

   -15.4741 -13.3436  -9.7210  -3.0026  -2.0102  -1.9496   8.4164   8.5620

          k =-0.0504 0.7712 0.0000 (  2859 PWs)   bands (ev):

   -15.4859 -13.3305  -9.7190  -3.0293  -1.9832  -1.9477   8.3774   8.5441

          k =-0.0504 0.7732 0.0000 (  2861 PWs)   bands (ev):

   -15.4982 -13.3169  -9.7168  -3.0560  -1.9561  -1.9458   8.3385   8.5255

          k =-0.0484 0.6932 0.0000 (  2857 PWs)   bands (ev):

   -15.4980 -13.3186  -9.7093  -3.0558  -1.9590  -1.9556   8.3358   8.5290

          k =-0.0484 0.6952 0.0000 (  2857 PWs)   bands (ev):

   -15.4857 -13.3323  -9.7115  -3.0291  -1.9828  -1.9609   8.3748   8.5478

          k =-0.0484 0.6972 0.0000 (  2853 PWs)   bands (ev):

   -15.4738 -13.3453  -9.7135  -3.0023  -2.0099  -1.9627   8.4137   8.5659

          k =-0.0484 0.6992 0.0000 (  2853 PWs)   bands (ev):

   -15.4625 -13.3579  -9.7155  -2.9756  -2.0369  -1.9645   8.4526   8.5832

          k =-0.0484 0.7012 0.0000 (  2851 PWs)   bands (ev):

   -15.4517 -13.3698  -9.7173  -2.9489  -2.0640  -1.9661   8.4914   8.5997

          k =-0.0484 0.7032 0.0000 (  2851 PWs)   bands (ev):

   -15.4414 -13.3812  -9.7190  -2.9223  -2.0910  -1.9677   8.5302   8.6152

          k =-0.0484 0.7052 0.0000 (  2850 PWs)   bands (ev):

   -15.4317 -13.3919  -9.7206  -2.8956  -2.1179  -1.9691   8.5688   8.6299

          k =-0.0484 0.7072 0.0000 (  2850 PWs)   bands (ev):

   -15.4226 -13.4019  -9.7221  -2.8691  -2.1448  -1.9705   8.6072   8.6437

          k =-0.0484 0.7092 0.0000 (  2852 PWs)   bands (ev):

   -15.4140 -13.4113  -9.7235  -2.8425  -2.1716  -1.9717   8.6454   8.6566

          k =-0.0484 0.7112 0.0000 (  2852 PWs)   bands (ev):

   -15.4061 -13.4201  -9.7248  -2.8161  -2.1982  -1.9729   8.6684   8.6833

          k =-0.0484 0.7132 0.0000 (  2854 PWs)   bands (ev):

   -15.3988 -13.4281  -9.7259  -2.7898  -2.2248  -1.9739   8.6794   8.7208

          k =-0.0484 0.7152 0.0000 (  2854 PWs)   bands (ev):

   -15.3921 -13.4354  -9.7270  -2.7636  -2.2511  -1.9749   8.6893   8.7579

          k =-0.0484 0.7172 0.0000 (  2854 PWs)   bands (ev):

   -15.3861 -13.4420  -9.7279  -2.7377  -2.2772  -1.9758   8.6982   8.7943

          k =-0.0484 0.7192 0.0000 (  2856 PWs)   bands (ev):

   -15.3808 -13.4479  -9.7287  -2.7121  -2.3030  -1.9765   8.7062   8.8298

          k =-0.0484 0.7212 0.0000 (  2858 PWs)   bands (ev):

   -15.3761 -13.4530  -9.7295  -2.6870  -2.3283  -1.9772   8.7130   8.8641

          k =-0.0484 0.7232 0.0000 (  2858 PWs)   bands (ev):

   -15.3722 -13.4573  -9.7301  -2.6625  -2.3529  -1.9777   8.7189   8.8967

          k =-0.0484 0.7252 0.0000 (  2858 PWs)   bands (ev):

   -15.3689 -13.4609  -9.7306  -2.6392  -2.3763  -1.9782   8.7237   8.9268

          k =-0.0484 0.7272 0.0000 (  2856 PWs)   bands (ev):

   -15.3664 -13.4637  -9.7309  -2.6176  -2.3980  -1.9785   8.7274   8.9534

          k =-0.0484 0.7292 0.0000 (  2856 PWs)   bands (ev):

   -15.3646 -13.4657  -9.7312  -2.5991  -2.4165  -1.9788   8.7301   8.9748

          k =-0.0484 0.7312 0.0000 (  2856 PWs)   bands (ev):

   -15.3635 -13.4669  -9.7314  -2.5859  -2.4297  -1.9789   8.7317   8.9889

          k =-0.0484 0.7332 0.0000 (  2856 PWs)   bands (ev):

   -15.3631 -13.4673  -9.7314  -2.5810  -2.4347  -1.9790   8.7322   8.9939

          k =-0.0484 0.7352 0.0000 (  2856 PWs)   bands (ev):

   -15.3635 -13.4669  -9.7314  -2.5859  -2.4297  -1.9789   8.7317   8.9889

          k =-0.0484 0.7372 0.0000 (  2856 PWs)   bands (ev):

   -15.3646 -13.4657  -9.7312  -2.5991  -2.4165  -1.9788   8.7301   8.9748

          k =-0.0484 0.7392 0.0000 (  2856 PWs)   bands (ev):

   -15.3664 -13.4637  -9.7309  -2.6176  -2.3980  -1.9785   8.7274   8.9534

          k =-0.0484 0.7412 0.0000 (  2858 PWs)   bands (ev):

   -15.3689 -13.4609  -9.7306  -2.6392  -2.3763  -1.9782   8.7237   8.9268

          k =-0.0484 0.7432 0.0000 (  2858 PWs)   bands (ev):

   -15.3722 -13.4573  -9.7301  -2.6625  -2.3529  -1.9777   8.7189   8.8967

          k =-0.0484 0.7452 0.0000 (  2858 PWs)   bands (ev):

   -15.3761 -13.4530  -9.7295  -2.6870  -2.3283  -1.9772   8.7130   8.8641

          k =-0.0484 0.7472 0.0000 (  2856 PWs)   bands (ev):

   -15.3808 -13.4479  -9.7287  -2.7121  -2.3030  -1.9765   8.7062   8.8298

          k =-0.0484 0.7492 0.0000 (  2854 PWs)   bands (ev):

   -15.3861 -13.4420  -9.7279  -2.7377  -2.2772  -1.9758   8.6982   8.7943

          k =-0.0484 0.7512 0.0000 (  2854 PWs)   bands (ev):

   -15.3921 -13.4354  -9.7270  -2.7636  -2.2512  -1.9749   8.6893   8.7579

          k =-0.0484 0.7532 0.0000 (  2854 PWs)   bands (ev):

   -15.3988 -13.4281  -9.7259  -2.7898  -2.2248  -1.9739   8.6794   8.7208

          k =-0.0484 0.7552 0.0000 (  2852 PWs)   bands (ev):

   -15.4061 -13.4201  -9.7247  -2.8161  -2.1982  -1.9729   8.6684   8.6833

          k =-0.0484 0.7572 0.0000 (  2852 PWs)   bands (ev):

   -15.4140 -13.4114  -9.7235  -2.8425  -2.1716  -1.9717   8.6454   8.6566

          k =-0.0484 0.7592 0.0000 (  2850 PWs)   bands (ev):

   -15.4226 -13.4019  -9.7221  -2.8690  -2.1448  -1.9705   8.6072   8.6437

          k =-0.0484 0.7612 0.0000 (  2850 PWs)   bands (ev):

   -15.4317 -13.3919  -9.7206  -2.8956  -2.1179  -1.9691   8.5687   8.6299

          k =-0.0484 0.7632 0.0000 (  2851 PWs)   bands (ev):

   -15.4414 -13.3812  -9.7190  -2.9222  -2.0910  -1.9677   8.5302   8.6153

          k =-0.0484 0.7652 0.0000 (  2851 PWs)   bands (ev):

   -15.4517 -13.3698  -9.7173  -2.9489  -2.0640  -1.9661   8.4914   8.5997

          k =-0.0484 0.7672 0.0000 (  2853 PWs)   bands (ev):

   -15.4625 -13.3579  -9.7155  -2.9756  -2.0370  -1.9645   8.4526   8.5832

          k =-0.0484 0.7692 0.0000 (  2853 PWs)   bands (ev):

   -15.4738 -13.3454  -9.7135  -3.0023  -2.0099  -1.9627   8.4137   8.5660

          k =-0.0484 0.7712 0.0000 (  2857 PWs)   bands (ev):

   -15.4857 -13.3323  -9.7115  -3.0291  -1.9828  -1.9609   8.3747   8.5479

          k =-0.0484 0.7732 0.0000 (  2857 PWs)   bands (ev):

   -15.4980 -13.3186  -9.7093  -3.0558  -1.9590  -1.9556   8.3358   8.5290

          k =-0.0464 0.6932 0.0000 (  2859 PWs)   bands (ev):

   -15.4978 -13.3202  -9.7021  -3.0556  -1.9717  -1.9552   8.3332   8.5323

          k =-0.0464 0.6952 0.0000 (  2857 PWs)   bands (ev):

   -15.4855 -13.3339  -9.7043  -3.0288  -1.9824  -1.9736   8.3722   8.5514

          k =-0.0464 0.6972 0.0000 (  2855 PWs)   bands (ev):

   -15.4736 -13.3470  -9.7063  -3.0020  -2.0095  -1.9754   8.4111   8.5697

          k =-0.0464 0.6992 0.0000 (  2855 PWs)   bands (ev):

   -15.4623 -13.3596  -9.7082  -2.9753  -2.0367  -1.9772   8.4500   8.5872

          k =-0.0464 0.7012 0.0000 (  2853 PWs)   bands (ev):

   -15.4514 -13.3716  -9.7100  -2.9485  -2.0637  -1.9788   8.4889   8.6039

          k =-0.0464 0.7032 0.0000 (  2855 PWs)   bands (ev):

   -15.4411 -13.3829  -9.7117  -2.9218  -2.0908  -1.9804   8.5276   8.6197

          k =-0.0464 0.7052 0.0000 (  2852 PWs)   bands (ev):

   -15.4314 -13.3937  -9.7133  -2.8951  -2.1178  -1.9818   8.5662   8.6346

          k =-0.0464 0.7072 0.0000 (  2852 PWs)   bands (ev):

   -15.4222 -13.4038  -9.7148  -2.8685  -2.1447  -1.9832   8.6047   8.6485

          k =-0.0464 0.7092 0.0000 (  2852 PWs)   bands (ev):

   -15.4137 -13.4132  -9.7162  -2.8419  -2.1716  -1.9844   8.6429   8.6616

          k =-0.0464 0.7112 0.0000 (  2852 PWs)   bands (ev):

   -15.4057 -13.4220  -9.7174  -2.8154  -2.1983  -1.9856   8.6736   8.6808

          k =-0.0464 0.7132 0.0000 (  2854 PWs)   bands (ev):

   -15.3984 -13.4300  -9.7186  -2.7891  -2.2249  -1.9866   8.6847   8.7184

          k =-0.0464 0.7152 0.0000 (  2856 PWs)   bands (ev):

   -15.3917 -13.4374  -9.7196  -2.7628  -2.2514  -1.9876   8.6948   8.7554

          k =-0.0464 0.7172 0.0000 (  2856 PWs)   bands (ev):

   -15.3857 -13.4440  -9.7206  -2.7368  -2.2776  -1.9885   8.7039   8.7919

          k =-0.0464 0.7192 0.0000 (  2856 PWs)   bands (ev):

   -15.3803 -13.4499  -9.7214  -2.7110  -2.3035  -1.9892   8.7120   8.8274

          k =-0.0464 0.7212 0.0000 (  2858 PWs)   bands (ev):

   -15.3757 -13.4550  -9.7221  -2.6857  -2.3289  -1.9899   8.7190   8.8617

          k =-0.0464 0.7232 0.0000 (  2858 PWs)   bands (ev):

   -15.3717 -13.4594  -9.7227  -2.6611  -2.3537  -1.9904   8.7249   8.8943

          k =-0.0464 0.7252 0.0000 (  2858 PWs)   bands (ev):

   -15.3684 -13.4629  -9.7232  -2.6375  -2.3774  -1.9909   8.7298   8.9245

          k =-0.0464 0.7272 0.0000 (  2858 PWs)   bands (ev):

   -15.3659 -13.4657  -9.7236  -2.6156  -2.3994  -1.9912   8.7336   8.9511

          k =-0.0464 0.7292 0.0000 (  2856 PWs)   bands (ev):

   -15.3641 -13.4677  -9.7239  -2.5967  -2.4183  -1.9915   8.7363   8.9725

          k =-0.0464 0.7312 0.0000 (  2856 PWs)   bands (ev):

   -15.3630 -13.4689  -9.7240  -2.5831  -2.4319  -1.9916   8.7379   8.9867

          k =-0.0464 0.7332 0.0000 (  2856 PWs)   bands (ev):

   -15.3626 -13.4693  -9.7241  -2.5780  -2.4370  -1.9917   8.7385   8.9917

          k =-0.0464 0.7352 0.0000 (  2856 PWs)   bands (ev):

   -15.3630 -13.4689  -9.7240  -2.5831  -2.4319  -1.9916   8.7379   8.9867

          k =-0.0464 0.7372 0.0000 (  2856 PWs)   bands (ev):

   -15.3641 -13.4677  -9.7239  -2.5967  -2.4183  -1.9915   8.7363   8.9725

          k =-0.0464 0.7392 0.0000 (  2858 PWs)   bands (ev):

   -15.3659 -13.4657  -9.7236  -2.6156  -2.3994  -1.9912   8.7336   8.9511

          k =-0.0464 0.7412 0.0000 (  2858 PWs)   bands (ev):

   -15.3684 -13.4629  -9.7232  -2.6375  -2.3774  -1.9909   8.7298   8.9245

          k =-0.0464 0.7432 0.0000 (  2858 PWs)   bands (ev):

   -15.3717 -13.4594  -9.7227  -2.6611  -2.3537  -1.9904   8.7249   8.8943

          k =-0.0464 0.7452 0.0000 (  2858 PWs)   bands (ev):

   -15.3757 -13.4550  -9.7221  -2.6857  -2.3289  -1.9899   8.7190   8.8617

          k =-0.0464 0.7472 0.0000 (  2856 PWs)   bands (ev):

   -15.3803 -13.4499  -9.7214  -2.7110  -2.3035  -1.9892   8.7120   8.8274

          k =-0.0464 0.7492 0.0000 (  2856 PWs)   bands (ev):

   -15.3857 -13.4440  -9.7206  -2.7368  -2.2776  -1.9885   8.7039   8.7918

          k =-0.0464 0.7512 0.0000 (  2856 PWs)   bands (ev):

   -15.3917 -13.4374  -9.7196  -2.7628  -2.2514  -1.9876   8.6948   8.7554

          k =-0.0464 0.7532 0.0000 (  2854 PWs)   bands (ev):

   -15.3984 -13.4300  -9.7186  -2.7891  -2.2249  -1.9866   8.6847   8.7184

          k =-0.0464 0.7552 0.0000 (  2852 PWs)   bands (ev):

   -15.4057 -13.4220  -9.7174  -2.8154  -2.1983  -1.9856   8.6736   8.6808

          k =-0.0464 0.7572 0.0000 (  2852 PWs)   bands (ev):

   -15.4137 -13.4132  -9.7162  -2.8419  -2.1716  -1.9844   8.6429   8.6616

          k =-0.0464 0.7592 0.0000 (  2852 PWs)   bands (ev):

   -15.4222 -13.4038  -9.7148  -2.8685  -2.1447  -1.9832   8.6046   8.6485

          k =-0.0464 0.7612 0.0000 (  2852 PWs)   bands (ev):

   -15.4314 -13.3937  -9.7133  -2.8951  -2.1178  -1.9818   8.5662   8.6346

          k =-0.0464 0.7632 0.0000 (  2855 PWs)   bands (ev):

   -15.4411 -13.3830  -9.7117  -2.9218  -2.0908  -1.9804   8.5276   8.6197

          k =-0.0464 0.7652 0.0000 (  2853 PWs)   bands (ev):

   -15.4514 -13.3716  -9.7100  -2.9485  -2.0638  -1.9788   8.4889   8.6039

          k =-0.0464 0.7672 0.0000 (  2855 PWs)   bands (ev):

   -15.4623 -13.3596  -9.7082  -2.9753  -2.0367  -1.9772   8.4500   8.5872

          k =-0.0464 0.7692 0.0000 (  2855 PWs)   bands (ev):

   -15.4736 -13.3471  -9.7063  -3.0020  -2.0095  -1.9754   8.4111   8.5697

          k =-0.0464 0.7712 0.0000 (  2857 PWs)   bands (ev):

   -15.4855 -13.3339  -9.7042  -3.0288  -1.9824  -1.9736   8.3722   8.5514

          k =-0.0464 0.7732 0.0000 (  2859 PWs)   bands (ev):

   -15.4978 -13.3202  -9.7021  -3.0556  -1.9717  -1.9552   8.3332   8.5323

          k =-0.0444 0.6932 0.0000 (  2857 PWs)   bands (ev):

   -15.4976 -13.3218  -9.6952  -3.0554  -1.9838  -1.9548   8.3307   8.5355

          k =-0.0444 0.6952 0.0000 (  2859 PWs)   bands (ev):

   -15.4853 -13.3355  -9.6973  -3.0286  -1.9858  -1.9820   8.3697   8.5548

          k =-0.0444 0.6972 0.0000 (  2859 PWs)   bands (ev):

   -15.4734 -13.3487  -9.6993  -3.0018  -2.0092  -1.9876   8.4087   8.5733

          k =-0.0444 0.6992 0.0000 (  2859 PWs)   bands (ev):

   -15.4620 -13.3613  -9.7012  -2.9750  -2.0364  -1.9894   8.4476   8.5910

          k =-0.0444 0.7012 0.0000 (  2855 PWs)   bands (ev):

   -15.4512 -13.3733  -9.7030  -2.9482  -2.0635  -1.9910   8.4864   8.6079

          k =-0.0444 0.7032 0.0000 (  2855 PWs)   bands (ev):

   -15.4408 -13.3847  -9.7047  -2.9214  -2.0906  -1.9926   8.5252   8.6239

          k =-0.0444 0.7052 0.0000 (  2854 PWs)   bands (ev):

   -15.4311 -13.3954  -9.7063  -2.8947  -2.1176  -1.9940   8.5638   8.6390

          k =-0.0444 0.7072 0.0000 (  2854 PWs)   bands (ev):

   -15.4219 -13.4056  -9.7078  -2.8680  -2.1446  -1.9954   8.6022   8.6532

          k =-0.0444 0.7092 0.0000 (  2852 PWs)   bands (ev):

   -15.4133 -13.4150  -9.7091  -2.8414  -2.1715  -1.9966   8.6405   8.6664

          k =-0.0444 0.7112 0.0000 (  2854 PWs)   bands (ev):

   -15.4053 -13.4238  -9.7104  -2.8148  -2.1984  -1.9978   8.6781   8.6789

          k =-0.0444 0.7132 0.0000 (  2854 PWs)   bands (ev):

   -15.3980 -13.4319  -9.7115  -2.7884  -2.2250  -1.9988   8.6899   8.7160

          k =-0.0444 0.7152 0.0000 (  2858 PWs)   bands (ev):

   -15.3913 -13.4393  -9.7126  -2.7620  -2.2516  -1.9998   8.7001   8.7531

          k =-0.0444 0.7172 0.0000 (  2858 PWs)   bands (ev):

   -15.3852 -13.4459  -9.7135  -2.7359  -2.2779  -2.0007   8.7094   8.7895

          k =-0.0444 0.7192 0.0000 (  2860 PWs)   bands (ev):

   -15.3799 -13.4518  -9.7143  -2.7101  -2.3039  -2.0014   8.7175   8.8251

          k =-0.0444 0.7212 0.0000 (  2858 PWs)   bands (ev):

   -15.3752 -13.4569  -9.7150  -2.6846  -2.3295  -2.0021   8.7246   8.8594

          k =-0.0444 0.7232 0.0000 (  2858 PWs)   bands (ev):

   -15.3712 -13.4613  -9.7156  -2.6598  -2.3545  -2.0026   8.7307   8.8921

          k =-0.0444 0.7252 0.0000 (  2858 PWs)   bands (ev):

   -15.3680 -13.4649  -9.7161  -2.6359  -2.3784  -2.0031   8.7356   8.9222

          k =-0.0444 0.7272 0.0000 (  2858 PWs)   bands (ev):

   -15.3654 -13.4677  -9.7165  -2.6137  -2.4007  -2.0034   8.7395   8.9489

          k =-0.0444 0.7292 0.0000 (  2858 PWs)   bands (ev):

   -15.3636 -13.4697  -9.7168  -2.5944  -2.4200  -2.0037   8.7423   8.9703

          k =-0.0444 0.7312 0.0000 (  2856 PWs)   bands (ev):

   -15.3625 -13.4709  -9.7169  -2.5805  -2.4340  -2.0038   8.7439   8.9845

          k =-0.0444 0.7332 0.0000 (  2856 PWs)   bands (ev):

   -15.3621 -13.4713  -9.7170  -2.5752  -2.4393  -2.0039   8.7445   8.9895

          k =-0.0444 0.7352 0.0000 (  2856 PWs)   bands (ev):

   -15.3625 -13.4709  -9.7169  -2.5805  -2.4340  -2.0038   8.7439   8.9845

          k =-0.0444 0.7372 0.0000 (  2858 PWs)   bands (ev):

   -15.3636 -13.4697  -9.7168  -2.5944  -2.4200  -2.0037   8.7423   8.9703

          k =-0.0444 0.7392 0.0000 (  2858 PWs)   bands (ev):

   -15.3654 -13.4677  -9.7165  -2.6137  -2.4007  -2.0034   8.7395   8.9489

          k =-0.0444 0.7412 0.0000 (  2858 PWs)   bands (ev):

   -15.3680 -13.4649  -9.7161  -2.6359  -2.3784  -2.0031   8.7356   8.9222

          k =-0.0444 0.7432 0.0000 (  2858 PWs)   bands (ev):

   -15.3712 -13.4613  -9.7156  -2.6597  -2.3545  -2.0026   8.7307   8.8921

          k =-0.0444 0.7452 0.0000 (  2858 PWs)   bands (ev):

   -15.3752 -13.4569  -9.7150  -2.6846  -2.3295  -2.0021   8.7246   8.8594

          k =-0.0444 0.7472 0.0000 (  2860 PWs)   bands (ev):

   -15.3799 -13.4518  -9.7143  -2.7101  -2.3039  -2.0014   8.7175   8.8251

          k =-0.0444 0.7492 0.0000 (  2858 PWs)   bands (ev):

   -15.3852 -13.4459  -9.7135  -2.7359  -2.2779  -2.0007   8.7094   8.7895

          k =-0.0444 0.7512 0.0000 (  2858 PWs)   bands (ev):

   -15.3913 -13.4393  -9.7126  -2.7620  -2.2516  -1.9998   8.7001   8.7531

          k =-0.0444 0.7532 0.0000 (  2854 PWs)   bands (ev):

   -15.3980 -13.4319  -9.7115  -2.7883  -2.2251  -1.9988   8.6899   8.7160

          k =-0.0444 0.7552 0.0000 (  2854 PWs)   bands (ev):

   -15.4053 -13.4238  -9.7104  -2.8148  -2.1984  -1.9978   8.6781   8.6789

          k =-0.0444 0.7572 0.0000 (  2852 PWs)   bands (ev):

   -15.4133 -13.4150  -9.7091  -2.8414  -2.1715  -1.9966   8.6405   8.6664

          k =-0.0444 0.7592 0.0000 (  2854 PWs)   bands (ev):

   -15.4219 -13.4056  -9.7078  -2.8680  -2.1446  -1.9954   8.6022   8.6532

          k =-0.0444 0.7612 0.0000 (  2854 PWs)   bands (ev):

   -15.4311 -13.3954  -9.7063  -2.8947  -2.1177  -1.9940   8.5638   8.6390

          k =-0.0444 0.7632 0.0000 (  2855 PWs)   bands (ev):

   -15.4408 -13.3847  -9.7047  -2.9214  -2.0906  -1.9926   8.5252   8.6239

          k =-0.0444 0.7652 0.0000 (  2855 PWs)   bands (ev):

   -15.4511 -13.3733  -9.7030  -2.9482  -2.0635  -1.9910   8.4864   8.6079

          k =-0.0444 0.7672 0.0000 (  2859 PWs)   bands (ev):

   -15.4620 -13.3613  -9.7012  -2.9750  -2.0364  -1.9894   8.4476   8.5910

          k =-0.0444 0.7692 0.0000 (  2859 PWs)   bands (ev):

   -15.4734 -13.3487  -9.6993  -3.0018  -2.0092  -1.9876   8.4086   8.5733

          k =-0.0444 0.7712 0.0000 (  2859 PWs)   bands (ev):

   -15.4853 -13.3355  -9.6973  -3.0286  -1.9858  -1.9820   8.3697   8.5548

          k =-0.0444 0.7732 0.0000 (  2857 PWs)   bands (ev):

   -15.4976 -13.3218  -9.6952  -3.0554  -1.9838  -1.9548   8.3307   8.5355

          k =-0.0424 0.6932 0.0000 (  2861 PWs)   bands (ev):

   -15.4975 -13.3233  -9.6885  -3.0552  -1.9955  -1.9543   8.3283   8.5385

          k =-0.0424 0.6952 0.0000 (  2859 PWs)   bands (ev):

   -15.4851 -13.3370  -9.6906  -3.0284  -1.9975  -1.9816   8.3673   8.5580

          k =-0.0424 0.6972 0.0000 (  2859 PWs)   bands (ev):

   -15.4732 -13.3502  -9.6926  -3.0015  -2.0089  -1.9993   8.4063   8.5768

          k =-0.0424 0.6992 0.0000 (  2857 PWs)   bands (ev):

   -15.4618 -13.3628  -9.6945  -2.9747  -2.0361  -2.0010   8.4452   8.5947

          k =-0.0424 0.7012 0.0000 (  2857 PWs)   bands (ev):

   -15.4509 -13.3749  -9.6963  -2.9479  -2.0633  -2.0027   8.4841   8.6117

          k =-0.0424 0.7032 0.0000 (  2856 PWs)   bands (ev):

   -15.4406 -13.3863  -9.6980  -2.9211  -2.0904  -2.0042   8.5228   8.6279

          k =-0.0424 0.7052 0.0000 (  2854 PWs)   bands (ev):

   -15.4308 -13.3971  -9.6996  -2.8943  -2.1175  -2.0057   8.5615   8.6432

          k =-0.0424 0.7072 0.0000 (  2854 PWs)   bands (ev):

   -15.4216 -13.4073  -9.7010  -2.8675  -2.1445  -2.0071   8.5999   8.6576

          k =-0.0424 0.7092 0.0000 (  2856 PWs)   bands (ev):

   -15.4130 -13.4168  -9.7024  -2.8409  -2.1715  -2.0083   8.6382   8.6710

          k =-0.0424 0.7112 0.0000 (  2854 PWs)   bands (ev):

   -15.4050 -13.4256  -9.7036  -2.8142  -2.1984  -2.0095   8.6761   8.6834

          k =-0.0424 0.7132 0.0000 (  2856 PWs)   bands (ev):

   -15.3976 -13.4337  -9.7048  -2.7877  -2.2252  -2.0105   8.6948   8.7137

          k =-0.0424 0.7152 0.0000 (  2858 PWs)   bands (ev):

   -15.3909 -13.4411  -9.7058  -2.7613  -2.2518  -2.0115   8.7052   8.7508

          k =-0.0424 0.7172 0.0000 (  2858 PWs)   bands (ev):

   -15.3848 -13.4477  -9.7067  -2.7351  -2.2782  -2.0124   8.7146   8.7873

          k =-0.0424 0.7192 0.0000 (  2860 PWs)   bands (ev):

   -15.3795 -13.4536  -9.7075  -2.7091  -2.3043  -2.0131   8.7229   8.8229

          k =-0.0424 0.7212 0.0000 (  2860 PWs)   bands (ev):

   -15.3748 -13.4588  -9.7082  -2.6835  -2.3300  -2.0138   8.7301   8.8572

          k =-0.0424 0.7232 0.0000 (  2858 PWs)   bands (ev):

   -15.3708 -13.4632  -9.7088  -2.6585  -2.3552  -2.0143   8.7362   8.8899

          k =-0.0424 0.7252 0.0000 (  2858 PWs)   bands (ev):

   -15.3675 -13.4668  -9.7093  -2.6344  -2.3793  -2.0148   8.7413   8.9201

          k =-0.0424 0.7272 0.0000 (  2858 PWs)   bands (ev):

   -15.3650 -13.4696  -9.7097  -2.6119  -2.4019  -2.0151   8.7452   8.9467

          k =-0.0424 0.7292 0.0000 (  2858 PWs)   bands (ev):

   -15.3631 -13.4716  -9.7100  -2.5923  -2.4216  -2.0154   8.7480   8.9682

          k =-0.0424 0.7312 0.0000 (  2858 PWs)   bands (ev):

   -15.3620 -13.4728  -9.7101  -2.5780  -2.4360  -2.0155   8.7497   8.9824

          k =-0.0424 0.7332 0.0000 (  2856 PWs)   bands (ev):

   -15.3617 -13.4732  -9.7102  -2.5725  -2.4415  -2.0156   8.7503   8.9875

          k =-0.0424 0.7352 0.0000 (  2858 PWs)   bands (ev):

   -15.3620 -13.4728  -9.7101  -2.5780  -2.4360  -2.0155   8.7497   8.9824

          k =-0.0424 0.7372 0.0000 (  2858 PWs)   bands (ev):

   -15.3631 -13.4716  -9.7100  -2.5923  -2.4216  -2.0154   8.7480   8.9682

          k =-0.0424 0.7392 0.0000 (  2858 PWs)   bands (ev):

   -15.3650 -13.4696  -9.7097  -2.6119  -2.4019  -2.0151   8.7452   8.9467

          k =-0.0424 0.7412 0.0000 (  2858 PWs)   bands (ev):

   -15.3675 -13.4668  -9.7093  -2.6344  -2.3794  -2.0148   8.7413   8.9201

          k =-0.0424 0.7432 0.0000 (  2858 PWs)   bands (ev):

   -15.3708 -13.4632  -9.7088  -2.6585  -2.3552  -2.0143   8.7362   8.8899

          k =-0.0424 0.7452 0.0000 (  2860 PWs)   bands (ev):

   -15.3748 -13.4588  -9.7082  -2.6835  -2.3301  -2.0138   8.7301   8.8572

          k =-0.0424 0.7472 0.0000 (  2860 PWs)   bands (ev):

   -15.3795 -13.4536  -9.7075  -2.7091  -2.3043  -2.0131   8.7229   8.8229

          k =-0.0424 0.7492 0.0000 (  2858 PWs)   bands (ev):

   -15.3848 -13.4477  -9.7067  -2.7351  -2.2782  -2.0124   8.7146   8.7873

          k =-0.0424 0.7512 0.0000 (  2858 PWs)   bands (ev):

   -15.3909 -13.4411  -9.7058  -2.7613  -2.2518  -2.0115   8.7052   8.7508

          k =-0.0424 0.7532 0.0000 (  2856 PWs)   bands (ev):

   -15.3976 -13.4337  -9.7048  -2.7877  -2.2252  -2.0105   8.6948   8.7137

          k =-0.0424 0.7552 0.0000 (  2854 PWs)   bands (ev):

   -15.4050 -13.4256  -9.7036  -2.8142  -2.1984  -2.0095   8.6761   8.6834

          k =-0.0424 0.7572 0.0000 (  2856 PWs)   bands (ev):

   -15.4130 -13.4168  -9.7024  -2.8408  -2.1715  -2.0083   8.6382   8.6710

          k =-0.0424 0.7592 0.0000 (  2854 PWs)   bands (ev):

   -15.4216 -13.4073  -9.7010  -2.8675  -2.1445  -2.0071   8.5999   8.6576

          k =-0.0424 0.7612 0.0000 (  2854 PWs)   bands (ev):

   -15.4308 -13.3971  -9.6996  -2.8943  -2.1175  -2.0057   8.5615   8.6432

          k =-0.0424 0.7632 0.0000 (  2856 PWs)   bands (ev):

   -15.4406 -13.3863  -9.6980  -2.9211  -2.0904  -2.0042   8.5228   8.6279

          k =-0.0424 0.7652 0.0000 (  2857 PWs)   bands (ev):

   -15.4509 -13.3749  -9.6963  -2.9479  -2.0633  -2.0027   8.4841   8.6117

          k =-0.0424 0.7672 0.0000 (  2857 PWs)   bands (ev):

   -15.4618 -13.3628  -9.6945  -2.9747  -2.0361  -2.0010   8.4452   8.5947

          k =-0.0424 0.7692 0.0000 (  2859 PWs)   bands (ev):

   -15.4732 -13.3502  -9.6926  -3.0015  -2.0089  -1.9993   8.4063   8.5768

          k =-0.0424 0.7712 0.0000 (  2859 PWs)   bands (ev):

   -15.4851 -13.3370  -9.6906  -3.0283  -1.9975  -1.9816   8.3673   8.5580

          k =-0.0424 0.7732 0.0000 (  2861 PWs)   bands (ev):

   -15.4975 -13.3233  -9.6885  -3.0552  -1.9955  -1.9544   8.3283   8.5385

          k =-0.0404 0.6932 0.0000 (  2857 PWs)   bands (ev):

   -15.4973 -13.3247  -9.6821  -3.0550  -2.0067  -1.9539   8.3260   8.5414

          k =-0.0404 0.6952 0.0000 (  2859 PWs)   bands (ev):

   -15.4849 -13.3385  -9.6842  -3.0282  -2.0086  -1.9812   8.3650   8.5611

          k =-0.0404 0.6972 0.0000 (  2859 PWs)   bands (ev):

   -15.4730 -13.3517  -9.6862  -3.0013  -2.0105  -2.0085   8.4040   8.5800

          k =-0.0404 0.6992 0.0000 (  2857 PWs)   bands (ev):

   -15.4616 -13.3643  -9.6881  -2.9744  -2.0358  -2.0122   8.4430   8.5981

          k =-0.0404 0.7012 0.0000 (  2857 PWs)   bands (ev):

   -15.4507 -13.3764  -9.6899  -2.9476  -2.0630  -2.0139   8.4818   8.6154

          k =-0.0404 0.7032 0.0000 (  2856 PWs)   bands (ev):

   -15.4403 -13.3879  -9.6915  -2.9207  -2.0902  -2.0154   8.5206   8.6318

          k =-0.0404 0.7052 0.0000 (  2856 PWs)   bands (ev):

   -15.4305 -13.3987  -9.6931  -2.8939  -2.1173  -2.0169   8.5593   8.6472

          k =-0.0404 0.7072 0.0000 (  2856 PWs)   bands (ev):

   -15.4213 -13.4089  -9.6946  -2.8671  -2.1444  -2.0182   8.5977   8.6618

          k =-0.0404 0.7092 0.0000 (  2856 PWs)   bands (ev):

   -15.4127 -13.4184  -9.6959  -2.8404  -2.1714  -2.0195   8.6360   8.6753

          k =-0.0404 0.7112 0.0000 (  2856 PWs)   bands (ev):

   -15.4046 -13.4272  -9.6971  -2.8137  -2.1984  -2.0206   8.6739   8.6879

          k =-0.0404 0.7132 0.0000 (  2860 PWs)   bands (ev):

   -15.3973 -13.4354  -9.6983  -2.7871  -2.2252  -2.0217   8.6995   8.7116

          k =-0.0404 0.7152 0.0000 (  2858 PWs)   bands (ev):

   -15.3905 -13.4428  -9.6993  -2.7606  -2.2519  -2.0227   8.7100   8.7487

          k =-0.0404 0.7172 0.0000 (  2860 PWs)   bands (ev):

   -15.3845 -13.4495  -9.7002  -2.7343  -2.2784  -2.0235   8.7195   8.7851

          k =-0.0404 0.7192 0.0000 (  2860 PWs)   bands (ev):

   -15.3791 -13.4554  -9.7010  -2.7083  -2.3047  -2.0243   8.7279   8.8207

          k =-0.0404 0.7212 0.0000 (  2860 PWs)   bands (ev):

   -15.3744 -13.4605  -9.7017  -2.6825  -2.3305  -2.0250   8.7353   8.8551

          k =-0.0404 0.7232 0.0000 (  2860 PWs)   bands (ev):

   -15.3704 -13.4649  -9.7023  -2.6574  -2.3558  -2.0255   8.7415   8.8878

          k =-0.0404 0.7252 0.0000 (  2858 PWs)   bands (ev):

   -15.3671 -13.4685  -9.7028  -2.6331  -2.3802  -2.0260   8.7466   8.9181

          k =-0.0404 0.7272 0.0000 (  2858 PWs)   bands (ev):

   -15.3645 -13.4713  -9.7032  -2.6103  -2.4030  -2.0263   8.7506   8.9447

          k =-0.0404 0.7292 0.0000 (  2858 PWs)   bands (ev):

   -15.3627 -13.4734  -9.7035  -2.5903  -2.4231  -2.0266   8.7535   8.9662

          k =-0.0404 0.7312 0.0000 (  2858 PWs)   bands (ev):

   -15.3616 -13.4746  -9.7036  -2.5756  -2.4378  -2.0267   8.7552   8.9805

          k =-0.0404 0.7332 0.0000 (  2860 PWs)   bands (ev):

   -15.3612 -13.4750  -9.7037  -2.5699  -2.4435  -2.0268   8.7558   8.9855

          k =-0.0404 0.7352 0.0000 (  2858 PWs)   bands (ev):

   -15.3616 -13.4746  -9.7036  -2.5756  -2.4379  -2.0267   8.7552   8.9805

          k =-0.0404 0.7372 0.0000 (  2858 PWs)   bands (ev):

   -15.3627 -13.4734  -9.7035  -2.5903  -2.4231  -2.0266   8.7535   8.9662

          k =-0.0404 0.7392 0.0000 (  2858 PWs)   bands (ev):

   -15.3645 -13.4713  -9.7032  -2.6103  -2.4030  -2.0263   8.7506   8.9447

          k =-0.0404 0.7412 0.0000 (  2858 PWs)   bands (ev):

   -15.3671 -13.4685  -9.7028  -2.6330  -2.3802  -2.0260   8.7466   8.9181

          k =-0.0404 0.7432 0.0000 (  2860 PWs)   bands (ev):

   -15.3704 -13.4649  -9.7023  -2.6574  -2.3558  -2.0255   8.7415   8.8878

          k =-0.0404 0.7452 0.0000 (  2860 PWs)   bands (ev):

   -15.3744 -13.4605  -9.7017  -2.6825  -2.3305  -2.0250   8.7353   8.8551

          k =-0.0404 0.7472 0.0000 (  2860 PWs)   bands (ev):

   -15.3791 -13.4554  -9.7010  -2.7082  -2.3047  -2.0243   8.7279   8.8207

          k =-0.0404 0.7492 0.0000 (  2860 PWs)   bands (ev):

   -15.3845 -13.4495  -9.7002  -2.7343  -2.2784  -2.0235   8.7195   8.7851

          k =-0.0404 0.7512 0.0000 (  2858 PWs)   bands (ev):

   -15.3905 -13.4428  -9.6993  -2.7606  -2.2519  -2.0227   8.7100   8.7487

          k =-0.0404 0.7532 0.0000 (  2860 PWs)   bands (ev):

   -15.3973 -13.4354  -9.6983  -2.7871  -2.2253  -2.0217   8.6995   8.7116

          k =-0.0404 0.7552 0.0000 (  2856 PWs)   bands (ev):

   -15.4046 -13.4272  -9.6971  -2.8137  -2.1984  -2.0207   8.6739   8.6879

          k =-0.0404 0.7572 0.0000 (  2856 PWs)   bands (ev):

   -15.4127 -13.4184  -9.6959  -2.8404  -2.1715  -2.0195   8.6360   8.6753

          k =-0.0404 0.7592 0.0000 (  2856 PWs)   bands (ev):

   -15.4213 -13.4089  -9.6946  -2.8671  -2.1444  -2.0182   8.5977   8.6618

          k =-0.0404 0.7612 0.0000 (  2856 PWs)   bands (ev):

   -15.4305 -13.3987  -9.6931  -2.8939  -2.1173  -2.0169   8.5592   8.6472

          k =-0.0404 0.7632 0.0000 (  2856 PWs)   bands (ev):

   -15.4403 -13.3879  -9.6915  -2.9207  -2.0902  -2.0154   8.5206   8.6318

          k =-0.0404 0.7652 0.0000 (  2857 PWs)   bands (ev):

   -15.4507 -13.3764  -9.6899  -2.9476  -2.0630  -2.0139   8.4818   8.6154

          k =-0.0404 0.7672 0.0000 (  2857 PWs)   bands (ev):

   -15.4616 -13.3644  -9.6881  -2.9744  -2.0358  -2.0122   8.4430   8.5981

          k =-0.0404 0.7692 0.0000 (  2859 PWs)   bands (ev):

   -15.4730 -13.3517  -9.6862  -3.0013  -2.0105  -2.0085   8.4040   8.5800

          k =-0.0404 0.7712 0.0000 (  2859 PWs)   bands (ev):

   -15.4849 -13.3385  -9.6842  -3.0282  -2.0086  -1.9813   8.3650   8.5611

          k =-0.0404 0.7732 0.0000 (  2857 PWs)   bands (ev):

   -15.4973 -13.3247  -9.6821  -3.0550  -2.0067  -1.9539   8.3260   8.5414

          k =-0.0384 0.6932 0.0000 (  2857 PWs)   bands (ev):

   -15.4972 -13.3260  -9.6760  -3.0549  -2.0173  -1.9535   8.3239   8.5441

          k =-0.0384 0.6952 0.0000 (  2857 PWs)   bands (ev):

   -15.4847 -13.3398  -9.6781  -3.0280  -2.0193  -1.9809   8.3629   8.5640

          k =-0.0384 0.6972 0.0000 (  2857 PWs)   bands (ev):

   -15.4728 -13.3531  -9.6801  -3.0011  -2.0211  -2.0082   8.4019   8.5831

          k =-0.0384 0.6992 0.0000 (  2857 PWs)   bands (ev):

   -15.4613 -13.3658  -9.6819  -2.9742  -2.0355  -2.0229   8.4408   8.6014

          k =-0.0384 0.7012 0.0000 (  2857 PWs)   bands (ev):

   -15.4504 -13.3779  -9.6837  -2.9473  -2.0628  -2.0245   8.4797   8.6188

          k =-0.0384 0.7032 0.0000 (  2856 PWs)   bands (ev):

   -15.4400 -13.3894  -9.6854  -2.9204  -2.0900  -2.0261   8.5185   8.6354

          k =-0.0384 0.7052 0.0000 (  2856 PWs)   bands (ev):

   -15.4302 -13.4002  -9.6869  -2.8936  -2.1172  -2.0275   8.5571   8.6510

          k =-0.0384 0.7072 0.0000 (  2858 PWs)   bands (ev):

   -15.4210 -13.4104  -9.6884  -2.8667  -2.1443  -2.0289   8.5956   8.6657

          k =-0.0384 0.7092 0.0000 (  2858 PWs)   bands (ev):

   -15.4124 -13.4200  -9.6897  -2.8399  -2.1714  -2.0302   8.6339   8.6795

          k =-0.0384 0.7112 0.0000 (  2860 PWs)   bands (ev):

   -15.4043 -13.4288  -9.6910  -2.8132  -2.1984  -2.0313   8.6719   8.6922

          k =-0.0384 0.7132 0.0000 (  2860 PWs)   bands (ev):

   -15.3969 -13.4370  -9.6921  -2.7865  -2.2253  -2.0324   8.7039   8.7095

          k =-0.0384 0.7152 0.0000 (  2860 PWs)   bands (ev):

   -15.3902 -13.4444  -9.6931  -2.7600  -2.2520  -2.0333   8.7146   8.7466

          k =-0.0384 0.7172 0.0000 (  2862 PWs)   bands (ev):

   -15.3841 -13.4511  -9.6940  -2.7336  -2.2786  -2.0342   8.7243   8.7831

          k =-0.0384 0.7192 0.0000 (  2860 PWs)   bands (ev):

   -15.3787 -13.4570  -9.6948  -2.7075  -2.3050  -2.0350   8.7328   8.8187

          k =-0.0384 0.7212 0.0000 (  2860 PWs)   bands (ev):

   -15.3740 -13.4622  -9.6955  -2.6816  -2.3309  -2.0356   8.7402   8.8531

          k =-0.0384 0.7232 0.0000 (  2860 PWs)   bands (ev):

   -15.3700 -13.4666  -9.6961  -2.6563  -2.3564  -2.0362   8.7466   8.8858

          k =-0.0384 0.7252 0.0000 (  2860 PWs)   bands (ev):

   -15.3667 -13.4702  -9.6966  -2.6318  -2.3810  -2.0366   8.7517   8.9161

          k =-0.0384 0.7272 0.0000 (  2858 PWs)   bands (ev):

   -15.3641 -13.4730  -9.6970  -2.6088  -2.4041  -2.0370   8.7558   8.9428

          k =-0.0384 0.7292 0.0000 (  2858 PWs)   bands (ev):

   -15.3623 -13.4751  -9.6972  -2.5884  -2.4245  -2.0372   8.7587   8.9643

          k =-0.0384 0.7312 0.0000 (  2860 PWs)   bands (ev):

   -15.3612 -13.4763  -9.6974  -2.5733  -2.4396  -2.0374   8.7604   8.9786

          k =-0.0384 0.7332 0.0000 (  2860 PWs)   bands (ev):

   -15.3608 -13.4767  -9.6975  -2.5674  -2.4455  -2.0374   8.7610   8.9836

          k =-0.0384 0.7352 0.0000 (  2860 PWs)   bands (ev):

   -15.3612 -13.4763  -9.6974  -2.5733  -2.4396  -2.0374   8.7604   8.9786

          k =-0.0384 0.7372 0.0000 (  2858 PWs)   bands (ev):

   -15.3623 -13.4751  -9.6972  -2.5884  -2.4245  -2.0372   8.7587   8.9643

          k =-0.0384 0.7392 0.0000 (  2858 PWs)   bands (ev):

   -15.3641 -13.4730  -9.6970  -2.6087  -2.4041  -2.0370   8.7558   8.9428

          k =-0.0384 0.7412 0.0000 (  2860 PWs)   bands (ev):

   -15.3667 -13.4702  -9.6966  -2.6318  -2.3810  -2.0366   8.7517   8.9161

          k =-0.0384 0.7432 0.0000 (  2860 PWs)   bands (ev):

   -15.3700 -13.4666  -9.6961  -2.6563  -2.3564  -2.0362   8.7466   8.8858

          k =-0.0384 0.7452 0.0000 (  2860 PWs)   bands (ev):

   -15.3740 -13.4622  -9.6955  -2.6816  -2.3310  -2.0356   8.7402   8.8531

          k =-0.0384 0.7472 0.0000 (  2860 PWs)   bands (ev):

   -15.3787 -13.4570  -9.6948  -2.7074  -2.3050  -2.0350   8.7328   8.8187

          k =-0.0384 0.7492 0.0000 (  2862 PWs)   bands (ev):

   -15.3841 -13.4511  -9.6940  -2.7336  -2.2787  -2.0342   8.7243   8.7831

          k =-0.0384 0.7512 0.0000 (  2860 PWs)   bands (ev):

   -15.3902 -13.4444  -9.6931  -2.7600  -2.2521  -2.0333   8.7146   8.7466

          k =-0.0384 0.7532 0.0000 (  2860 PWs)   bands (ev):

   -15.3969 -13.4370  -9.6921  -2.7865  -2.2253  -2.0324   8.7039   8.7095

          k =-0.0384 0.7552 0.0000 (  2860 PWs)   bands (ev):

   -15.4043 -13.4288  -9.6910  -2.8132  -2.1984  -2.0313   8.6719   8.6922

          k =-0.0384 0.7572 0.0000 (  2858 PWs)   bands (ev):

   -15.4124 -13.4200  -9.6897  -2.8399  -2.1714  -2.0302   8.6339   8.6795

          k =-0.0384 0.7592 0.0000 (  2858 PWs)   bands (ev):

   -15.4210 -13.4104  -9.6884  -2.8667  -2.1443  -2.0289   8.5956   8.6657

          k =-0.0384 0.7612 0.0000 (  2856 PWs)   bands (ev):

   -15.4302 -13.4002  -9.6869  -2.8935  -2.1172  -2.0275   8.5571   8.6510

          k =-0.0384 0.7632 0.0000 (  2856 PWs)   bands (ev):

   -15.4400 -13.3894  -9.6854  -2.9204  -2.0900  -2.0261   8.5185   8.6354

          k =-0.0384 0.7652 0.0000 (  2857 PWs)   bands (ev):

   -15.4504 -13.3779  -9.6837  -2.9473  -2.0628  -2.0245   8.4797   8.6188

          k =-0.0384 0.7672 0.0000 (  2857 PWs)   bands (ev):

   -15.4613 -13.3658  -9.6819  -2.9742  -2.0355  -2.0229   8.4408   8.6014

          k =-0.0384 0.7692 0.0000 (  2857 PWs)   bands (ev):

   -15.4728 -13.3531  -9.6800  -3.0011  -2.0211  -2.0082   8.4019   8.5831

          k =-0.0384 0.7712 0.0000 (  2857 PWs)   bands (ev):

   -15.4847 -13.3398  -9.6781  -3.0280  -2.0193  -1.9809   8.3629   8.5640

          k =-0.0384 0.7732 0.0000 (  2857 PWs)   bands (ev):

   -15.4972 -13.3260  -9.6760  -3.0549  -2.0173  -1.9535   8.3239   8.5441

          k =-0.0364 0.6932 0.0000 (  2857 PWs)   bands (ev):

   -15.4970 -13.3273  -9.6701  -3.0548  -2.0274  -1.9532   8.3218   8.5467

          k =-0.0364 0.6952 0.0000 (  2857 PWs)   bands (ev):

   -15.4846 -13.3411  -9.6722  -3.0278  -2.0294  -1.9805   8.3608   8.5668

          k =-0.0364 0.6972 0.0000 (  2857 PWs)   bands (ev):

   -15.4726 -13.3544  -9.6742  -3.0009  -2.0313  -2.0079   8.3999   8.5860

          k =-0.0364 0.6992 0.0000 (  2855 PWs)   bands (ev):

   -15.4611 -13.3671  -9.6761  -2.9740  -2.0352  -2.0330   8.4388   8.6045

          k =-0.0364 0.7012 0.0000 (  2855 PWs)   bands (ev):

   -15.4502 -13.3793  -9.6778  -2.9470  -2.0625  -2.0347   8.4777   8.6221

          k =-0.0364 0.7032 0.0000 (  2856 PWs)   bands (ev):

   -15.4398 -13.3908  -9.6795  -2.9201  -2.0898  -2.0362   8.5165   8.6388

          k =-0.0364 0.7052 0.0000 (  2856 PWs)   bands (ev):

   -15.4300 -13.4017  -9.6811  -2.8932  -2.1170  -2.0377   8.5551   8.6547

          k =-0.0364 0.7072 0.0000 (  2858 PWs)   bands (ev):

   -15.4207 -13.4119  -9.6825  -2.8664  -2.1442  -2.0390   8.5936   8.6695

          k =-0.0364 0.7092 0.0000 (  2858 PWs)   bands (ev):

   -15.4121 -13.4215  -9.6838  -2.8395  -2.1713  -2.0403   8.6319   8.6834

          k =-0.0364 0.7112 0.0000 (  2860 PWs)   bands (ev):

   -15.4040 -13.4303  -9.6851  -2.8128  -2.1984  -2.0415   8.6699   8.6963

          k =-0.0364 0.7132 0.0000 (  2862 PWs)   bands (ev):

   -15.3966 -13.4385  -9.6862  -2.7860  -2.2253  -2.0425   8.7074   8.7084

          k =-0.0364 0.7152 0.0000 (  2862 PWs)   bands (ev):

   -15.3899 -13.4459  -9.6872  -2.7594  -2.2522  -2.0435   8.7190   8.7447

          k =-0.0364 0.7172 0.0000 (  2862 PWs)   bands (ev):

   -15.3838 -13.4527  -9.6881  -2.7330  -2.2788  -2.0444   8.7287   8.7812

          k =-0.0364 0.7192 0.0000 (  2862 PWs)   bands (ev):

   -15.3784 -13.4586  -9.6889  -2.7067  -2.3052  -2.0451   8.7374   8.8168

          k =-0.0364 0.7212 0.0000 (  2860 PWs)   bands (ev):

   -15.3736 -13.4638  -9.6896  -2.6808  -2.3313  -2.0458   8.7449   8.8512

          k =-0.0364 0.7232 0.0000 (  2860 PWs)   bands (ev):

   -15.3696 -13.4682  -9.6902  -2.6553  -2.3569  -2.0463   8.7513   8.8840

          k =-0.0364 0.7252 0.0000 (  2860 PWs)   bands (ev):

   -15.3663 -13.4718  -9.6907  -2.6306  -2.3817  -2.0468   8.7566   8.9143

          k =-0.0364 0.7272 0.0000 (  2860 PWs)   bands (ev):

   -15.3638 -13.4747  -9.6910  -2.6074  -2.4050  -2.0471   8.7607   8.9410

          k =-0.0364 0.7292 0.0000 (  2860 PWs)   bands (ev):

   -15.3619 -13.4767  -9.6913  -2.5867  -2.4258  -2.0474   8.7637   8.9625

          k =-0.0364 0.7312 0.0000 (  2860 PWs)   bands (ev):

   -15.3608 -13.4779  -9.6915  -2.5712  -2.4413  -2.0475   8.7654   8.9768

          k =-0.0364 0.7332 0.0000 (  2860 PWs)   bands (ev):

   -15.3604 -13.4783  -9.6915  -2.5651  -2.4474  -2.0476   8.7660   8.9818

          k =-0.0364 0.7352 0.0000 (  2860 PWs)   bands (ev):

   -15.3608 -13.4779  -9.6915  -2.5712  -2.4413  -2.0475   8.7654   8.9768

          k =-0.0364 0.7372 0.0000 (  2860 PWs)   bands (ev):

   -15.3619 -13.4767  -9.6913  -2.5867  -2.4258  -2.0474   8.7637   8.9625

          k =-0.0364 0.7392 0.0000 (  2860 PWs)   bands (ev):

   -15.3638 -13.4747  -9.6910  -2.6074  -2.4050  -2.0471   8.7607   8.9410

          k =-0.0364 0.7412 0.0000 (  2860 PWs)   bands (ev):

   -15.3663 -13.4718  -9.6907  -2.6306  -2.3817  -2.0468   8.7566   8.9143

          k =-0.0364 0.7432 0.0000 (  2860 PWs)   bands (ev):

   -15.3696 -13.4682  -9.6902  -2.6553  -2.3569  -2.0463   8.7513   8.8840

          k =-0.0364 0.7452 0.0000 (  2860 PWs)   bands (ev):

   -15.3736 -13.4638  -9.6896  -2.6808  -2.3313  -2.0458   8.7449   8.8512

          k =-0.0364 0.7472 0.0000 (  2862 PWs)   bands (ev):

   -15.3784 -13.4586  -9.6889  -2.7067  -2.3053  -2.0451   8.7374   8.8168

          k =-0.0364 0.7492 0.0000 (  2862 PWs)   bands (ev):

   -15.3838 -13.4527  -9.6881  -2.7330  -2.2788  -2.0444   8.7288   8.7812

          k =-0.0364 0.7512 0.0000 (  2862 PWs)   bands (ev):

   -15.3899 -13.4460  -9.6872  -2.7594  -2.2522  -2.0435   8.7190   8.7447

          k =-0.0364 0.7532 0.0000 (  2862 PWs)   bands (ev):

   -15.3966 -13.4385  -9.6862  -2.7860  -2.2253  -2.0425   8.7074   8.7084

          k =-0.0364 0.7552 0.0000 (  2860 PWs)   bands (ev):

   -15.4040 -13.4303  -9.6851  -2.8127  -2.1984  -2.0415   8.6699   8.6963

          k =-0.0364 0.7572 0.0000 (  2858 PWs)   bands (ev):

   -15.4121 -13.4215  -9.6838  -2.8395  -2.1713  -2.0403   8.6319   8.6834

          k =-0.0364 0.7592 0.0000 (  2858 PWs)   bands (ev):

   -15.4207 -13.4119  -9.6825  -2.8664  -2.1442  -2.0390   8.5936   8.6695

          k =-0.0364 0.7612 0.0000 (  2856 PWs)   bands (ev):

   -15.4300 -13.4017  -9.6810  -2.8932  -2.1170  -2.0377   8.5551   8.6547

          k =-0.0364 0.7632 0.0000 (  2856 PWs)   bands (ev):

   -15.4398 -13.3908  -9.6795  -2.9201  -2.0898  -2.0362   8.5165   8.6388

          k =-0.0364 0.7652 0.0000 (  2855 PWs)   bands (ev):

   -15.4502 -13.3793  -9.6778  -2.9470  -2.0625  -2.0347   8.4777   8.6221

          k =-0.0364 0.7672 0.0000 (  2855 PWs)   bands (ev):

   -15.4611 -13.3671  -9.6761  -2.9740  -2.0352  -2.0330   8.4388   8.6045

          k =-0.0364 0.7692 0.0000 (  2857 PWs)   bands (ev):

   -15.4726 -13.3544  -9.6742  -3.0009  -2.0313  -2.0079   8.3998   8.5860

          k =-0.0364 0.7712 0.0000 (  2857 PWs)   bands (ev):

   -15.4846 -13.3411  -9.6722  -3.0278  -2.0294  -1.9805   8.3608   8.5668

          k =-0.0364 0.7732 0.0000 (  2857 PWs)   bands (ev):

   -15.4970 -13.3273  -9.6701  -3.0547  -2.0274  -1.9532   8.3218   8.5467

          k =-0.0344 0.6932 0.0000 (  2857 PWs)   bands (ev):

   -15.4969 -13.3285  -9.6646  -3.0546  -2.0370  -1.9528   8.3199   8.5491

          k =-0.0344 0.6952 0.0000 (  2857 PWs)   bands (ev):

   -15.4844 -13.3424  -9.6667  -3.0277  -2.0390  -1.9802   8.3589   8.5694

          k =-0.0344 0.6972 0.0000 (  2857 PWs)   bands (ev):

   -15.4725 -13.3557  -9.6686  -3.0007  -2.0409  -2.0076   8.3979   8.5888

          k =-0.0344 0.6992 0.0000 (  2855 PWs)   bands (ev):

   -15.4610 -13.3684  -9.6705  -2.9738  -2.0426  -2.0349   8.4369   8.6074

          k =-0.0344 0.7012 0.0000 (  2855 PWs)   bands (ev):

   -15.4500 -13.3806  -9.6723  -2.9468  -2.0623  -2.0443   8.4758   8.6252

          k =-0.0344 0.7032 0.0000 (  2854 PWs)   bands (ev):

   -15.4396 -13.3921  -9.6739  -2.9199  -2.0896  -2.0458   8.5146   8.6421

          k =-0.0344 0.7052 0.0000 (  2856 PWs)   bands (ev):

   -15.4297 -13.4030  -9.6755  -2.8930  -2.1168  -2.0473   8.5532   8.6581

          k =-0.0344 0.7072 0.0000 (  2858 PWs)   bands (ev):

   -15.4205 -13.4133  -9.6769  -2.8660  -2.1441  -2.0487   8.5917   8.6731

          k =-0.0344 0.7092 0.0000 (  2860 PWs)   bands (ev):

   -15.4118 -13.4229  -9.6782  -2.8392  -2.1712  -2.0499   8.6300   8.6871

          k =-0.0344 0.7112 0.0000 (  2860 PWs)   bands (ev):

   -15.4038 -13.4318  -9.6795  -2.8123  -2.1983  -2.0511   8.6680   8.7002

          k =-0.0344 0.7132 0.0000 (  2862 PWs)   bands (ev):

   -15.3963 -13.4399  -9.6806  -2.7856  -2.2254  -2.0522   8.7057   8.7122

          k =-0.0344 0.7152 0.0000 (  2864 PWs)   bands (ev):

   -15.3896 -13.4474  -9.6816  -2.7589  -2.2523  -2.0531   8.7231   8.7429

          k =-0.0344 0.7172 0.0000 (  2864 PWs)   bands (ev):

   -15.3835 -13.4541  -9.6825  -2.7324  -2.2790  -2.0540   8.7330   8.7794

          k =-0.0344 0.7192 0.0000 (  2862 PWs)   bands (ev):

   -15.3780 -13.4601  -9.6833  -2.7060  -2.3055  -2.0547   8.7418   8.8150

          k =-0.0344 0.7212 0.0000 (  2862 PWs)   bands (ev):

   -15.3733 -13.4653  -9.6840  -2.6800  -2.3317  -2.0554   8.7494   8.8495

          k =-0.0344 0.7232 0.0000 (  2862 PWs)   bands (ev):

   -15.3693 -13.4697  -9.6846  -2.6544  -2.3574  -2.0560   8.7559   8.8822

          k =-0.0344 0.7252 0.0000 (  2860 PWs)   bands (ev):

   -15.3660 -13.4734  -9.6850  -2.6296  -2.3823  -2.0564   8.7612   8.9125

          k =-0.0344 0.7272 0.0000 (  2862 PWs)   bands (ev):

   -15.3634 -13.4762  -9.6854  -2.6060  -2.4059  -2.0568   8.7654   8.9392

          k =-0.0344 0.7292 0.0000 (  2862 PWs)   bands (ev):

   -15.3616 -13.4782  -9.6857  -2.5851  -2.4270  -2.0570   8.7684   8.9608

          k =-0.0344 0.7312 0.0000 (  2860 PWs)   bands (ev):

   -15.3605 -13.4794  -9.6858  -2.5692  -2.4429  -2.0572   8.7701   8.9751

          k =-0.0344 0.7332 0.0000 (  2860 PWs)   bands (ev):

   -15.3601 -13.4798  -9.6859  -2.5629  -2.4491  -2.0572   8.7707   8.9801

          k =-0.0344 0.7352 0.0000 (  2860 PWs)   bands (ev):

   -15.3605 -13.4794  -9.6858  -2.5692  -2.4429  -2.0572   8.7701   8.9751

          k =-0.0344 0.7372 0.0000 (  2862 PWs)   bands (ev):

   -15.3616 -13.4782  -9.6857  -2.5850  -2.4270  -2.0570   8.7684   8.9608

          k =-0.0344 0.7392 0.0000 (  2862 PWs)   bands (ev):

   -15.3634 -13.4762  -9.6854  -2.6060  -2.4059  -2.0568   8.7654   8.9392

          k =-0.0344 0.7412 0.0000 (  2860 PWs)   bands (ev):

   -15.3660 -13.4734  -9.6850  -2.6295  -2.3823  -2.0564   8.7612   8.9125

          k =-0.0344 0.7432 0.0000 (  2862 PWs)   bands (ev):

   -15.3693 -13.4697  -9.6846  -2.6544  -2.3574  -2.0560   8.7559   8.8822

          k =-0.0344 0.7452 0.0000 (  2862 PWs)   bands (ev):

   -15.3733 -13.4653  -9.6840  -2.6800  -2.3317  -2.0554   8.7494   8.8494

          k =-0.0344 0.7472 0.0000 (  2862 PWs)   bands (ev):

   -15.3780 -13.4601  -9.6833  -2.7060  -2.3055  -2.0547   8.7418   8.8150

          k =-0.0344 0.7492 0.0000 (  2864 PWs)   bands (ev):

   -15.3835 -13.4541  -9.6825  -2.7324  -2.2790  -2.0540   8.7330   8.7794

          k =-0.0344 0.7512 0.0000 (  2864 PWs)   bands (ev):

   -15.3896 -13.4474  -9.6816  -2.7589  -2.2523  -2.0531   8.7231   8.7428

          k =-0.0344 0.7532 0.0000 (  2862 PWs)   bands (ev):

   -15.3963 -13.4400  -9.6806  -2.7856  -2.2254  -2.0522   8.7057   8.7122

          k =-0.0344 0.7552 0.0000 (  2860 PWs)   bands (ev):

   -15.4037 -13.4318  -9.6795  -2.8123  -2.1983  -2.0511   8.6680   8.7002

          k =-0.0344 0.7572 0.0000 (  2860 PWs)   bands (ev):

   -15.4118 -13.4229  -9.6782  -2.8392  -2.1712  -2.0499   8.6300   8.6871

          k =-0.0344 0.7592 0.0000 (  2858 PWs)   bands (ev):

   -15.4205 -13.4133  -9.6769  -2.8660  -2.1441  -2.0487   8.5917   8.6731

          k =-0.0344 0.7612 0.0000 (  2856 PWs)   bands (ev):

   -15.4297 -13.4030  -9.6754  -2.8929  -2.1168  -2.0473   8.5532   8.6581

          k =-0.0344 0.7632 0.0000 (  2854 PWs)   bands (ev):

   -15.4396 -13.3921  -9.6739  -2.9199  -2.0896  -2.0458   8.5146   8.6421

          k =-0.0344 0.7652 0.0000 (  2855 PWs)   bands (ev):

   -15.4500 -13.3806  -9.6723  -2.9468  -2.0623  -2.0443   8.4758   8.6252

          k =-0.0344 0.7672 0.0000 (  2855 PWs)   bands (ev):

   -15.4610 -13.3684  -9.6705  -2.9738  -2.0426  -2.0349   8.4369   8.6074

          k =-0.0344 0.7692 0.0000 (  2857 PWs)   bands (ev):

   -15.4725 -13.3557  -9.6686  -3.0007  -2.0409  -2.0076   8.3979   8.5888

          k =-0.0344 0.7712 0.0000 (  2857 PWs)   bands (ev):

   -15.4844 -13.3424  -9.6667  -3.0277  -2.0390  -1.9802   8.3589   8.5694

          k =-0.0344 0.7732 0.0000 (  2857 PWs)   bands (ev):

   -15.4969 -13.3285  -9.6646  -3.0546  -2.0370  -1.9528   8.3199   8.5491

          k =-0.0324 0.6932 0.0000 (  2857 PWs)   bands (ev):

   -15.4968 -13.3296  -9.6593  -3.0545  -2.0461  -1.9524   8.3180   8.5514

          k =-0.0324 0.6952 0.0000 (  2857 PWs)   bands (ev):

   -15.4843 -13.3435  -9.6614  -3.0276  -2.0481  -1.9798   8.3571   8.5718

          k =-0.0324 0.6972 0.0000 (  2857 PWs)   bands (ev):

   -15.4723 -13.3569  -9.6634  -3.0006  -2.0500  -2.0073   8.3961   8.5914

          k =-0.0324 0.6992 0.0000 (  2855 PWs)   bands (ev):

   -15.4608 -13.3696  -9.6652  -2.9736  -2.0517  -2.0347   8.4351   8.6102

          k =-0.0324 0.7012 0.0000 (  2855 PWs)   bands (ev):

   -15.4498 -13.3818  -9.6670  -2.9466  -2.0620  -2.0534   8.4740   8.6281

          k =-0.0324 0.7032 0.0000 (  2854 PWs)   bands (ev):

   -15.4394 -13.3934  -9.6686  -2.9196  -2.0894  -2.0549   8.5128   8.6452

          k =-0.0324 0.7052 0.0000 (  2856 PWs)   bands (ev):

   -15.4295 -13.4043  -9.6702  -2.8927  -2.1167  -2.0564   8.5515   8.6613

          k =-0.0324 0.7072 0.0000 (  2858 PWs)   bands (ev):

   -15.4202 -13.4146  -9.6716  -2.8657  -2.1439  -2.0578   8.5900   8.6765

          k =-0.0324 0.7092 0.0000 (  2860 PWs)   bands (ev):

   -15.4116 -13.4242  -9.6729  -2.8388  -2.1711  -2.0590   8.6283   8.6906

          k =-0.0324 0.7112 0.0000 (  2860 PWs)   bands (ev):

   -15.4035 -13.4331  -9.6741  -2.8120  -2.1983  -2.0602   8.6663   8.7038

          k =-0.0324 0.7132 0.0000 (  2862 PWs)   bands (ev):

   -15.3961 -13.4413  -9.6753  -2.7851  -2.2254  -2.0613   8.7039   8.7160

          k =-0.0324 0.7152 0.0000 (  2864 PWs)   bands (ev):

   -15.3893 -13.4488  -9.6763  -2.7584  -2.2523  -2.0622   8.7270   8.7411

          k =-0.0324 0.7172 0.0000 (  2864 PWs)   bands (ev):

   -15.3832 -13.4555  -9.6772  -2.7318  -2.2791  -2.0631   8.7370   8.7776

          k =-0.0324 0.7192 0.0000 (  2864 PWs)   bands (ev):

   -15.3777 -13.4615  -9.6780  -2.7054  -2.3057  -2.0638   8.7459   8.8133

          k =-0.0324 0.7212 0.0000 (  2864 PWs)   bands (ev):

   -15.3730 -13.4667  -9.6787  -2.6793  -2.3320  -2.0645   8.7536   8.8478

          k =-0.0324 0.7232 0.0000 (  2862 PWs)   bands (ev):

   -15.3690 -13.4712  -9.6792  -2.6535  -2.3578  -2.0651   8.7602   8.8805

          k =-0.0324 0.7252 0.0000 (  2864 PWs)   bands (ev):

   -15.3657 -13.4748  -9.6797  -2.6286  -2.3829  -2.0655   8.7656   8.9108

          k =-0.0324 0.7272 0.0000 (  2864 PWs)   bands (ev):

   -15.3631 -13.4776  -9.6801  -2.6048  -2.4067  -2.0659   8.7698   8.9376

          k =-0.0324 0.7292 0.0000 (  2862 PWs)   bands (ev):

   -15.3612 -13.4797  -9.6803  -2.5835  -2.4281  -2.0661   8.7728   8.9592

          k =-0.0324 0.7312 0.0000 (  2862 PWs)   bands (ev):

   -15.3601 -13.4809  -9.6805  -2.5673  -2.4443  -2.0663   8.7746   8.9735

          k =-0.0324 0.7332 0.0000 (  2860 PWs)   bands (ev):

   -15.3597 -13.4813  -9.6805  -2.5608  -2.4508  -2.0663   8.7752   8.9785

          k =-0.0324 0.7352 0.0000 (  2862 PWs)   bands (ev):

   -15.3601 -13.4809  -9.6805  -2.5673  -2.4443  -2.0663   8.7746   8.9735

          k =-0.0324 0.7372 0.0000 (  2862 PWs)   bands (ev):

   -15.3612 -13.4797  -9.6803  -2.5835  -2.4281  -2.0661   8.7728   8.9592

          k =-0.0324 0.7392 0.0000 (  2864 PWs)   bands (ev):

   -15.3631 -13.4776  -9.6801  -2.6048  -2.4067  -2.0659   8.7698   8.9376

          k =-0.0324 0.7412 0.0000 (  2864 PWs)   bands (ev):

   -15.3657 -13.4748  -9.6797  -2.6285  -2.3829  -2.0655   8.7656   8.9108

          k =-0.0324 0.7432 0.0000 (  2862 PWs)   bands (ev):

   -15.3690 -13.4712  -9.6792  -2.6535  -2.3578  -2.0651   8.7602   8.8805

          k =-0.0324 0.7452 0.0000 (  2864 PWs)   bands (ev):

   -15.3730 -13.4667  -9.6787  -2.6793  -2.3320  -2.0645   8.7536   8.8478

          k =-0.0324 0.7472 0.0000 (  2864 PWs)   bands (ev):

   -15.3777 -13.4615  -9.6780  -2.7054  -2.3057  -2.0638   8.7459   8.8133

          k =-0.0324 0.7492 0.0000 (  2864 PWs)   bands (ev):

   -15.3832 -13.4555  -9.6772  -2.7318  -2.2791  -2.0631   8.7370   8.7776

          k =-0.0324 0.7512 0.0000 (  2864 PWs)   bands (ev):

   -15.3893 -13.4488  -9.6763  -2.7584  -2.2523  -2.0622   8.7270   8.7411

          k =-0.0324 0.7532 0.0000 (  2862 PWs)   bands (ev):

   -15.3961 -13.4413  -9.6753  -2.7851  -2.2254  -2.0613   8.7039   8.7160

          k =-0.0324 0.7552 0.0000 (  2860 PWs)   bands (ev):

   -15.4035 -13.4331  -9.6741  -2.8119  -2.1983  -2.0602   8.6663   8.7038

          k =-0.0324 0.7572 0.0000 (  2860 PWs)   bands (ev):

   -15.4116 -13.4242  -9.6729  -2.8388  -2.1711  -2.0590   8.6283   8.6907

          k =-0.0324 0.7592 0.0000 (  2858 PWs)   bands (ev):

   -15.4202 -13.4146  -9.6716  -2.8657  -2.1439  -2.0578   8.5900   8.6765

          k =-0.0324 0.7612 0.0000 (  2856 PWs)   bands (ev):

   -15.4295 -13.4043  -9.6701  -2.8927  -2.1167  -2.0564   8.5515   8.6613

          k =-0.0324 0.7632 0.0000 (  2854 PWs)   bands (ev):

   -15.4394 -13.3934  -9.6686  -2.9196  -2.0894  -2.0549   8.5128   8.6452

          k =-0.0324 0.7652 0.0000 (  2855 PWs)   bands (ev):

   -15.4498 -13.3818  -9.6670  -2.9466  -2.0620  -2.0534   8.4740   8.6281

          k =-0.0324 0.7672 0.0000 (  2855 PWs)   bands (ev):

   -15.4608 -13.3697  -9.6652  -2.9736  -2.0517  -2.0347   8.4351   8.6102

          k =-0.0324 0.7692 0.0000 (  2857 PWs)   bands (ev):

   -15.4723 -13.3569  -9.6634  -3.0006  -2.0500  -2.0073   8.3961   8.5914

          k =-0.0324 0.7712 0.0000 (  2857 PWs)   bands (ev):

   -15.4843 -13.3435  -9.6614  -3.0276  -2.0481  -1.9799   8.3571   8.5718

          k =-0.0324 0.7732 0.0000 (  2857 PWs)   bands (ev):

   -15.4968 -13.3296  -9.6593  -3.0545  -2.0461  -1.9524   8.3180   8.5514

          k =-0.0304 0.6932 0.0000 (  2857 PWs)   bands (ev):

   -15.4967 -13.3307  -9.6544  -3.0544  -2.0547  -1.9521   8.3163   8.5535

          k =-0.0304 0.6952 0.0000 (  2857 PWs)   bands (ev):

   -15.4842 -13.3446  -9.6564  -3.0275  -2.0566  -1.9795   8.3554   8.5741

          k =-0.0304 0.6972 0.0000 (  2857 PWs)   bands (ev):

   -15.4722 -13.3580  -9.6584  -3.0004  -2.0585  -2.0070   8.3944   8.5938

          k =-0.0304 0.6992 0.0000 (  2855 PWs)   bands (ev):

   -15.4606 -13.3708  -9.6602  -2.9734  -2.0603  -2.0344   8.4334   8.6127

          k =-0.0304 0.7012 0.0000 (  2856 PWs)   bands (ev):

   -15.4497 -13.3830  -9.6620  -2.9464  -2.0620  -2.0617   8.4723   8.6308

          k =-0.0304 0.7032 0.0000 (  2858 PWs)   bands (ev):

   -15.4392 -13.3946  -9.6637  -2.9194  -2.0892  -2.0635   8.5111   8.6480

          k =-0.0304 0.7052 0.0000 (  2860 PWs)   bands (ev):

   -15.4293 -13.4055  -9.6652  -2.8925  -2.1165  -2.0650   8.5498   8.6643

          k =-0.0304 0.7072 0.0000 (  2860 PWs)   bands (ev):

   -15.4200 -13.4158  -9.6666  -2.8655  -2.1438  -2.0663   8.5883   8.6796

          k =-0.0304 0.7092 0.0000 (  2860 PWs)   bands (ev):

   -15.4113 -13.4254  -9.6679  -2.8385  -2.1710  -2.0676   8.6266   8.6939

          k =-0.0304 0.7112 0.0000 (  2860 PWs)   bands (ev):

   -15.4032 -13.4344  -9.6692  -2.8116  -2.1982  -2.0688   8.6646   8.7073

          k =-0.0304 0.7132 0.0000 (  2866 PWs)   bands (ev):

   -15.3958 -13.4426  -9.6703  -2.7848  -2.2254  -2.0699   8.7023   8.7195

          k =-0.0304 0.7152 0.0000 (  2866 PWs)   bands (ev):

   -15.3890 -13.4501  -9.6713  -2.7580  -2.2524  -2.0708   8.7307   8.7395

          k =-0.0304 0.7172 0.0000 (  2866 PWs)   bands (ev):

   -15.3829 -13.4568  -9.6722  -2.7313  -2.2792  -2.0717   8.7408   8.7760

          k =-0.0304 0.7192 0.0000 (  2866 PWs)   bands (ev):

   -15.3775 -13.4628  -9.6730  -2.7049  -2.3059  -2.0724   8.7498   8.8117

          k =-0.0304 0.7212 0.0000 (  2868 PWs)   bands (ev):

   -15.3727 -13.4681  -9.6737  -2.6786  -2.3323  -2.0731   8.7576   8.8462

          k =-0.0304 0.7232 0.0000 (  2868 PWs)   bands (ev):

   -15.3687 -13.4725  -9.6742  -2.6528  -2.3582  -2.0737   8.7642   8.8789

          k =-0.0304 0.7252 0.0000 (  2868 PWs)   bands (ev):

   -15.3654 -13.4761  -9.6747  -2.6277  -2.3835  -2.0741   8.7697   8.9093

          k =-0.0304 0.7272 0.0000 (  2866 PWs)   bands (ev):

   -15.3628 -13.4790  -9.6751  -2.6037  -2.4075  -2.0745   8.7739   8.9361

          k =-0.0304 0.7292 0.0000 (  2866 PWs)   bands (ev):

   -15.3609 -13.4810  -9.6753  -2.5821  -2.4291  -2.0747   8.7770   8.9577

          k =-0.0304 0.7312 0.0000 (  2866 PWs)   bands (ev):

   -15.3598 -13.4822  -9.6755  -2.5656  -2.4457  -2.0749   8.7788   8.9720

          k =-0.0304 0.7332 0.0000 (  2866 PWs)   bands (ev):

   -15.3594 -13.4827  -9.6755  -2.5589  -2.4524  -2.0749   8.7794   8.9770

          k =-0.0304 0.7352 0.0000 (  2866 PWs)   bands (ev):

   -15.3598 -13.4822  -9.6755  -2.5656  -2.4457  -2.0749   8.7788   8.9720

          k =-0.0304 0.7372 0.0000 (  2866 PWs)   bands (ev):

   -15.3609 -13.4810  -9.6753  -2.5821  -2.4291  -2.0747   8.7770   8.9577

          k =-0.0304 0.7392 0.0000 (  2866 PWs)   bands (ev):

   -15.3628 -13.4790  -9.6751  -2.6037  -2.4075  -2.0745   8.7739   8.9361

          k =-0.0304 0.7412 0.0000 (  2868 PWs)   bands (ev):

   -15.3654 -13.4761  -9.6747  -2.6277  -2.3835  -2.0741   8.7697   8.9093

          k =-0.0304 0.7432 0.0000 (  2868 PWs)   bands (ev):

   -15.3687 -13.4725  -9.6742  -2.6528  -2.3582  -2.0737   8.7642   8.8789

          k =-0.0304 0.7452 0.0000 (  2868 PWs)   bands (ev):

   -15.3727 -13.4681  -9.6737  -2.6786  -2.3323  -2.0731   8.7576   8.8462

          k =-0.0304 0.7472 0.0000 (  2866 PWs)   bands (ev):

   -15.3775 -13.4628  -9.6730  -2.7048  -2.3059  -2.0724   8.7498   8.8117

          k =-0.0304 0.7492 0.0000 (  2866 PWs)   bands (ev):

   -15.3829 -13.4568  -9.6722  -2.7313  -2.2792  -2.0717   8.7408   8.7760

          k =-0.0304 0.7512 0.0000 (  2866 PWs)   bands (ev):

   -15.3890 -13.4501  -9.6713  -2.7580  -2.2524  -2.0708   8.7307   8.7395

          k =-0.0304 0.7532 0.0000 (  2866 PWs)   bands (ev):

   -15.3958 -13.4426  -9.6703  -2.7848  -2.2254  -2.0699   8.7023   8.7195

          k =-0.0304 0.7552 0.0000 (  2860 PWs)   bands (ev):

   -15.4032 -13.4344  -9.6692  -2.8116  -2.1982  -2.0688   8.6646   8.7073

          k =-0.0304 0.7572 0.0000 (  2860 PWs)   bands (ev):

   -15.4113 -13.4254  -9.6679  -2.8385  -2.1711  -2.0676   8.6266   8.6939

          k =-0.0304 0.7592 0.0000 (  2860 PWs)   bands (ev):

   -15.4200 -13.4158  -9.6666  -2.8655  -2.1438  -2.0663   8.5883   8.6796

          k =-0.0304 0.7612 0.0000 (  2860 PWs)   bands (ev):

   -15.4293 -13.4055  -9.6652  -2.8924  -2.1165  -2.0650   8.5498   8.6643

          k =-0.0304 0.7632 0.0000 (  2858 PWs)   bands (ev):

   -15.4392 -13.3946  -9.6637  -2.9194  -2.0892  -2.0635   8.5111   8.6480

          k =-0.0304 0.7652 0.0000 (  2856 PWs)   bands (ev):

   -15.4496 -13.3830  -9.6620  -2.9464  -2.0620  -2.0617   8.4723   8.6308

          k =-0.0304 0.7672 0.0000 (  2855 PWs)   bands (ev):

   -15.4606 -13.3708  -9.6602  -2.9734  -2.0603  -2.0344   8.4334   8.6128

          k =-0.0304 0.7692 0.0000 (  2857 PWs)   bands (ev):

   -15.4722 -13.3580  -9.6584  -3.0004  -2.0585  -2.0070   8.3944   8.5938

          k =-0.0304 0.7712 0.0000 (  2857 PWs)   bands (ev):

   -15.4842 -13.3446  -9.6564  -3.0274  -2.0566  -1.9795   8.3554   8.5741

          k =-0.0304 0.7732 0.0000 (  2857 PWs)   bands (ev):

   -15.4967 -13.3307  -9.6544  -3.0544  -2.0547  -1.9521   8.3163   8.5535

          k =-0.0284 0.6932 0.0000 (  2859 PWs)   bands (ev):

   -15.4966 -13.3317  -9.6498  -3.0544  -2.0627  -1.9518   8.3147   8.5555

          k =-0.0284 0.6952 0.0000 (  2859 PWs)   bands (ev):

   -15.4841 -13.3457  -9.6518  -3.0274  -2.0647  -1.9792   8.3538   8.5762

          k =-0.0284 0.6972 0.0000 (  2857 PWs)   bands (ev):

   -15.4720 -13.3590  -9.6538  -3.0003  -2.0665  -2.0067   8.3928   8.5961

          k =-0.0284 0.6992 0.0000 (  2857 PWs)   bands (ev):

   -15.4605 -13.3719  -9.6556  -2.9733  -2.0683  -2.0341   8.4318   8.6151

          k =-0.0284 0.7012 0.0000 (  2856 PWs)   bands (ev):

   -15.4495 -13.3841  -9.6573  -2.9463  -2.0700  -2.0616   8.4707   8.6334

          k =-0.0284 0.7032 0.0000 (  2858 PWs)   bands (ev):

   -15.4390 -13.3957  -9.6590  -2.9193  -2.0890  -2.0715   8.5095   8.6507

          k =-0.0284 0.7052 0.0000 (  2860 PWs)   bands (ev):

   -15.4291 -13.4067  -9.6605  -2.8922  -2.1163  -2.0730   8.5482   8.6671

          k =-0.0284 0.7072 0.0000 (  2860 PWs)   bands (ev):

   -15.4198 -13.4170  -9.6619  -2.8652  -2.1437  -2.0744   8.5867   8.6826

          k =-0.0284 0.7092 0.0000 (  2860 PWs)   bands (ev):

   -15.4111 -13.4266  -9.6632  -2.8382  -2.1709  -2.0756   8.6250   8.6970

          k =-0.0284 0.7112 0.0000 (  2860 PWs)   bands (ev):

   -15.4030 -13.4355  -9.6645  -2.8113  -2.1982  -2.0768   8.6631   8.7105

          k =-0.0284 0.7132 0.0000 (  2864 PWs)   bands (ev):

   -15.3956 -13.4438  -9.6656  -2.7844  -2.2253  -2.0779   8.7008   8.7228

          k =-0.0284 0.7152 0.0000 (  2864 PWs)   bands (ev):

   -15.3888 -13.4513  -9.6666  -2.7576  -2.2524  -2.0789   8.7341   8.7380

          k =-0.0284 0.7172 0.0000 (  2866 PWs)   bands (ev):

   -15.3826 -13.4581  -9.6675  -2.7309  -2.2793  -2.0797   8.7443   8.7745

          k =-0.0284 0.7192 0.0000 (  2868 PWs)   bands (ev):

   -15.3772 -13.4641  -9.6683  -2.7043  -2.3060  -2.0805   8.7534   8.8102

          k =-0.0284 0.7212 0.0000 (  2868 PWs)   bands (ev):

   -15.3724 -13.4693  -9.6689  -2.6780  -2.3325  -2.0811   8.7613   8.8447

          k =-0.0284 0.7232 0.0000 (  2868 PWs)   bands (ev):

   -15.3684 -13.4737  -9.6695  -2.6521  -2.3585  -2.0817   8.7680   8.8775

          k =-0.0284 0.7252 0.0000 (  2868 PWs)   bands (ev):

   -15.3651 -13.4774  -9.6700  -2.6268  -2.3839  -2.0822   8.7735   8.9078

          k =-0.0284 0.7272 0.0000 (  2868 PWs)   bands (ev):

   -15.3625 -13.4803  -9.6704  -2.6027  -2.4081  -2.0825   8.7778   8.9346

          k =-0.0284 0.7292 0.0000 (  2868 PWs)   bands (ev):

   -15.3606 -13.4823  -9.6706  -2.5809  -2.4300  -2.0828   8.7809   8.9562

          k =-0.0284 0.7312 0.0000 (  2868 PWs)   bands (ev):

   -15.3595 -13.4835  -9.6708  -2.5639  -2.4470  -2.0829   8.7828   8.9706

          k =-0.0284 0.7332 0.0000 (  2870 PWs)   bands (ev):

   -15.3592 -13.4839  -9.6708  -2.5571  -2.4539  -2.0830   8.7834   8.9756

          k =-0.0284 0.7352 0.0000 (  2868 PWs)   bands (ev):

   -15.3595 -13.4835  -9.6708  -2.5639  -2.4470  -2.0829   8.7828   8.9706

          k =-0.0284 0.7372 0.0000 (  2868 PWs)   bands (ev):

   -15.3606 -13.4823  -9.6706  -2.5808  -2.4300  -2.0828   8.7809   8.9562

          k =-0.0284 0.7392 0.0000 (  2868 PWs)   bands (ev):

   -15.3625 -13.4803  -9.6704  -2.6027  -2.4081  -2.0825   8.7778   8.9346

          k =-0.0284 0.7412 0.0000 (  2868 PWs)   bands (ev):

   -15.3651 -13.4774  -9.6700  -2.6268  -2.3839  -2.0822   8.7735   8.9078

          k =-0.0284 0.7432 0.0000 (  2868 PWs)   bands (ev):

   -15.3684 -13.4738  -9.6695  -2.6521  -2.3585  -2.0817   8.7680   8.8775

          k =-0.0284 0.7452 0.0000 (  2868 PWs)   bands (ev):

   -15.3724 -13.4693  -9.6689  -2.6780  -2.3325  -2.0811   8.7613   8.8447

          k =-0.0284 0.7472 0.0000 (  2868 PWs)   bands (ev):

   -15.3772 -13.4641  -9.6683  -2.7043  -2.3060  -2.0805   8.7534   8.8102

          k =-0.0284 0.7492 0.0000 (  2866 PWs)   bands (ev):

   -15.3826 -13.4581  -9.6675  -2.7309  -2.2793  -2.0797   8.7443   8.7745

          k =-0.0284 0.7512 0.0000 (  2864 PWs)   bands (ev):

   -15.3888 -13.4513  -9.6666  -2.7576  -2.2524  -2.0789   8.7341   8.7380

          k =-0.0284 0.7532 0.0000 (  2864 PWs)   bands (ev):

   -15.3956 -13.4438  -9.6656  -2.7844  -2.2254  -2.0779   8.7007   8.7229

          k =-0.0284 0.7552 0.0000 (  2860 PWs)   bands (ev):

   -15.4030 -13.4355  -9.6644  -2.8113  -2.1982  -2.0768   8.6631   8.7105

          k =-0.0284 0.7572 0.0000 (  2860 PWs)   bands (ev):

   -15.4111 -13.4266  -9.6632  -2.8382  -2.1710  -2.0756   8.6250   8.6970

          k =-0.0284 0.7592 0.0000 (  2860 PWs)   bands (ev):

   -15.4198 -13.4170  -9.6619  -2.8652  -2.1437  -2.0744   8.5867   8.6826

          k =-0.0284 0.7612 0.0000 (  2860 PWs)   bands (ev):

   -15.4291 -13.4067  -9.6605  -2.8922  -2.1164  -2.0730   8.5482   8.6671

          k =-0.0284 0.7632 0.0000 (  2858 PWs)   bands (ev):

   -15.4390 -13.3957  -9.6590  -2.9192  -2.0890  -2.0715   8.5095   8.6507

          k =-0.0284 0.7652 0.0000 (  2856 PWs)   bands (ev):

   -15.4495 -13.3841  -9.6573  -2.9463  -2.0700  -2.0616   8.4707   8.6334

          k =-0.0284 0.7672 0.0000 (  2857 PWs)   bands (ev):

   -15.4605 -13.3719  -9.6556  -2.9733  -2.0683  -2.0342   8.4318   8.6152

          k =-0.0284 0.7692 0.0000 (  2857 PWs)   bands (ev):

   -15.4720 -13.3591  -9.6538  -3.0003  -2.0665  -2.0067   8.3928   8.5961

          k =-0.0284 0.7712 0.0000 (  2859 PWs)   bands (ev):

   -15.4841 -13.3457  -9.6518  -3.0274  -2.0647  -1.9793   8.3538   8.5762

          k =-0.0284 0.7732 0.0000 (  2859 PWs)   bands (ev):

   -15.4966 -13.3317  -9.6498  -3.0544  -2.0627  -1.9518   8.3147   8.5555

          k =-0.0264 0.6932 0.0000 (  2859 PWs)   bands (ev):

   -15.4965 -13.3326  -9.6454  -3.0543  -2.0702  -1.9515   8.3132   8.5573

          k =-0.0264 0.6952 0.0000 (  2859 PWs)   bands (ev):

   -15.4840 -13.3466  -9.6475  -3.0273  -2.0722  -1.9790   8.3523   8.5781

          k =-0.0264 0.6972 0.0000 (  2857 PWs)   bands (ev):

   -15.4719 -13.3600  -9.6494  -3.0002  -2.0740  -2.0064   8.3913   8.5982

          k =-0.0264 0.6992 0.0000 (  2857 PWs)   bands (ev):

   -15.4604 -13.3729  -9.6512  -2.9732  -2.0758  -2.0339   8.4303   8.6174

          k =-0.0264 0.7012 0.0000 (  2858 PWs)   bands (ev):

   -15.4493 -13.3851  -9.6530  -2.9461  -2.0775  -2.0614   8.4692   8.6357

          k =-0.0264 0.7032 0.0000 (  2860 PWs)   bands (ev):

   -15.4389 -13.3967  -9.6546  -2.9191  -2.0888  -2.0790   8.5080   8.6532

          k =-0.0264 0.7052 0.0000 (  2860 PWs)   bands (ev):

   -15.4290 -13.4077  -9.6561  -2.8920  -2.1162  -2.0805   8.5467   8.6697

          k =-0.0264 0.7072 0.0000 (  2860 PWs)   bands (ev):

   -15.4196 -13.4180  -9.6575  -2.8650  -2.1435  -2.0819   8.5853   8.6853

          k =-0.0264 0.7092 0.0000 (  2860 PWs)   bands (ev):

   -15.4109 -13.4277  -9.6588  -2.8380  -2.1709  -2.0831   8.6236   8.6999

          k =-0.0264 0.7112 0.0000 (  2860 PWs)   bands (ev):

   -15.4028 -13.4366  -9.6601  -2.8110  -2.1981  -2.0843   8.6616   8.7134

          k =-0.0264 0.7132 0.0000 (  2864 PWs)   bands (ev):

   -15.3954 -13.4449  -9.6612  -2.7841  -2.2253  -2.0854   8.6993   8.7259

          k =-0.0264 0.7152 0.0000 (  2864 PWs)   bands (ev):

   -15.3885 -13.4524  -9.6621  -2.7572  -2.2524  -2.0864   8.7364   8.7375

          k =-0.0264 0.7172 0.0000 (  2866 PWs)   bands (ev):

   -15.3824 -13.4592  -9.6630  -2.7305  -2.2794  -2.0872   8.7476   8.7731

          k =-0.0264 0.7192 0.0000 (  2868 PWs)   bands (ev):

   -15.3770 -13.4652  -9.6638  -2.7039  -2.3062  -2.0880   8.7568   8.8088

          k =-0.0264 0.7212 0.0000 (  2868 PWs)   bands (ev):

   -15.3722 -13.4705  -9.6645  -2.6775  -2.3327  -2.0887   8.7647   8.8433

          k =-0.0264 0.7232 0.0000 (  2868 PWs)   bands (ev):

   -15.3681 -13.4749  -9.6651  -2.6515  -2.3588  -2.0892   8.7715   8.8761

          k =-0.0264 0.7252 0.0000 (  2868 PWs)   bands (ev):

   -15.3648 -13.4786  -9.6656  -2.6261  -2.3844  -2.0897   8.7771   8.9065

          k =-0.0264 0.7272 0.0000 (  2868 PWs)   bands (ev):

   -15.3622 -13.4814  -9.6659  -2.6017  -2.4087  -2.0900   8.7815   8.9333

          k =-0.0264 0.7292 0.0000 (  2872 PWs)   bands (ev):

   -15.3604 -13.4835  -9.6662  -2.5797  -2.4309  -2.0903   8.7846   8.9549

          k =-0.0264 0.7312 0.0000 (  2872 PWs)   bands (ev):

   -15.3593 -13.4847  -9.6664  -2.5624  -2.4482  -2.0904   8.7864   8.9693

          k =-0.0264 0.7332 0.0000 (  2874 PWs)   bands (ev):

   -15.3589 -13.4851  -9.6664  -2.5554  -2.4553  -2.0905   8.7871   8.9743

          k =-0.0264 0.7352 0.0000 (  2872 PWs)   bands (ev):

   -15.3593 -13.4847  -9.6664  -2.5624  -2.4482  -2.0904   8.7864   8.9693

          k =-0.0264 0.7372 0.0000 (  2872 PWs)   bands (ev):

   -15.3604 -13.4835  -9.6662  -2.5797  -2.4309  -2.0903   8.7846   8.9549

          k =-0.0264 0.7392 0.0000 (  2868 PWs)   bands (ev):

   -15.3622 -13.4814  -9.6659  -2.6017  -2.4087  -2.0900   8.7815   8.9333

          k =-0.0264 0.7412 0.0000 (  2868 PWs)   bands (ev):

   -15.3648 -13.4786  -9.6656  -2.6260  -2.3844  -2.0897   8.7771   8.9065

          k =-0.0264 0.7432 0.0000 (  2868 PWs)   bands (ev):

   -15.3681 -13.4749  -9.6651  -2.6515  -2.3588  -2.0892   8.7715   8.8761

          k =-0.0264 0.7452 0.0000 (  2868 PWs)   bands (ev):

   -15.3722 -13.4705  -9.6645  -2.6775  -2.3327  -2.0887   8.7647   8.8433

          k =-0.0264 0.7472 0.0000 (  2868 PWs)   bands (ev):

   -15.3770 -13.4652  -9.6638  -2.7038  -2.3062  -2.0880   8.7568   8.8088

          k =-0.0264 0.7492 0.0000 (  2866 PWs)   bands (ev):

   -15.3824 -13.4592  -9.6630  -2.7305  -2.2794  -2.0872   8.7476   8.7731

          k =-0.0264 0.7512 0.0000 (  2864 PWs)   bands (ev):

   -15.3885 -13.4524  -9.6621  -2.7572  -2.2524  -2.0864   8.7364   8.7375

          k =-0.0264 0.7532 0.0000 (  2864 PWs)   bands (ev):

   -15.3953 -13.4449  -9.6612  -2.7841  -2.2253  -2.0854   8.6993   8.7259

          k =-0.0264 0.7552 0.0000 (  2860 PWs)   bands (ev):

   -15.4028 -13.4367  -9.6600  -2.8110  -2.1981  -2.0843   8.6616   8.7135

          k =-0.0264 0.7572 0.0000 (  2860 PWs)   bands (ev):

   -15.4109 -13.4277  -9.6588  -2.8380  -2.1709  -2.0831   8.6236   8.6999

          k =-0.0264 0.7592 0.0000 (  2860 PWs)   bands (ev):

   -15.4196 -13.4180  -9.6575  -2.8650  -2.1435  -2.0819   8.5853   8.6853

          k =-0.0264 0.7612 0.0000 (  2860 PWs)   bands (ev):

   -15.4290 -13.4077  -9.6561  -2.8920  -2.1162  -2.0805   8.5467   8.6697

          k =-0.0264 0.7632 0.0000 (  2860 PWs)   bands (ev):

   -15.4389 -13.3967  -9.6546  -2.9191  -2.0888  -2.0790   8.5080   8.6532

          k =-0.0264 0.7652 0.0000 (  2858 PWs)   bands (ev):

   -15.4493 -13.3851  -9.6530  -2.9461  -2.0775  -2.0614   8.4692   8.6357

          k =-0.0264 0.7672 0.0000 (  2857 PWs)   bands (ev):

   -15.4604 -13.3729  -9.6512  -2.9732  -2.0758  -2.0339   8.4303   8.6174

          k =-0.0264 0.7692 0.0000 (  2857 PWs)   bands (ev):

   -15.4719 -13.3600  -9.6494  -3.0002  -2.0740  -2.0065   8.3913   8.5982

          k =-0.0264 0.7712 0.0000 (  2859 PWs)   bands (ev):

   -15.4840 -13.3466  -9.6475  -3.0273  -2.0722  -1.9790   8.3523   8.5781

          k =-0.0264 0.7732 0.0000 (  2859 PWs)   bands (ev):

   -15.4965 -13.3327  -9.6454  -3.0543  -2.0702  -1.9515   8.3132   8.5573

          k =-0.0244 0.6932 0.0000 (  2859 PWs)   bands (ev):

   -15.4964 -13.3335  -9.6414  -3.0543  -2.0772  -1.9512   8.3118   8.5590

          k =-0.0244 0.6952 0.0000 (  2859 PWs)   bands (ev):

   -15.4839 -13.3475  -9.6434  -3.0272  -2.0791  -1.9787   8.3509   8.5800

          k =-0.0244 0.6972 0.0000 (  2857 PWs)   bands (ev):

   -15.4718 -13.3609  -9.6453  -3.0001  -2.0810  -2.0062   8.3899   8.6001

          k =-0.0244 0.6992 0.0000 (  2857 PWs)   bands (ev):

   -15.4602 -13.3738  -9.6472  -2.9731  -2.0828  -2.0337   8.4289   8.6194

          k =-0.0244 0.7012 0.0000 (  2860 PWs)   bands (ev):

   -15.4492 -13.3861  -9.6489  -2.9460  -2.0844  -2.0612   8.4678   8.6379

          k =-0.0244 0.7032 0.0000 (  2860 PWs)   bands (ev):

   -15.4387 -13.3977  -9.6505  -2.9189  -2.0886  -2.0860   8.5067   8.6555

          k =-0.0244 0.7052 0.0000 (  2860 PWs)   bands (ev):

   -15.4288 -13.4087  -9.6520  -2.8919  -2.1160  -2.0875   8.5454   8.6722

          k =-0.0244 0.7072 0.0000 (  2860 PWs)   bands (ev):

   -15.4195 -13.4190  -9.6535  -2.8648  -2.1434  -2.0888   8.5839   8.6879

          k =-0.0244 0.7092 0.0000 (  2860 PWs)   bands (ev):

   -15.4107 -13.4287  -9.6548  -2.8378  -2.1708  -2.0901   8.6222   8.7026

          k =-0.0244 0.7112 0.0000 (  2862 PWs)   bands (ev):

   -15.4026 -13.4377  -9.6560  -2.8107  -2.1981  -2.0913   8.6603   8.7162

          k =-0.0244 0.7132 0.0000 (  2864 PWs)   bands (ev):

   -15.3951 -13.4460  -9.6571  -2.7838  -2.2253  -2.0924   8.6980   8.7288

          k =-0.0244 0.7152 0.0000 (  2866 PWs)   bands (ev):

   -15.3883 -13.4535  -9.6581  -2.7569  -2.2524  -2.0933   8.7352   8.7403

          k =-0.0244 0.7172 0.0000 (  2866 PWs)   bands (ev):

   -15.3822 -13.4603  -9.6589  -2.7301  -2.2794  -2.0942   8.7507   8.7718

          k =-0.0244 0.7192 0.0000 (  2866 PWs)   bands (ev):

   -15.3767 -13.4663  -9.6597  -2.7034  -2.3063  -2.0950   8.7599   8.8075

          k =-0.0244 0.7212 0.0000 (  2866 PWs)   bands (ev):

   -15.3720 -13.4715  -9.6604  -2.6770  -2.3329  -2.0956   8.7680   8.8420

          k =-0.0244 0.7232 0.0000 (  2868 PWs)   bands (ev):

   -15.3679 -13.4760  -9.6610  -2.6509  -2.3591  -2.0962   8.7748   8.8748

          k =-0.0244 0.7252 0.0000 (  2870 PWs)   bands (ev):

   -15.3646 -13.4797  -9.6615  -2.6254  -2.3847  -2.0966   8.7804   8.9052

          k =-0.0244 0.7272 0.0000 (  2872 PWs)   bands (ev):

   -15.3620 -13.4825  -9.6618  -2.6009  -2.4093  -2.0970   8.7848   8.9320

          k =-0.0244 0.7292 0.0000 (  2874 PWs)   bands (ev):

   -15.3601 -13.4846  -9.6621  -2.5786  -2.4317  -2.0973   8.7880   8.9537

          k =-0.0244 0.7312 0.0000 (  2874 PWs)   bands (ev):

   -15.3590 -13.4858  -9.6623  -2.5611  -2.4493  -2.0974   8.7899   8.9680

          k =-0.0244 0.7332 0.0000 (  2874 PWs)   bands (ev):

   -15.3586 -13.4862  -9.6623  -2.5538  -2.4565  -2.0975   8.7905   8.9731

          k =-0.0244 0.7352 0.0000 (  2874 PWs)   bands (ev):

   -15.3590 -13.4858  -9.6623  -2.5611  -2.4493  -2.0974   8.7899   8.9680

          k =-0.0244 0.7372 0.0000 (  2874 PWs)   bands (ev):

   -15.3601 -13.4846  -9.6621  -2.5786  -2.4317  -2.0973   8.7880   8.9537

          k =-0.0244 0.7392 0.0000 (  2872 PWs)   bands (ev):

   -15.3620 -13.4825  -9.6618  -2.6009  -2.4093  -2.0970   8.7848   8.9320

          k =-0.0244 0.7412 0.0000 (  2870 PWs)   bands (ev):

   -15.3646 -13.4797  -9.6615  -2.6253  -2.3847  -2.0966   8.7804   8.9052

          k =-0.0244 0.7432 0.0000 (  2868 PWs)   bands (ev):

   -15.3679 -13.4760  -9.6610  -2.6509  -2.3591  -2.0962   8.7748   8.8748

          k =-0.0244 0.7452 0.0000 (  2866 PWs)   bands (ev):

   -15.3720 -13.4715  -9.6604  -2.6770  -2.3329  -2.0956   8.7680   8.8420

          k =-0.0244 0.7472 0.0000 (  2866 PWs)   bands (ev):

   -15.3767 -13.4663  -9.6597  -2.7034  -2.3063  -2.0950   8.7599   8.8075

          k =-0.0244 0.7492 0.0000 (  2866 PWs)   bands (ev):

   -15.3822 -13.4603  -9.6589  -2.7301  -2.2794  -2.0942   8.7507   8.7718

          k =-0.0244 0.7512 0.0000 (  2866 PWs)   bands (ev):

   -15.3883 -13.4535  -9.6580  -2.7569  -2.2524  -2.0933   8.7352   8.7403

          k =-0.0244 0.7532 0.0000 (  2864 PWs)   bands (ev):

   -15.3951 -13.4460  -9.6571  -2.7838  -2.2253  -2.0924   8.6980   8.7288

          k =-0.0244 0.7552 0.0000 (  2862 PWs)   bands (ev):

   -15.4026 -13.4377  -9.6560  -2.8107  -2.1981  -2.0913   8.6603   8.7162

          k =-0.0244 0.7572 0.0000 (  2860 PWs)   bands (ev):

   -15.4107 -13.4287  -9.6548  -2.8378  -2.1708  -2.0901   8.6222   8.7026

          k =-0.0244 0.7592 0.0000 (  2860 PWs)   bands (ev):

   -15.4195 -13.4190  -9.6534  -2.8648  -2.1434  -2.0888   8.5839   8.6879

          k =-0.0244 0.7612 0.0000 (  2860 PWs)   bands (ev):

   -15.4288 -13.4087  -9.6520  -2.8918  -2.1160  -2.0875   8.5454   8.6722

          k =-0.0244 0.7632 0.0000 (  2860 PWs)   bands (ev):

   -15.4387 -13.3977  -9.6505  -2.9189  -2.0886  -2.0860   8.5067   8.6555

          k =-0.0244 0.7652 0.0000 (  2860 PWs)   bands (ev):

   -15.4492 -13.3861  -9.6489  -2.9460  -2.0844  -2.0612   8.4678   8.6379

          k =-0.0244 0.7672 0.0000 (  2857 PWs)   bands (ev):

   -15.4602 -13.3738  -9.6472  -2.9731  -2.0828  -2.0337   8.4289   8.6194

          k =-0.0244 0.7692 0.0000 (  2857 PWs)   bands (ev):

   -15.4718 -13.3609  -9.6453  -3.0001  -2.0810  -2.0062   8.3899   8.6001

          k =-0.0244 0.7712 0.0000 (  2859 PWs)   bands (ev):

   -15.4839 -13.3475  -9.6434  -3.0272  -2.0791  -1.9787   8.3509   8.5800

          k =-0.0244 0.7732 0.0000 (  2859 PWs)   bands (ev):

   -15.4964 -13.3335  -9.6414  -3.0542  -2.0772  -1.9512   8.3118   8.5590

          k =-0.0224 0.6932 0.0000 (  2859 PWs)   bands (ev):

   -15.4963 -13.3343  -9.6376  -3.0542  -2.0836  -1.9509   8.3105   8.5606

          k =-0.0224 0.6952 0.0000 (  2859 PWs)   bands (ev):

   -15.4838 -13.3483  -9.6397  -3.0271  -2.0856  -1.9784   8.3496   8.5816

          k =-0.0224 0.6972 0.0000 (  2857 PWs)   bands (ev):

   -15.4717 -13.3618  -9.6416  -3.0000  -2.0874  -2.0060   8.3886   8.6019

          k =-0.0224 0.6992 0.0000 (  2859 PWs)   bands (ev):

   -15.4601 -13.3746  -9.6434  -2.9730  -2.0892  -2.0335   8.4276   8.6213

          k =-0.0224 0.7012 0.0000 (  2860 PWs)   bands (ev):

   -15.4491 -13.3869  -9.6451  -2.9459  -2.0909  -2.0610   8.4666   8.6399

          k =-0.0224 0.7032 0.0000 (  2860 PWs)   bands (ev):

   -15.4386 -13.3986  -9.6468  -2.9188  -2.0924  -2.0884   8.5054   8.6576

          k =-0.0224 0.7052 0.0000 (  2860 PWs)   bands (ev):

   -15.4287 -13.4096  -9.6483  -2.8917  -2.1159  -2.0939   8.5441   8.6744

          k =-0.0224 0.7072 0.0000 (  2860 PWs)   bands (ev):

   -15.4193 -13.4199  -9.6497  -2.8646  -2.1433  -2.0953   8.5827   8.6902

          k =-0.0224 0.7092 0.0000 (  2860 PWs)   bands (ev):

   -15.4106 -13.4296  -9.6510  -2.8375  -2.1707  -2.0965   8.6210   8.7050

          k =-0.0224 0.7112 0.0000 (  2862 PWs)   bands (ev):

   -15.4024 -13.4386  -9.6522  -2.8105  -2.1980  -2.0977   8.6591   8.7188

          k =-0.0224 0.7132 0.0000 (  2866 PWs)   bands (ev):

   -15.3950 -13.4469  -9.6533  -2.7835  -2.2253  -2.0988   8.6968   8.7315

          k =-0.0224 0.7152 0.0000 (  2866 PWs)   bands (ev):

   -15.3881 -13.4545  -9.6543  -2.7566  -2.2524  -2.0998   8.7340   8.7431

          k =-0.0224 0.7172 0.0000 (  2866 PWs)   bands (ev):

   -15.3820 -13.4612  -9.6552  -2.7297  -2.2795  -2.1006   8.7535   8.7706

          k =-0.0224 0.7192 0.0000 (  2866 PWs)   bands (ev):

   -15.3765 -13.4673  -9.6559  -2.7030  -2.3064  -2.1014   8.7628   8.8063

          k =-0.0224 0.7212 0.0000 (  2866 PWs)   bands (ev):

   -15.3717 -13.4725  -9.6566  -2.6765  -2.3330  -2.1021   8.7709   8.8408

          k =-0.0224 0.7232 0.0000 (  2868 PWs)   bands (ev):

   -15.3677 -13.4770  -9.6572  -2.6503  -2.3593  -2.1026   8.7778   8.8737

          k =-0.0224 0.7252 0.0000 (  2870 PWs)   bands (ev):

   -15.3644 -13.4807  -9.6577  -2.6247  -2.3851  -2.1031   8.7835   8.9041

          k =-0.0224 0.7272 0.0000 (  2874 PWs)   bands (ev):

   -15.3618 -13.4835  -9.6581  -2.6001  -2.4098  -2.1034   8.7879   8.9309

          k =-0.0224 0.7292 0.0000 (  2874 PWs)   bands (ev):

   -15.3599 -13.4856  -9.6583  -2.5776  -2.4324  -2.1037   8.7911   8.9526

          k =-0.0224 0.7312 0.0000 (  2874 PWs)   bands (ev):

   -15.3588 -13.4868  -9.6585  -2.5598  -2.4503  -2.1038   8.7930   8.9669

          k =-0.0224 0.7332 0.0000 (  2874 PWs)   bands (ev):

   -15.3584 -13.4872  -9.6585  -2.5524  -2.4577  -2.1039   8.7936   8.9720

          k =-0.0224 0.7352 0.0000 (  2874 PWs)   bands (ev):

   -15.3588 -13.4868  -9.6585  -2.5598  -2.4503  -2.1038   8.7930   8.9669

          k =-0.0224 0.7372 0.0000 (  2874 PWs)   bands (ev):

   -15.3599 -13.4856  -9.6583  -2.5776  -2.4324  -2.1037   8.7911   8.9525

          k =-0.0224 0.7392 0.0000 (  2874 PWs)   bands (ev):

   -15.3618 -13.4835  -9.6581  -2.6001  -2.4098  -2.1034   8.7879   8.9309

          k =-0.0224 0.7412 0.0000 (  2870 PWs)   bands (ev):

   -15.3644 -13.4807  -9.6577  -2.6247  -2.3851  -2.1031   8.7835   8.9041

          k =-0.0224 0.7432 0.0000 (  2868 PWs)   bands (ev):

   -15.3677 -13.4770  -9.6572  -2.6503  -2.3593  -2.1026   8.7778   8.8736

          k =-0.0224 0.7452 0.0000 (  2866 PWs)   bands (ev):

   -15.3717 -13.4725  -9.6566  -2.6765  -2.3330  -2.1021   8.7709   8.8408

          k =-0.0224 0.7472 0.0000 (  2866 PWs)   bands (ev):

   -15.3765 -13.4673  -9.6559  -2.7030  -2.3064  -2.1014   8.7628   8.8063

          k =-0.0224 0.7492 0.0000 (  2866 PWs)   bands (ev):

   -15.3820 -13.4612  -9.6551  -2.7297  -2.2795  -2.1006   8.7535   8.7706

          k =-0.0224 0.7512 0.0000 (  2866 PWs)   bands (ev):

   -15.3881 -13.4545  -9.6543  -2.7566  -2.2524  -2.0998   8.7340   8.7431

          k =-0.0224 0.7532 0.0000 (  2866 PWs)   bands (ev):

   -15.3950 -13.4469  -9.6533  -2.7835  -2.2253  -2.0988   8.6968   8.7315

          k =-0.0224 0.7552 0.0000 (  2862 PWs)   bands (ev):

   -15.4024 -13.4386  -9.6522  -2.8105  -2.1980  -2.0977   8.6591   8.7188

          k =-0.0224 0.7572 0.0000 (  2860 PWs)   bands (ev):

   -15.4106 -13.4296  -9.6510  -2.8375  -2.1707  -2.0965   8.6210   8.7050

          k =-0.0224 0.7592 0.0000 (  2860 PWs)   bands (ev):

   -15.4193 -13.4200  -9.6497  -2.8646  -2.1433  -2.0953   8.5827   8.6902

          k =-0.0224 0.7612 0.0000 (  2860 PWs)   bands (ev):

   -15.4287 -13.4096  -9.6483  -2.8917  -2.1159  -2.0939   8.5441   8.6744

          k =-0.0224 0.7632 0.0000 (  2860 PWs)   bands (ev):

   -15.4386 -13.3986  -9.6468  -2.9188  -2.0924  -2.0884   8.5054   8.6576

          k =-0.0224 0.7652 0.0000 (  2860 PWs)   bands (ev):

   -15.4491 -13.3869  -9.6451  -2.9459  -2.0909  -2.0610   8.4666   8.6399

          k =-0.0224 0.7672 0.0000 (  2859 PWs)   bands (ev):

   -15.4601 -13.3746  -9.6434  -2.9730  -2.0892  -2.0335   8.4276   8.6213

          k =-0.0224 0.7692 0.0000 (  2857 PWs)   bands (ev):

   -15.4717 -13.3618  -9.6416  -3.0000  -2.0874  -2.0060   8.3886   8.6019

          k =-0.0224 0.7712 0.0000 (  2859 PWs)   bands (ev):

   -15.4838 -13.3483  -9.6397  -3.0271  -2.0856  -1.9784   8.3496   8.5816

          k =-0.0224 0.7732 0.0000 (  2859 PWs)   bands (ev):

   -15.4963 -13.3343  -9.6376  -3.0542  -2.0836  -1.9509   8.3105   8.5606

          k =-0.0204 0.6932 0.0000 (  2859 PWs)   bands (ev):

   -15.4963 -13.3350  -9.6342  -3.0542  -2.0895  -1.9506   8.3093   8.5620

          k =-0.0204 0.6952 0.0000 (  2859 PWs)   bands (ev):

   -15.4837 -13.3491  -9.6362  -3.0271  -2.0914  -1.9782   8.3484   8.5832

          k =-0.0204 0.6972 0.0000 (  2859 PWs)   bands (ev):

   -15.4716 -13.3625  -9.6382  -3.0000  -2.0933  -2.0058   8.3875   8.6035

          k =-0.0204 0.6992 0.0000 (  2861 PWs)   bands (ev):

   -15.4600 -13.3754  -9.6400  -2.9729  -2.0951  -2.0333   8.4265   8.6231

          k =-0.0204 0.7012 0.0000 (  2860 PWs)   bands (ev):

   -15.4490 -13.3877  -9.6417  -2.9458  -2.0967  -2.0608   8.4654   8.6418

          k =-0.0204 0.7032 0.0000 (  2860 PWs)   bands (ev):

   -15.4385 -13.3994  -9.6433  -2.9187  -2.0983  -2.0883   8.5043   8.6596

          k =-0.0204 0.7052 0.0000 (  2860 PWs)   bands (ev):

   -15.4285 -13.4104  -9.6448  -2.8916  -2.1157  -2.0998   8.5430   8.6764

          k =-0.0204 0.7072 0.0000 (  2860 PWs)   bands (ev):

   -15.4192 -13.4208  -9.6462  -2.8644  -2.1432  -2.1012   8.5815   8.6923

          k =-0.0204 0.7092 0.0000 (  2862 PWs)   bands (ev):

   -15.4104 -13.4305  -9.6475  -2.8374  -2.1706  -2.1024   8.6199   8.7072

          k =-0.0204 0.7112 0.0000 (  2864 PWs)   bands (ev):

   -15.4023 -13.4395  -9.6487  -2.8103  -2.1979  -2.1036   8.6579   8.7211

          k =-0.0204 0.7132 0.0000 (  2866 PWs)   bands (ev):

   -15.3948 -13.4478  -9.6498  -2.7833  -2.2252  -2.1047   8.6956   8.7339

          k =-0.0204 0.7152 0.0000 (  2866 PWs)   bands (ev):

   -15.3880 -13.4553  -9.6508  -2.7563  -2.2524  -2.1057   8.7329   8.7456

          k =-0.0204 0.7172 0.0000 (  2866 PWs)   bands (ev):

   -15.3818 -13.4621  -9.6517  -2.7294  -2.2795  -2.1065   8.7561   8.7695

          k =-0.0204 0.7192 0.0000 (  2868 PWs)   bands (ev):

   -15.3763 -13.4682  -9.6525  -2.7027  -2.3064  -2.1073   8.7654   8.8052

          k =-0.0204 0.7212 0.0000 (  2868 PWs)   bands (ev):

   -15.3715 -13.4734  -9.6531  -2.6761  -2.3332  -2.1079   8.7736   8.8397

          k =-0.0204 0.7232 0.0000 (  2872 PWs)   bands (ev):

   -15.3675 -13.4779  -9.6537  -2.6499  -2.3596  -2.1085   8.7806   8.8726

          k =-0.0204 0.7252 0.0000 (  2872 PWs)   bands (ev):

   -15.3642 -13.4816  -9.6542  -2.6242  -2.3854  -2.1090   8.7863   8.9030

          k =-0.0204 0.7272 0.0000 (  2872 PWs)   bands (ev):

   -15.3616 -13.4845  -9.6546  -2.5994  -2.4102  -2.1093   8.7908   8.9299

          k =-0.0204 0.7292 0.0000 (  2874 PWs)   bands (ev):

   -15.3597 -13.4865  -9.6548  -2.5767  -2.4330  -2.1096   8.7940   8.9515

          k =-0.0204 0.7312 0.0000 (  2874 PWs)   bands (ev):

   -15.3586 -13.4878  -9.6550  -2.5586  -2.4512  -2.1097   8.7959   8.9659

          k =-0.0204 0.7332 0.0000 (  2874 PWs)   bands (ev):

   -15.3582 -13.4882  -9.6550  -2.5510  -2.4588  -2.1098   8.7965   8.9710

          k =-0.0204 0.7352 0.0000 (  2874 PWs)   bands (ev):

   -15.3586 -13.4878  -9.6550  -2.5586  -2.4512  -2.1097   8.7959   8.9659

          k =-0.0204 0.7372 0.0000 (  2874 PWs)   bands (ev):

   -15.3597 -13.4865  -9.6548  -2.5767  -2.4330  -2.1096   8.7940   8.9515

          k =-0.0204 0.7392 0.0000 (  2872 PWs)   bands (ev):

   -15.3616 -13.4845  -9.6546  -2.5994  -2.4103  -2.1093   8.7908   8.9298

          k =-0.0204 0.7412 0.0000 (  2872 PWs)   bands (ev):

   -15.3642 -13.4816  -9.6542  -2.6242  -2.3854  -2.1090   8.7863   8.9030

          k =-0.0204 0.7432 0.0000 (  2872 PWs)   bands (ev):

   -15.3675 -13.4779  -9.6537  -2.6499  -2.3596  -2.1085   8.7806   8.8726

          k =-0.0204 0.7452 0.0000 (  2868 PWs)   bands (ev):

   -15.3715 -13.4734  -9.6531  -2.6761  -2.3332  -2.1079   8.7736   8.8397

          k =-0.0204 0.7472 0.0000 (  2868 PWs)   bands (ev):

   -15.3763 -13.4682  -9.6525  -2.7027  -2.3065  -2.1073   8.7654   8.8052

          k =-0.0204 0.7492 0.0000 (  2866 PWs)   bands (ev):

   -15.3818 -13.4621  -9.6517  -2.7294  -2.2795  -2.1065   8.7561   8.7695

          k =-0.0204 0.7512 0.0000 (  2866 PWs)   bands (ev):

   -15.3880 -13.4553  -9.6508  -2.7563  -2.2524  -2.1057   8.7329   8.7456

          k =-0.0204 0.7532 0.0000 (  2866 PWs)   bands (ev):

   -15.3948 -13.4478  -9.6498  -2.7833  -2.2252  -2.1047   8.6956   8.7339

          k =-0.0204 0.7552 0.0000 (  2864 PWs)   bands (ev):

   -15.4023 -13.4395  -9.6487  -2.8103  -2.1979  -2.1036   8.6579   8.7211

          k =-0.0204 0.7572 0.0000 (  2862 PWs)   bands (ev):

   -15.4104 -13.4305  -9.6475  -2.8374  -2.1706  -2.1024   8.6199   8.7072

          k =-0.0204 0.7592 0.0000 (  2860 PWs)   bands (ev):

   -15.4192 -13.4208  -9.6462  -2.8644  -2.1432  -2.1012   8.5815   8.6923

          k =-0.0204 0.7612 0.0000 (  2860 PWs)   bands (ev):

   -15.4285 -13.4104  -9.6448  -2.8915  -2.1158  -2.0998   8.5430   8.6764

          k =-0.0204 0.7632 0.0000 (  2860 PWs)   bands (ev):

   -15.4385 -13.3994  -9.6433  -2.9187  -2.0983  -2.0883   8.5042   8.6596

          k =-0.0204 0.7652 0.0000 (  2860 PWs)   bands (ev):

   -15.4490 -13.3877  -9.6417  -2.9458  -2.0967  -2.0608   8.4654   8.6418

          k =-0.0204 0.7672 0.0000 (  2861 PWs)   bands (ev):

   -15.4600 -13.3754  -9.6400  -2.9729  -2.0951  -2.0333   8.4265   8.6231

          k =-0.0204 0.7692 0.0000 (  2859 PWs)   bands (ev):

   -15.4716 -13.3625  -9.6382  -3.0000  -2.0933  -2.0058   8.3875   8.6035

          k =-0.0204 0.7712 0.0000 (  2859 PWs)   bands (ev):

   -15.4837 -13.3491  -9.6362  -3.0271  -2.0914  -1.9782   8.3484   8.5832

          k =-0.0204 0.7732 0.0000 (  2859 PWs)   bands (ev):

   -15.4963 -13.3350  -9.6342  -3.0542  -2.0895  -1.9507   8.3093   8.5620

          k =-0.0184 0.6932 0.0000 (  2857 PWs)   bands (ev):

   -15.4962 -13.3357  -9.6311  -3.0541  -2.0948  -1.9504   8.3083   8.5633

          k =-0.0184 0.6952 0.0000 (  2859 PWs)   bands (ev):

   -15.4836 -13.3497  -9.6331  -3.0270  -2.0968  -1.9780   8.3474   8.5845

          k =-0.0184 0.6972 0.0000 (  2861 PWs)   bands (ev):

   -15.4715 -13.3632  -9.6351  -2.9999  -2.0986  -2.0056   8.3864   8.6050

          k =-0.0184 0.6992 0.0000 (  2860 PWs)   bands (ev):

   -15.4599 -13.3761  -9.6369  -2.9728  -2.1004  -2.0331   8.4254   8.6246

          k =-0.0184 0.7012 0.0000 (  2860 PWs)   bands (ev):

   -15.4489 -13.3884  -9.6386  -2.9457  -2.1021  -2.0606   8.4644   8.6434

          k =-0.0184 0.7032 0.0000 (  2860 PWs)   bands (ev):

   -15.4384 -13.4001  -9.6402  -2.9186  -2.1037  -2.0881   8.5032   8.6613

          k =-0.0184 0.7052 0.0000 (  2860 PWs)   bands (ev):

   -15.4284 -13.4112  -9.6417  -2.8914  -2.1156  -2.1051   8.5419   8.6783

          k =-0.0184 0.7072 0.0000 (  2860 PWs)   bands (ev):

   -15.4190 -13.4215  -9.6431  -2.8643  -2.1431  -2.1065   8.5805   8.6943

          k =-0.0184 0.7092 0.0000 (  2864 PWs)   bands (ev):

   -15.4103 -13.4313  -9.6444  -2.8372  -2.1705  -2.1078   8.6188   8.7093

          k =-0.0184 0.7112 0.0000 (  2864 PWs)   bands (ev):

   -15.4021 -13.4403  -9.6456  -2.8101  -2.1979  -2.1090   8.6569   8.7232

          k =-0.0184 0.7132 0.0000 (  2866 PWs)   bands (ev):

   -15.3946 -13.4486  -9.6467  -2.7831  -2.2252  -2.1100   8.6946   8.7361

          k =-0.0184 0.7152 0.0000 (  2868 PWs)   bands (ev):

   -15.3878 -13.4561  -9.6477  -2.7561  -2.2524  -2.1110   8.7319   8.7478

          k =-0.0184 0.7172 0.0000 (  2868 PWs)   bands (ev):

   -15.3816 -13.4629  -9.6485  -2.7292  -2.2795  -2.1119   8.7584   8.7685

          k =-0.0184 0.7192 0.0000 (  2870 PWs)   bands (ev):

   -15.3762 -13.4690  -9.6493  -2.7024  -2.3065  -2.1126   8.7678   8.8042

          k =-0.0184 0.7212 0.0000 (  2872 PWs)   bands (ev):

   -15.3714 -13.4743  -9.6500  -2.6758  -2.3333  -2.1133   8.7761   8.8387

          k =-0.0184 0.7232 0.0000 (  2872 PWs)   bands (ev):

   -15.3673 -13.4788  -9.6506  -2.6495  -2.3598  -2.1139   8.7831   8.8716

          k =-0.0184 0.7252 0.0000 (  2872 PWs)   bands (ev):

   -15.3640 -13.4824  -9.6510  -2.6237  -2.3857  -2.1143   8.7888   8.9020

          k =-0.0184 0.7272 0.0000 (  2872 PWs)   bands (ev):

   -15.3614 -13.4853  -9.6514  -2.5988  -2.4106  -2.1147   8.7933   8.9289

          k =-0.0184 0.7292 0.0000 (  2872 PWs)   bands (ev):

   -15.3595 -13.4874  -9.6517  -2.5759  -2.4336  -2.1149   8.7966   8.9506

          k =-0.0184 0.7312 0.0000 (  2872 PWs)   bands (ev):

   -15.3584 -13.4886  -9.6518  -2.5576  -2.4520  -2.1151   8.7985   8.9650

          k =-0.0184 0.7332 0.0000 (  2874 PWs)   bands (ev):

   -15.3580 -13.4890  -9.6519  -2.5498  -2.4597  -2.1151   8.7992   8.9701

          k =-0.0184 0.7352 0.0000 (  2872 PWs)   bands (ev):

   -15.3584 -13.4886  -9.6518  -2.5576  -2.4520  -2.1151   8.7985   8.9650

          k =-0.0184 0.7372 0.0000 (  2872 PWs)   bands (ev):

   -15.3595 -13.4874  -9.6517  -2.5759  -2.4336  -2.1149   8.7966   8.9506

          k =-0.0184 0.7392 0.0000 (  2872 PWs)   bands (ev):

   -15.3614 -13.4853  -9.6514  -2.5988  -2.4106  -2.1147   8.7933   8.9289

          k =-0.0184 0.7412 0.0000 (  2872 PWs)   bands (ev):

   -15.3640 -13.4824  -9.6510  -2.6237  -2.3857  -2.1143   8.7888   8.9020

          k =-0.0184 0.7432 0.0000 (  2872 PWs)   bands (ev):

   -15.3673 -13.4788  -9.6506  -2.6495  -2.3598  -2.1139   8.7831   8.8716

          k =-0.0184 0.7452 0.0000 (  2872 PWs)   bands (ev):

   -15.3714 -13.4743  -9.6500  -2.6758  -2.3333  -2.1133   8.7761   8.8387

          k =-0.0184 0.7472 0.0000 (  2870 PWs)   bands (ev):

   -15.3762 -13.4690  -9.6493  -2.7024  -2.3065  -2.1126   8.7678   8.8042

          k =-0.0184 0.7492 0.0000 (  2868 PWs)   bands (ev):

   -15.3816 -13.4630  -9.6485  -2.7292  -2.2795  -2.1119   8.7584   8.7685

          k =-0.0184 0.7512 0.0000 (  2868 PWs)   bands (ev):

   -15.3878 -13.4561  -9.6477  -2.7561  -2.2524  -2.1110   8.7318   8.7478

          k =-0.0184 0.7532 0.0000 (  2866 PWs)   bands (ev):

   -15.3946 -13.4486  -9.6467  -2.7831  -2.2252  -2.1100   8.6946   8.7361

          k =-0.0184 0.7552 0.0000 (  2864 PWs)   bands (ev):

   -15.4021 -13.4403  -9.6456  -2.8101  -2.1979  -2.1090   8.6569   8.7232

          k =-0.0184 0.7572 0.0000 (  2864 PWs)   bands (ev):

   -15.4103 -13.4313  -9.6444  -2.8372  -2.1705  -2.1078   8.6188   8.7093

          k =-0.0184 0.7592 0.0000 (  2860 PWs)   bands (ev):

   -15.4190 -13.4215  -9.6431  -2.8643  -2.1431  -2.1065   8.5805   8.6943

          k =-0.0184 0.7612 0.0000 (  2860 PWs)   bands (ev):

   -15.4284 -13.4112  -9.6417  -2.8914  -2.1156  -2.1051   8.5419   8.6783

          k =-0.0184 0.7632 0.0000 (  2860 PWs)   bands (ev):

   -15.4384 -13.4001  -9.6402  -2.9185  -2.1037  -2.0881   8.5032   8.6613

          k =-0.0184 0.7652 0.0000 (  2860 PWs)   bands (ev):

   -15.4489 -13.3884  -9.6386  -2.9457  -2.1021  -2.0606   8.4644   8.6434

          k =-0.0184 0.7672 0.0000 (  2860 PWs)   bands (ev):

   -15.4599 -13.3761  -9.6369  -2.9728  -2.1004  -2.0331   8.4254   8.6246

          k =-0.0184 0.7692 0.0000 (  2861 PWs)   bands (ev):

   -15.4715 -13.3632  -9.6351  -2.9999  -2.0986  -2.0056   8.3864   8.6050

          k =-0.0184 0.7712 0.0000 (  2859 PWs)   bands (ev):

   -15.4836 -13.3497  -9.6331  -3.0270  -2.0968  -1.9780   8.3474   8.5845

          k =-0.0184 0.7732 0.0000 (  2857 PWs)   bands (ev):

   -15.4962 -13.3357  -9.6311  -3.0541  -2.0948  -1.9504   8.3083   8.5633

          k =-0.0164 0.6932 0.0000 (  2857 PWs)   bands (ev):

   -15.4962 -13.3363  -9.6283  -3.0541  -2.0996  -1.9502   8.3073   8.5644

          k =-0.0164 0.6952 0.0000 (  2859 PWs)   bands (ev):

   -15.4836 -13.3504  -9.6303  -3.0270  -2.1015  -1.9778   8.3464   8.5858

          k =-0.0164 0.6972 0.0000 (  2861 PWs)   bands (ev):

   -15.4715 -13.3639  -9.6322  -2.9999  -2.1034  -2.0054   8.3855   8.6063

          k =-0.0164 0.6992 0.0000 (  2860 PWs)   bands (ev):

   -15.4599 -13.3768  -9.6341  -2.9727  -2.1052  -2.0329   8.4245   8.6260

          k =-0.0164 0.7012 0.0000 (  2860 PWs)   bands (ev):

   -15.4488 -13.3891  -9.6358  -2.9456  -2.1069  -2.0605   8.4634   8.6449

          k =-0.0164 0.7032 0.0000 (  2860 PWs)   bands (ev):

   -15.4383 -13.4008  -9.6374  -2.9185  -2.1084  -2.0880   8.5023   8.6629

          k =-0.0164 0.7052 0.0000 (  2860 PWs)   bands (ev):

   -15.4283 -13.4118  -9.6389  -2.8913  -2.1155  -2.1099   8.5410   8.6799

          k =-0.0164 0.7072 0.0000 (  2862 PWs)   bands (ev):

   -15.4189 -13.4222  -9.6403  -2.8642  -2.1430  -2.1113   8.5796   8.6960

          k =-0.0164 0.7092 0.0000 (  2864 PWs)   bands (ev):

   -15.4102 -13.4320  -9.6416  -2.8371  -2.1704  -2.1126   8.6179   8.7111

          k =-0.0164 0.7112 0.0000 (  2866 PWs)   bands (ev):

   -15.4020 -13.4410  -9.6428  -2.8100  -2.1978  -2.1138   8.6560   8.7251

          k =-0.0164 0.7132 0.0000 (  2868 PWs)   bands (ev):

   -15.3945 -13.4493  -9.6438  -2.7829  -2.2252  -2.1148   8.6937   8.7380

          k =-0.0164 0.7152 0.0000 (  2870 PWs)   bands (ev):

   -15.3877 -13.4569  -9.6448  -2.7559  -2.2524  -2.1158   8.7309   8.7498

          k =-0.0164 0.7172 0.0000 (  2870 PWs)   bands (ev):

   -15.3815 -13.4637  -9.6457  -2.7289  -2.2796  -2.1167   8.7605   8.7676

          k =-0.0164 0.7192 0.0000 (  2872 PWs)   bands (ev):

   -15.3760 -13.4697  -9.6465  -2.7021  -2.3066  -2.1174   8.7700   8.8033

          k =-0.0164 0.7212 0.0000 (  2872 PWs)   bands (ev):

   -15.3712 -13.4750  -9.6472  -2.6755  -2.3334  -2.1181   8.7783   8.8379

          k =-0.0164 0.7232 0.0000 (  2872 PWs)   bands (ev):

   -15.3672 -13.4795  -9.6477  -2.6491  -2.3599  -2.1187   8.7853   8.8707

          k =-0.0164 0.7252 0.0000 (  2872 PWs)   bands (ev):

   -15.3638 -13.4832  -9.6482  -2.6232  -2.3859  -2.1191   8.7911   8.9012

          k =-0.0164 0.7272 0.0000 (  2872 PWs)   bands (ev):

   -15.3612 -13.4861  -9.6486  -2.5983  -2.4110  -2.1195   8.7957   8.9280

          k =-0.0164 0.7292 0.0000 (  2872 PWs)   bands (ev):

   -15.3593 -13.4881  -9.6488  -2.5752  -2.4341  -2.1197   8.7989   8.9497

          k =-0.0164 0.7312 0.0000 (  2870 PWs)   bands (ev):

   -15.3582 -13.4893  -9.6490  -2.5566  -2.4527  -2.1199   8.8009   8.9641

          k =-0.0164 0.7332 0.0000 (  2870 PWs)   bands (ev):

   -15.3578 -13.4898  -9.6490  -2.5487  -2.4606  -2.1199   8.8015   8.9692

          k =-0.0164 0.7352 0.0000 (  2870 PWs)   bands (ev):

   -15.3582 -13.4893  -9.6490  -2.5566  -2.4527  -2.1199   8.8009   8.9641

          k =-0.0164 0.7372 0.0000 (  2872 PWs)   bands (ev):

   -15.3593 -13.4881  -9.6488  -2.5752  -2.4341  -2.1197   8.7989   8.9497

          k =-0.0164 0.7392 0.0000 (  2872 PWs)   bands (ev):

   -15.3612 -13.4861  -9.6486  -2.5983  -2.4110  -2.1195   8.7957   8.9280

          k =-0.0164 0.7412 0.0000 (  2872 PWs)   bands (ev):

   -15.3638 -13.4832  -9.6482  -2.6232  -2.3859  -2.1191   8.7911   8.9012

          k =-0.0164 0.7432 0.0000 (  2872 PWs)   bands (ev):

   -15.3672 -13.4795  -9.6477  -2.6491  -2.3599  -2.1187   8.7853   8.8707

          k =-0.0164 0.7452 0.0000 (  2872 PWs)   bands (ev):

   -15.3712 -13.4750  -9.6472  -2.6755  -2.3334  -2.1181   8.7783   8.8379

          k =-0.0164 0.7472 0.0000 (  2872 PWs)   bands (ev):

   -15.3760 -13.4697  -9.6465  -2.7021  -2.3066  -2.1174   8.7700   8.8033

          k =-0.0164 0.7492 0.0000 (  2870 PWs)   bands (ev):

   -15.3815 -13.4637  -9.6457  -2.7289  -2.2796  -2.1167   8.7605   8.7676

          k =-0.0164 0.7512 0.0000 (  2870 PWs)   bands (ev):

   -15.3877 -13.4569  -9.6448  -2.7559  -2.2524  -2.1158   8.7309   8.7498

          k =-0.0164 0.7532 0.0000 (  2868 PWs)   bands (ev):

   -15.3945 -13.4493  -9.6438  -2.7829  -2.2252  -2.1148   8.6937   8.7380

          k =-0.0164 0.7552 0.0000 (  2866 PWs)   bands (ev):

   -15.4020 -13.4410  -9.6427  -2.8100  -2.1978  -2.1138   8.6560   8.7251

          k =-0.0164 0.7572 0.0000 (  2864 PWs)   bands (ev):

   -15.4102 -13.4320  -9.6416  -2.8371  -2.1704  -2.1126   8.6179   8.7111

          k =-0.0164 0.7592 0.0000 (  2862 PWs)   bands (ev):

   -15.4189 -13.4222  -9.6403  -2.8642  -2.1430  -2.1113   8.5796   8.6960

          k =-0.0164 0.7612 0.0000 (  2860 PWs)   bands (ev):

   -15.4283 -13.4118  -9.6389  -2.8913  -2.1155  -2.1099   8.5410   8.6799

          k =-0.0164 0.7632 0.0000 (  2860 PWs)   bands (ev):

   -15.4383 -13.4008  -9.6374  -2.9185  -2.1084  -2.0880   8.5023   8.6629

          k =-0.0164 0.7652 0.0000 (  2860 PWs)   bands (ev):

   -15.4488 -13.3891  -9.6358  -2.9456  -2.1069  -2.0605   8.4634   8.6449

          k =-0.0164 0.7672 0.0000 (  2860 PWs)   bands (ev):

   -15.4599 -13.3768  -9.6341  -2.9727  -2.1052  -2.0329   8.4245   8.6260

          k =-0.0164 0.7692 0.0000 (  2861 PWs)   bands (ev):

   -15.4715 -13.3639  -9.6322  -2.9999  -2.1034  -2.0054   8.3855   8.6063

          k =-0.0164 0.7712 0.0000 (  2859 PWs)   bands (ev):

   -15.4836 -13.3504  -9.6303  -3.0270  -2.1015  -1.9778   8.3464   8.5858

          k =-0.0164 0.7732 0.0000 (  2857 PWs)   bands (ev):

   -15.4962 -13.3363  -9.6283  -3.0541  -2.0996  -1.9502   8.3073   8.5644

          k =-0.0144 0.6932 0.0000 (  2858 PWs)   bands (ev):

   -15.4961 -13.3368  -9.6258  -3.0541  -2.1038  -1.9500   8.3065   8.5654

          k =-0.0144 0.6952 0.0000 (  2859 PWs)   bands (ev):

   -15.4835 -13.3509  -9.6279  -3.0270  -2.1058  -1.9776   8.3456   8.5868

          k =-0.0144 0.6972 0.0000 (  2861 PWs)   bands (ev):

   -15.4714 -13.3644  -9.6298  -2.9998  -2.1077  -2.0052   8.3846   8.6075

          k =-0.0144 0.6992 0.0000 (  2860 PWs)   bands (ev):

   -15.4598 -13.3773  -9.6316  -2.9727  -2.1094  -2.0328   8.4236   8.6273

          k =-0.0144 0.7012 0.0000 (  2860 PWs)   bands (ev):

   -15.4487 -13.3897  -9.6333  -2.9455  -2.1111  -2.0604   8.4626   8.6462

          k =-0.0144 0.7032 0.0000 (  2860 PWs)   bands (ev):

   -15.4382 -13.4014  -9.6349  -2.9184  -2.1127  -2.0879   8.5014   8.6643

          k =-0.0144 0.7052 0.0000 (  2862 PWs)   bands (ev):

   -15.4282 -13.4124  -9.6364  -2.8912  -2.1154  -2.1142   8.5402   8.6814

          k =-0.0144 0.7072 0.0000 (  2864 PWs)   bands (ev):

   -15.4188 -13.4228  -9.6378  -2.8641  -2.1429  -2.1156   8.5787   8.6975

          k =-0.0144 0.7092 0.0000 (  2866 PWs)   bands (ev):

   -15.4101 -13.4326  -9.6391  -2.8369  -2.1703  -2.1168   8.6171   8.7127

          k =-0.0144 0.7112 0.0000 (  2868 PWs)   bands (ev):

   -15.4019 -13.4416  -9.6403  -2.8098  -2.1978  -2.1180   8.6552   8.7267

          k =-0.0144 0.7132 0.0000 (  2870 PWs)   bands (ev):

   -15.3944 -13.4499  -9.6413  -2.7827  -2.2251  -2.1191   8.6929   8.7398

          k =-0.0144 0.7152 0.0000 (  2870 PWs)   bands (ev):

   -15.3875 -13.4575  -9.6423  -2.7557  -2.2524  -2.1201   8.7301   8.7516

          k =-0.0144 0.7172 0.0000 (  2872 PWs)   bands (ev):

   -15.3814 -13.4643  -9.6432  -2.7287  -2.2796  -2.1209   8.7623   8.7668

          k =-0.0144 0.7192 0.0000 (  2872 PWs)   bands (ev):

   -15.3759 -13.4704  -9.6440  -2.7019  -2.3067  -2.1217   8.7719   8.8025

          k =-0.0144 0.7212 0.0000 (  2872 PWs)   bands (ev):

   -15.3711 -13.4757  -9.6447  -2.6752  -2.3335  -2.1223   8.7802   8.8371

          k =-0.0144 0.7232 0.0000 (  2872 PWs)   bands (ev):

   -15.3670 -13.4802  -9.6452  -2.6488  -2.3601  -2.1229   8.7873   8.8700

          k =-0.0144 0.7252 0.0000 (  2872 PWs)   bands (ev):

   -15.3637 -13.4838  -9.6457  -2.6228  -2.3861  -2.1234   8.7932   8.9004

          k =-0.0144 0.7272 0.0000 (  2872 PWs)   bands (ev):

   -15.3611 -13.4867  -9.6460  -2.5978  -2.4113  -2.1237   8.7977   8.9273

          k =-0.0144 0.7292 0.0000 (  2870 PWs)   bands (ev):

   -15.3592 -13.4888  -9.6463  -2.5746  -2.4345  -2.1240   8.8010   8.9490

          k =-0.0144 0.7312 0.0000 (  2870 PWs)   bands (ev):

   -15.3580 -13.4900  -9.6464  -2.5558  -2.4533  -2.1241   8.8029   8.9634

          k =-0.0144 0.7332 0.0000 (  2870 PWs)   bands (ev):

   -15.3577 -13.4904  -9.6465  -2.5478  -2.4614  -2.1242   8.8036   8.9685

          k =-0.0144 0.7352 0.0000 (  2870 PWs)   bands (ev):

   -15.3580 -13.4900  -9.6464  -2.5558  -2.4533  -2.1241   8.8029   8.9634

          k =-0.0144 0.7372 0.0000 (  2870 PWs)   bands (ev):

   -15.3592 -13.4888  -9.6463  -2.5746  -2.4345  -2.1240   8.8010   8.9490

          k =-0.0144 0.7392 0.0000 (  2872 PWs)   bands (ev):

   -15.3611 -13.4867  -9.6460  -2.5978  -2.4113  -2.1237   8.7977   8.9273

          k =-0.0144 0.7412 0.0000 (  2872 PWs)   bands (ev):

   -15.3637 -13.4838  -9.6457  -2.6228  -2.3861  -2.1234   8.7932   8.9004

          k =-0.0144 0.7432 0.0000 (  2872 PWs)   bands (ev):

   -15.3670 -13.4802  -9.6452  -2.6488  -2.3601  -2.1229   8.7873   8.8700

          k =-0.0144 0.7452 0.0000 (  2872 PWs)   bands (ev):

   -15.3711 -13.4757  -9.6447  -2.6752  -2.3335  -2.1223   8.7802   8.8371

          k =-0.0144 0.7472 0.0000 (  2872 PWs)   bands (ev):

   -15.3759 -13.4704  -9.6440  -2.7019  -2.3067  -2.1217   8.7719   8.8025

          k =-0.0144 0.7492 0.0000 (  2872 PWs)   bands (ev):

   -15.3814 -13.4643  -9.6432  -2.7287  -2.2796  -2.1209   8.7623   8.7668

          k =-0.0144 0.7512 0.0000 (  2870 PWs)   bands (ev):

   -15.3875 -13.4575  -9.6423  -2.7557  -2.2524  -2.1201   8.7301   8.7516

          k =-0.0144 0.7532 0.0000 (  2870 PWs)   bands (ev):

   -15.3944 -13.4499  -9.6413  -2.7827  -2.2251  -2.1191   8.6929   8.7398

          k =-0.0144 0.7552 0.0000 (  2868 PWs)   bands (ev):

   -15.4019 -13.4416  -9.6403  -2.8098  -2.1978  -2.1180   8.6552   8.7268

          k =-0.0144 0.7572 0.0000 (  2866 PWs)   bands (ev):

   -15.4101 -13.4326  -9.6391  -2.8369  -2.1703  -2.1168   8.6171   8.7127

          k =-0.0144 0.7592 0.0000 (  2864 PWs)   bands (ev):

   -15.4188 -13.4228  -9.6378  -2.8641  -2.1429  -2.1156   8.5787   8.6975

          k =-0.0144 0.7612 0.0000 (  2862 PWs)   bands (ev):

   -15.4282 -13.4124  -9.6364  -2.8912  -2.1154  -2.1142   8.5402   8.6814

          k =-0.0144 0.7632 0.0000 (  2860 PWs)   bands (ev):

   -15.4382 -13.4014  -9.6349  -2.9184  -2.1127  -2.0879   8.5014   8.6643

          k =-0.0144 0.7652 0.0000 (  2860 PWs)   bands (ev):

   -15.4487 -13.3897  -9.6333  -2.9455  -2.1111  -2.0604   8.4626   8.6462

          k =-0.0144 0.7672 0.0000 (  2860 PWs)   bands (ev):

   -15.4598 -13.3773  -9.6316  -2.9727  -2.1094  -2.0328   8.4236   8.6273

          k =-0.0144 0.7692 0.0000 (  2861 PWs)   bands (ev):

   -15.4714 -13.3644  -9.6298  -2.9998  -2.1077  -2.0052   8.3846   8.6075

          k =-0.0144 0.7712 0.0000 (  2859 PWs)   bands (ev):

   -15.4835 -13.3509  -9.6279  -3.0270  -2.1058  -1.9776   8.3456   8.5868

          k =-0.0144 0.7732 0.0000 (  2858 PWs)   bands (ev):

   -15.4961 -13.3368  -9.6258  -3.0541  -2.1038  -1.9500   8.3065   8.5654

          k =-0.0124 0.6932 0.0000 (  2862 PWs)   bands (ev):

   -15.4961 -13.3373  -9.6237  -3.0540  -2.1075  -1.9499   8.3057   8.5663

          k =-0.0124 0.6952 0.0000 (  2859 PWs)   bands (ev):

   -15.4835 -13.3514  -9.6257  -3.0269  -2.1095  -1.9775   8.3448   8.5878

          k =-0.0124 0.6972 0.0000 (  2861 PWs)   bands (ev):

   -15.4713 -13.3649  -9.6276  -2.9998  -2.1114  -2.0051   8.3839   8.6085

          k =-0.0124 0.6992 0.0000 (  2860 PWs)   bands (ev):

   -15.4597 -13.3778  -9.6294  -2.9726  -2.1131  -2.0327   8.4229   8.6283

          k =-0.0124 0.7012 0.0000 (  2860 PWs)   bands (ev):

   -15.4486 -13.3902  -9.6311  -2.9455  -2.1148  -2.0602   8.4619   8.6474

          k =-0.0124 0.7032 0.0000 (  2862 PWs)   bands (ev):

   -15.4381 -13.4019  -9.6327  -2.9183  -2.1164  -2.0878   8.5007   8.6655

          k =-0.0124 0.7052 0.0000 (  2864 PWs)   bands (ev):

   -15.4281 -13.4129  -9.6342  -2.8911  -2.1179  -2.1153   8.5394   8.6827

          k =-0.0124 0.7072 0.0000 (  2868 PWs)   bands (ev):

   -15.4187 -13.4234  -9.6356  -2.8640  -2.1428  -2.1193   8.5780   8.6989

          k =-0.0124 0.7092 0.0000 (  2868 PWs)   bands (ev):

   -15.4100 -13.4331  -9.6369  -2.8368  -2.1703  -2.1205   8.6164   8.7141

          k =-0.0124 0.7112 0.0000 (  2868 PWs)   bands (ev):

   -15.4018 -13.4421  -9.6381  -2.8097  -2.1977  -2.1217   8.6545   8.7282

          k =-0.0124 0.7132 0.0000 (  2870 PWs)   bands (ev):

   -15.3943 -13.4505  -9.6392  -2.7826  -2.2251  -2.1228   8.6922   8.7413

          k =-0.0124 0.7152 0.0000 (  2872 PWs)   bands (ev):

   -15.3874 -13.4581  -9.6401  -2.7555  -2.2524  -2.1238   8.7295   8.7532

          k =-0.0124 0.7172 0.0000 (  2872 PWs)   bands (ev):

   -15.3813 -13.4649  -9.6410  -2.7286  -2.2796  -2.1246   8.7639   8.7661

          k =-0.0124 0.7192 0.0000 (  2872 PWs)   bands (ev):

   -15.3758 -13.4709  -9.6418  -2.7017  -2.3067  -2.1254   8.7736   8.8018

          k =-0.0124 0.7212 0.0000 (  2872 PWs)   bands (ev):

   -15.3710 -13.4762  -9.6425  -2.6749  -2.3336  -2.1260   8.7819   8.8364

          k =-0.0124 0.7232 0.0000 (  2872 PWs)   bands (ev):

   -15.3669 -13.4807  -9.6430  -2.6485  -2.3602  -2.1266   8.7891   8.8693

          k =-0.0124 0.7252 0.0000 (  2870 PWs)   bands (ev):

   -15.3635 -13.4844  -9.6435  -2.6225  -2.3863  -2.1271   8.7949   8.8997

          k =-0.0124 0.7272 0.0000 (  2870 PWs)   bands (ev):

   -15.3609 -13.4873  -9.6438  -2.5974  -2.4115  -2.1274   8.7995   8.9266

          k =-0.0124 0.7292 0.0000 (  2870 PWs)   bands (ev):

   -15.3590 -13.4894  -9.6441  -2.5740  -2.4349  -2.1277   8.8028   8.9483

          k =-0.0124 0.7312 0.0000 (  2870 PWs)   bands (ev):

   -15.3579 -13.4906  -9.6443  -2.5551  -2.4539  -2.1278   8.8048   8.9628

          k =-0.0124 0.7332 0.0000 (  2870 PWs)   bands (ev):

   -15.3575 -13.4910  -9.6443  -2.5469  -2.4620  -2.1279   8.8054   8.9679

          k =-0.0124 0.7352 0.0000 (  2870 PWs)   bands (ev):

   -15.3579 -13.4906  -9.6443  -2.5551  -2.4539  -2.1278   8.8048   8.9628

          k =-0.0124 0.7372 0.0000 (  2870 PWs)   bands (ev):

   -15.3590 -13.4894  -9.6441  -2.5740  -2.4349  -2.1277   8.8028   8.9483

          k =-0.0124 0.7392 0.0000 (  2870 PWs)   bands (ev):

   -15.3609 -13.4873  -9.6438  -2.5974  -2.4115  -2.1274   8.7995   8.9266

          k =-0.0124 0.7412 0.0000 (  2870 PWs)   bands (ev):

   -15.3635 -13.4844  -9.6435  -2.6225  -2.3863  -2.1271   8.7949   8.8997

          k =-0.0124 0.7432 0.0000 (  2872 PWs)   bands (ev):

   -15.3669 -13.4807  -9.6430  -2.6485  -2.3602  -2.1266   8.7891   8.8693

          k =-0.0124 0.7452 0.0000 (  2872 PWs)   bands (ev):

   -15.3710 -13.4762  -9.6425  -2.6749  -2.3336  -2.1260   8.7819   8.8364

          k =-0.0124 0.7472 0.0000 (  2872 PWs)   bands (ev):

   -15.3758 -13.4709  -9.6418  -2.7017  -2.3067  -2.1254   8.7736   8.8018

          k =-0.0124 0.7492 0.0000 (  2872 PWs)   bands (ev):

   -15.3813 -13.4649  -9.6410  -2.7285  -2.2796  -2.1246   8.7639   8.7661

          k =-0.0124 0.7512 0.0000 (  2872 PWs)   bands (ev):

   -15.3874 -13.4581  -9.6401  -2.7555  -2.2524  -2.1238   8.7294   8.7532

          k =-0.0124 0.7532 0.0000 (  2870 PWs)   bands (ev):

   -15.3943 -13.4505  -9.6392  -2.7826  -2.2251  -2.1228   8.6922   8.7413

          k =-0.0124 0.7552 0.0000 (  2868 PWs)   bands (ev):

   -15.4018 -13.4421  -9.6381  -2.8097  -2.1977  -2.1217   8.6545   8.7282

          k =-0.0124 0.7572 0.0000 (  2868 PWs)   bands (ev):

   -15.4100 -13.4331  -9.6369  -2.8368  -2.1703  -2.1205   8.6164   8.7141

          k =-0.0124 0.7592 0.0000 (  2868 PWs)   bands (ev):

   -15.4187 -13.4234  -9.6356  -2.8640  -2.1428  -2.1193   8.5780   8.6989

          k =-0.0124 0.7612 0.0000 (  2864 PWs)   bands (ev):

   -15.4281 -13.4129  -9.6342  -2.8911  -2.1179  -2.1153   8.5394   8.6827

          k =-0.0124 0.7632 0.0000 (  2862 PWs)   bands (ev):

   -15.4381 -13.4019  -9.6327  -2.9183  -2.1164  -2.0878   8.5007   8.6655

          k =-0.0124 0.7652 0.0000 (  2860 PWs)   bands (ev):

   -15.4486 -13.3902  -9.6311  -2.9455  -2.1148  -2.0602   8.4619   8.6474

          k =-0.0124 0.7672 0.0000 (  2860 PWs)   bands (ev):

   -15.4597 -13.3778  -9.6294  -2.9726  -2.1131  -2.0327   8.4229   8.6283

          k =-0.0124 0.7692 0.0000 (  2861 PWs)   bands (ev):

   -15.4713 -13.3649  -9.6276  -2.9998  -2.1114  -2.0051   8.3839   8.6085

          k =-0.0124 0.7712 0.0000 (  2859 PWs)   bands (ev):

   -15.4835 -13.3514  -9.6257  -3.0269  -2.1095  -1.9775   8.3448   8.5878

          k =-0.0124 0.7732 0.0000 (  2862 PWs)   bands (ev):

   -15.4961 -13.3373  -9.6237  -3.0540  -2.1075  -1.9499   8.3057   8.5663

          k =-0.0104 0.6932 0.0000 (  2862 PWs)   bands (ev):

   -15.4960 -13.3377  -9.6218  -3.0540  -2.1107  -1.9497   8.3051   8.5671

          k =-0.0104 0.6952 0.0000 (  2859 PWs)   bands (ev):

   -15.4834 -13.3517  -9.6238  -3.0269  -2.1126  -1.9773   8.3442   8.5886

          k =-0.0104 0.6972 0.0000 (  2861 PWs)   bands (ev):

   -15.4713 -13.3653  -9.6257  -2.9997  -2.1145  -2.0050   8.3833   8.6093

          k =-0.0104 0.6992 0.0000 (  2860 PWs)   bands (ev):

   -15.4597 -13.3782  -9.6275  -2.9726  -2.1163  -2.0326   8.4223   8.6292

          k =-0.0104 0.7012 0.0000 (  2864 PWs)   bands (ev):

   -15.4486 -13.3906  -9.6293  -2.9454  -2.1180  -2.0601   8.4612   8.6483

          k =-0.0104 0.7032 0.0000 (  2864 PWs)   bands (ev):

   -15.4380 -13.4023  -9.6308  -2.9182  -2.1196  -2.0877   8.5001   8.6665

          k =-0.0104 0.7052 0.0000 (  2868 PWs)   bands (ev):

   -15.4281 -13.4134  -9.6324  -2.8911  -2.1210  -2.1153   8.5388   8.6837

          k =-0.0104 0.7072 0.0000 (  2868 PWs)   bands (ev):

   -15.4187 -13.4238  -9.6338  -2.8639  -2.1428  -2.1224   8.5774   8.7000

          k =-0.0104 0.7092 0.0000 (  2868 PWs)   bands (ev):

   -15.4099 -13.4336  -9.6350  -2.8367  -2.1702  -2.1237   8.6158   8.7152

          k =-0.0104 0.7112 0.0000 (  2868 PWs)   bands (ev):

   -15.4017 -13.4426  -9.6362  -2.8096  -2.1977  -2.1249   8.6539   8.7294

          k =-0.0104 0.7132 0.0000 (  2872 PWs)   bands (ev):

   -15.3942 -13.4509  -9.6373  -2.7825  -2.2251  -2.1259   8.6916   8.7425

          k =-0.0104 0.7152 0.0000 (  2872 PWs)   bands (ev):

   -15.3873 -13.4585  -9.6383  -2.7554  -2.2524  -2.1269   8.7289   8.7545

          k =-0.0104 0.7172 0.0000 (  2872 PWs)   bands (ev):

   -15.3812 -13.4654  -9.6392  -2.7284  -2.2796  -2.1278   8.7650   8.7658

          k =-0.0104 0.7192 0.0000 (  2872 PWs)   bands (ev):

   -15.3757 -13.4714  -9.6399  -2.7015  -2.3067  -2.1285   8.7750   8.8013

          k =-0.0104 0.7212 0.0000 (  2870 PWs)   bands (ev):

   -15.3709 -13.4767  -9.6406  -2.6747  -2.3336  -2.1292   8.7834   8.8358

          k =-0.0104 0.7232 0.0000 (  2870 PWs)   bands (ev):

   -15.3668 -13.4812  -9.6411  -2.6483  -2.3603  -2.1298   8.7905   8.8687

          k =-0.0104 0.7252 0.0000 (  2870 PWs)   bands (ev):

   -15.3634 -13.4849  -9.6416  -2.6222  -2.3864  -2.1302   8.7964   8.8992

          k =-0.0104 0.7272 0.0000 (  2870 PWs)   bands (ev):

   -15.3608 -13.4878  -9.6420  -2.5970  -2.4117  -2.1306   8.8010   8.9261

          k =-0.0104 0.7292 0.0000 (  2870 PWs)   bands (ev):

   -15.3589 -13.4899  -9.6422  -2.5736  -2.4352  -2.1308   8.8043   8.9478

          k =-0.0104 0.7312 0.0000 (  2870 PWs)   bands (ev):

   -15.3578 -13.4911  -9.6424  -2.5545  -2.4543  -2.1310   8.8063   8.9622

          k =-0.0104 0.7332 0.0000 (  2870 PWs)   bands (ev):

   -15.3574 -13.4915  -9.6424  -2.5462  -2.4626  -2.1310   8.8070   8.9673

          k =-0.0104 0.7352 0.0000 (  2870 PWs)   bands (ev):

   -15.3578 -13.4911  -9.6424  -2.5545  -2.4543  -2.1310   8.8063   8.9622

          k =-0.0104 0.7372 0.0000 (  2870 PWs)   bands (ev):

   -15.3589 -13.4899  -9.6422  -2.5736  -2.4352  -2.1308   8.8043   8.9478

          k =-0.0104 0.7392 0.0000 (  2870 PWs)   bands (ev):

   -15.3608 -13.4878  -9.6420  -2.5970  -2.4117  -2.1306   8.8010   8.9261

          k =-0.0104 0.7412 0.0000 (  2870 PWs)   bands (ev):

   -15.3634 -13.4849  -9.6416  -2.6222  -2.3864  -2.1302   8.7964   8.8992

          k =-0.0104 0.7432 0.0000 (  2870 PWs)   bands (ev):

   -15.3668 -13.4812  -9.6411  -2.6483  -2.3603  -2.1298   8.7905   8.8687

          k =-0.0104 0.7452 0.0000 (  2870 PWs)   bands (ev):

   -15.3709 -13.4767  -9.6406  -2.6747  -2.3336  -2.1292   8.7834   8.8358

          k =-0.0104 0.7472 0.0000 (  2872 PWs)   bands (ev):

   -15.3757 -13.4714  -9.6399  -2.7015  -2.3067  -2.1285   8.7750   8.8013

          k =-0.0104 0.7492 0.0000 (  2872 PWs)   bands (ev):

   -15.3812 -13.4654  -9.6392  -2.7284  -2.2796  -2.1278   8.7650   8.7658

          k =-0.0104 0.7512 0.0000 (  2872 PWs)   bands (ev):

   -15.3873 -13.4585  -9.6383  -2.7554  -2.2524  -2.1269   8.7289   8.7545

          k =-0.0104 0.7532 0.0000 (  2872 PWs)   bands (ev):

   -15.3942 -13.4509  -9.6373  -2.7825  -2.2251  -2.1259   8.6916   8.7425

          k =-0.0104 0.7552 0.0000 (  2868 PWs)   bands (ev):

   -15.4017 -13.4426  -9.6362  -2.8096  -2.1977  -2.1249   8.6539   8.7294

          k =-0.0104 0.7572 0.0000 (  2868 PWs)   bands (ev):

   -15.4099 -13.4336  -9.6350  -2.8367  -2.1702  -2.1237   8.6158   8.7152

          k =-0.0104 0.7592 0.0000 (  2868 PWs)   bands (ev):

   -15.4187 -13.4238  -9.6337  -2.8639  -2.1428  -2.1224   8.5774   8.7000

          k =-0.0104 0.7612 0.0000 (  2868 PWs)   bands (ev):

   -15.4281 -13.4134  -9.6324  -2.8911  -2.1210  -2.1153   8.5388   8.6837

          k =-0.0104 0.7632 0.0000 (  2864 PWs)   bands (ev):

   -15.4380 -13.4023  -9.6308  -2.9182  -2.1196  -2.0877   8.5001   8.6665

          k =-0.0104 0.7652 0.0000 (  2864 PWs)   bands (ev):

   -15.4486 -13.3906  -9.6293  -2.9454  -2.1180  -2.0601   8.4612   8.6483

          k =-0.0104 0.7672 0.0000 (  2860 PWs)   bands (ev):

   -15.4597 -13.3782  -9.6275  -2.9726  -2.1163  -2.0326   8.4223   8.6292

          k =-0.0104 0.7692 0.0000 (  2861 PWs)   bands (ev):

   -15.4713 -13.3653  -9.6257  -2.9997  -2.1145  -2.0050   8.3833   8.6093

          k =-0.0104 0.7712 0.0000 (  2859 PWs)   bands (ev):

   -15.4834 -13.3518  -9.6238  -3.0269  -2.1126  -1.9773   8.3442   8.5886

          k =-0.0104 0.7732 0.0000 (  2862 PWs)   bands (ev):

   -15.4960 -13.3377  -9.6218  -3.0540  -2.1107  -1.9497   8.3051   8.5671

          k =-0.0084 0.6932 0.0000 (  2862 PWs)   bands (ev):

   -15.4960 -13.3380  -9.6203  -3.0540  -2.1133  -1.9496   8.3046   8.5677

          k =-0.0084 0.6952 0.0000 (  2859 PWs)   bands (ev):

   -15.4834 -13.3521  -9.6223  -3.0269  -2.1152  -1.9772   8.3437   8.5892

          k =-0.0084 0.6972 0.0000 (  2858 PWs)   bands (ev):

   -15.4712 -13.3656  -9.6242  -2.9997  -2.1171  -2.0049   8.3828   8.6100

          k =-0.0084 0.6992 0.0000 (  2864 PWs)   bands (ev):

   -15.4596 -13.3786  -9.6260  -2.9726  -2.1189  -2.0325   8.4218   8.6300

          k =-0.0084 0.7012 0.0000 (  2866 PWs)   bands (ev):

   -15.4485 -13.3909  -9.6277  -2.9454  -2.1206  -2.0601   8.4607   8.6491

          k =-0.0084 0.7032 0.0000 (  2866 PWs)   bands (ev):

   -15.4380 -13.4027  -9.6293  -2.9182  -2.1222  -2.0876   8.4996   8.6673

          k =-0.0084 0.7052 0.0000 (  2868 PWs)   bands (ev):

   -15.4280 -13.4138  -9.6308  -2.8910  -2.1236  -2.1152   8.5383   8.6846

          k =-0.0084 0.7072 0.0000 (  2868 PWs)   bands (ev):

   -15.4186 -13.4242  -9.6322  -2.8638  -2.1427  -2.1250   8.5769   8.7009

          k =-0.0084 0.7092 0.0000 (  2868 PWs)   bands (ev):

   -15.4098 -13.4339  -9.6335  -2.8367  -2.1702  -2.1263   8.6153   8.7162

          k =-0.0084 0.7112 0.0000 (  2870 PWs)   bands (ev):

   -15.4017 -13.4430  -9.6347  -2.8095  -2.1977  -2.1275   8.6534   8.7305

          k =-0.0084 0.7132 0.0000 (  2872 PWs)   bands (ev):

   -15.3941 -13.4513  -9.6358  -2.7824  -2.2251  -2.1285   8.6911   8.7436

          k =-0.0084 0.7152 0.0000 (  2872 PWs)   bands (ev):

   -15.3873 -13.4589  -9.6367  -2.7553  -2.2524  -2.1295   8.7284   8.7556

          k =-0.0084 0.7172 0.0000 (  2870 PWs)   bands (ev):

   -15.3811 -13.4657  -9.6376  -2.7283  -2.2796  -2.1304   8.7649   8.7666

          k =-0.0084 0.7192 0.0000 (  2870 PWs)   bands (ev):

   -15.3756 -13.4718  -9.6384  -2.7014  -2.3067  -2.1311   8.7761   8.8008

          k =-0.0084 0.7212 0.0000 (  2870 PWs)   bands (ev):

   -15.3708 -13.4771  -9.6390  -2.6746  -2.3337  -2.1318   8.7846   8.8354

          k =-0.0084 0.7232 0.0000 (  2870 PWs)   bands (ev):

   -15.3667 -13.4816  -9.6396  -2.6481  -2.3603  -2.1324   8.7917   8.8682

          k =-0.0084 0.7252 0.0000 (  2870 PWs)   bands (ev):

   -15.3633 -13.4853  -9.6401  -2.6220  -2.3865  -2.1328   8.7977   8.8987

          k =-0.0084 0.7272 0.0000 (  2870 PWs)   bands (ev):

   -15.3607 -13.4882  -9.6404  -2.5967  -2.4119  -2.1332   8.8023   8.9256

          k =-0.0084 0.7292 0.0000 (  2870 PWs)   bands (ev):

   -15.3588 -13.4903  -9.6407  -2.5732  -2.4354  -2.1334   8.8056   8.9473

          k =-0.0084 0.7312 0.0000 (  2870 PWs)   bands (ev):

   -15.3577 -13.4915  -9.6408  -2.5540  -2.4547  -2.1336   8.8076   8.9618

          k =-0.0084 0.7332 0.0000 (  2870 PWs)   bands (ev):

   -15.3573 -13.4919  -9.6409  -2.5456  -2.4631  -2.1336   8.8082   8.9669

          k =-0.0084 0.7352 0.0000 (  2870 PWs)   bands (ev):

   -15.3577 -13.4915  -9.6408  -2.5540  -2.4547  -2.1336   8.8076   8.9618

          k =-0.0084 0.7372 0.0000 (  2870 PWs)   bands (ev):

   -15.3588 -13.4903  -9.6407  -2.5732  -2.4355  -2.1334   8.8056   8.9473

          k =-0.0084 0.7392 0.0000 (  2870 PWs)   bands (ev):

   -15.3607 -13.4882  -9.6404  -2.5967  -2.4119  -2.1332   8.8023   8.9256

          k =-0.0084 0.7412 0.0000 (  2870 PWs)   bands (ev):

   -15.3633 -13.4853  -9.6401  -2.6220  -2.3865  -2.1328   8.7977   8.8987

          k =-0.0084 0.7432 0.0000 (  2870 PWs)   bands (ev):

   -15.3667 -13.4816  -9.6396  -2.6481  -2.3603  -2.1324   8.7917   8.8682

          k =-0.0084 0.7452 0.0000 (  2870 PWs)   bands (ev):

   -15.3708 -13.4771  -9.6390  -2.6746  -2.3337  -2.1318   8.7846   8.8353

          k =-0.0084 0.7472 0.0000 (  2870 PWs)   bands (ev):

   -15.3756 -13.4718  -9.6384  -2.7014  -2.3067  -2.1311   8.7761   8.8008

          k =-0.0084 0.7492 0.0000 (  2870 PWs)   bands (ev):

   -15.3811 -13.4657  -9.6376  -2.7283  -2.2796  -2.1304   8.7649   8.7666

          k =-0.0084 0.7512 0.0000 (  2872 PWs)   bands (ev):

   -15.3873 -13.4589  -9.6367  -2.7553  -2.2524  -2.1295   8.7284   8.7556

          k =-0.0084 0.7532 0.0000 (  2872 PWs)   bands (ev):

   -15.3941 -13.4513  -9.6358  -2.7824  -2.2251  -2.1285   8.6911   8.7436

          k =-0.0084 0.7552 0.0000 (  2870 PWs)   bands (ev):

   -15.4017 -13.4430  -9.6347  -2.8095  -2.1977  -2.1275   8.6534   8.7305

          k =-0.0084 0.7572 0.0000 (  2868 PWs)   bands (ev):

   -15.4098 -13.4339  -9.6335  -2.8367  -2.1702  -2.1263   8.6153   8.7162

          k =-0.0084 0.7592 0.0000 (  2868 PWs)   bands (ev):

   -15.4186 -13.4242  -9.6322  -2.8638  -2.1427  -2.1250   8.5769   8.7009

          k =-0.0084 0.7612 0.0000 (  2868 PWs)   bands (ev):

   -15.4280 -13.4138  -9.6308  -2.8910  -2.1236  -2.1152   8.5383   8.6846

          k =-0.0084 0.7632 0.0000 (  2866 PWs)   bands (ev):

   -15.4380 -13.4027  -9.6293  -2.9182  -2.1222  -2.0876   8.4996   8.6673

          k =-0.0084 0.7652 0.0000 (  2866 PWs)   bands (ev):

   -15.4485 -13.3909  -9.6277  -2.9454  -2.1206  -2.0601   8.4607   8.6491

          k =-0.0084 0.7672 0.0000 (  2864 PWs)   bands (ev):

   -15.4596 -13.3786  -9.6260  -2.9726  -2.1189  -2.0325   8.4218   8.6300

          k =-0.0084 0.7692 0.0000 (  2858 PWs)   bands (ev):

   -15.4712 -13.3656  -9.6242  -2.9997  -2.1171  -2.0049   8.3828   8.6100

          k =-0.0084 0.7712 0.0000 (  2859 PWs)   bands (ev):

   -15.4834 -13.3521  -9.6223  -3.0269  -2.1152  -1.9772   8.3437   8.5892

          k =-0.0084 0.7732 0.0000 (  2862 PWs)   bands (ev):

   -15.4960 -13.3380  -9.6203  -3.0540  -2.1133  -1.9496   8.3046   8.5677

          k =-0.0064 0.6932 0.0000 (  2858 PWs)   bands (ev):

   -15.4960 -13.3382  -9.6191  -3.0540  -2.1153  -1.9495   8.3042   8.5682

          k =-0.0064 0.6952 0.0000 (  2863 PWs)   bands (ev):

   -15.4834 -13.3523  -9.6211  -3.0269  -2.1173  -1.9772   8.3433   8.5898

          k =-0.0064 0.6972 0.0000 (  2864 PWs)   bands (ev):

   -15.4712 -13.3659  -9.6231  -2.9997  -2.1192  -2.0048   8.3823   8.6106

          k =-0.0064 0.6992 0.0000 (  2866 PWs)   bands (ev):

   -15.4596 -13.3789  -9.6249  -2.9725  -2.1209  -2.0324   8.4214   8.6306

          k =-0.0064 0.7012 0.0000 (  2866 PWs)   bands (ev):

   -15.4485 -13.3912  -9.6265  -2.9454  -2.1226  -2.0600   8.4603   8.6497

          k =-0.0064 0.7032 0.0000 (  2866 PWs)   bands (ev):

   -15.4379 -13.4029  -9.6281  -2.9182  -2.1242  -2.0876   8.4992   8.6680

          k =-0.0064 0.7052 0.0000 (  2868 PWs)   bands (ev):

   -15.4280 -13.4140  -9.6296  -2.8910  -2.1257  -2.1151   8.5379   8.6853

          k =-0.0064 0.7072 0.0000 (  2868 PWs)   bands (ev):

   -15.4186 -13.4245  -9.6310  -2.8638  -2.1427  -2.1271   8.5765   8.7017

          k =-0.0064 0.7092 0.0000 (  2870 PWs)   bands (ev):

   -15.4098 -13.4342  -9.6323  -2.8366  -2.1702  -2.1283   8.6149   8.7170

          k =-0.0064 0.7112 0.0000 (  2870 PWs)   bands (ev):

   -15.4016 -13.4433  -9.6335  -2.8095  -2.1976  -2.1295   8.6530   8.7313

          k =-0.0064 0.7132 0.0000 (  2872 PWs)   bands (ev):

   -15.3941 -13.4516  -9.6346  -2.7823  -2.2251  -2.1306   8.6907   8.7444

          k =-0.0064 0.7152 0.0000 (  2870 PWs)   bands (ev):

   -15.3872 -13.4592  -9.6355  -2.7552  -2.2524  -2.1316   8.7280   8.7565

          k =-0.0064 0.7172 0.0000 (  2870 PWs)   bands (ev):

   -15.3810 -13.4661  -9.6364  -2.7282  -2.2796  -2.1324   8.7646   8.7674

          k =-0.0064 0.7192 0.0000 (  2870 PWs)   bands (ev):

   -15.3755 -13.4721  -9.6372  -2.7012  -2.3068  -2.1332   8.7770   8.8004

          k =-0.0064 0.7212 0.0000 (  2870 PWs)   bands (ev):

   -15.3707 -13.4774  -9.6378  -2.6745  -2.3337  -2.1338   8.7855   8.8350

          k =-0.0064 0.7232 0.0000 (  2870 PWs)   bands (ev):

   -15.3666 -13.4819  -9.6384  -2.6479  -2.3604  -2.1344   8.7927   8.8679

          k =-0.0064 0.7252 0.0000 (  2870 PWs)   bands (ev):

   -15.3633 -13.4856  -9.6389  -2.6218  -2.3866  -2.1349   8.7986   8.8983

          k =-0.0064 0.7272 0.0000 (  2870 PWs)   bands (ev):

   -15.3606 -13.4885  -9.6392  -2.5965  -2.4120  -2.1352   8.8033   8.9253

          k =-0.0064 0.7292 0.0000 (  2870 PWs)   bands (ev):

   -15.3588 -13.4906  -9.6395  -2.5729  -2.4356  -2.1355   8.8066   8.9470

          k =-0.0064 0.7312 0.0000 (  2870 PWs)   bands (ev):

   -15.3576 -13.4918  -9.6396  -2.5536  -2.4550  -2.1356   8.8086   8.9614

          k =-0.0064 0.7332 0.0000 (  2870 PWs)   bands (ev):

   -15.3573 -13.4922  -9.6397  -2.5452  -2.4634  -2.1357   8.8092   8.9665

          k =-0.0064 0.7352 0.0000 (  2870 PWs)   bands (ev):

   -15.3576 -13.4918  -9.6396  -2.5536  -2.4550  -2.1356   8.8086   8.9614

          k =-0.0064 0.7372 0.0000 (  2870 PWs)   bands (ev):

   -15.3588 -13.4906  -9.6395  -2.5729  -2.4356  -2.1355   8.8066   8.9470

          k =-0.0064 0.7392 0.0000 (  2870 PWs)   bands (ev):

   -15.3606 -13.4885  -9.6392  -2.5965  -2.4120  -2.1352   8.8033   8.9253

          k =-0.0064 0.7412 0.0000 (  2870 PWs)   bands (ev):

   -15.3633 -13.4856  -9.6388  -2.6218  -2.3866  -2.1349   8.7986   8.8983

          k =-0.0064 0.7432 0.0000 (  2870 PWs)   bands (ev):

   -15.3666 -13.4819  -9.6384  -2.6479  -2.3604  -2.1344   8.7927   8.8679

          k =-0.0064 0.7452 0.0000 (  2870 PWs)   bands (ev):

   -15.3707 -13.4774  -9.6378  -2.6745  -2.3337  -2.1338   8.7855   8.8350

          k =-0.0064 0.7472 0.0000 (  2870 PWs)   bands (ev):

   -15.3755 -13.4721  -9.6372  -2.7012  -2.3068  -2.1332   8.7770   8.8004

          k =-0.0064 0.7492 0.0000 (  2870 PWs)   bands (ev):

   -15.3810 -13.4661  -9.6364  -2.7282  -2.2796  -2.1324   8.7646   8.7674

          k =-0.0064 0.7512 0.0000 (  2870 PWs)   bands (ev):

   -15.3872 -13.4592  -9.6355  -2.7552  -2.2524  -2.1316   8.7280   8.7565

          k =-0.0064 0.7532 0.0000 (  2872 PWs)   bands (ev):

   -15.3941 -13.4516  -9.6346  -2.7823  -2.2251  -2.1306   8.6907   8.7444

          k =-0.0064 0.7552 0.0000 (  2870 PWs)   bands (ev):

   -15.4016 -13.4433  -9.6335  -2.8095  -2.1976  -2.1295   8.6530   8.7313

          k =-0.0064 0.7572 0.0000 (  2870 PWs)   bands (ev):

   -15.4098 -13.4342  -9.6323  -2.8366  -2.1702  -2.1283   8.6149   8.7170

          k =-0.0064 0.7592 0.0000 (  2868 PWs)   bands (ev):

   -15.4186 -13.4245  -9.6310  -2.8638  -2.1427  -2.1271   8.5765   8.7017

          k =-0.0064 0.7612 0.0000 (  2868 PWs)   bands (ev):

   -15.4280 -13.4140  -9.6296  -2.8910  -2.1257  -2.1151   8.5379   8.6853

          k =-0.0064 0.7632 0.0000 (  2866 PWs)   bands (ev):

   -15.4379 -13.4029  -9.6281  -2.9182  -2.1242  -2.0876   8.4992   8.6680

          k =-0.0064 0.7652 0.0000 (  2866 PWs)   bands (ev):

   -15.4485 -13.3912  -9.6265  -2.9454  -2.1226  -2.0600   8.4603   8.6497

          k =-0.0064 0.7672 0.0000 (  2866 PWs)   bands (ev):

   -15.4596 -13.3789  -9.6249  -2.9725  -2.1209  -2.0324   8.4214   8.6306

          k =-0.0064 0.7692 0.0000 (  2864 PWs)   bands (ev):

   -15.4712 -13.3659  -9.6231  -2.9997  -2.1192  -2.0048   8.3823   8.6106

          k =-0.0064 0.7712 0.0000 (  2863 PWs)   bands (ev):

   -15.4834 -13.3523  -9.6211  -3.0269  -2.1173  -1.9772   8.3433   8.5898

          k =-0.0064 0.7732 0.0000 (  2858 PWs)   bands (ev):

   -15.4960 -13.3382  -9.6191  -3.0540  -2.1153  -1.9495   8.3042   8.5682

          k =-0.0044 0.6932 0.0000 (  2866 PWs)   bands (ev):

   -15.4960 -13.3384  -9.6183  -3.0540  -2.1168  -1.9494   8.3039   8.5685

          k =-0.0044 0.6952 0.0000 (  2863 PWs)   bands (ev):

   -15.4833 -13.3525  -9.6203  -3.0269  -2.1188  -1.9771   8.3430   8.5901

          k =-0.0044 0.6972 0.0000 (  2864 PWs)   bands (ev):

   -15.4712 -13.3661  -9.6222  -2.9997  -2.1206  -2.0047   8.3821   8.6110

          k =-0.0044 0.6992 0.0000 (  2864 PWs)   bands (ev):

   -15.4596 -13.3790  -9.6240  -2.9725  -2.1224  -2.0323   8.4211   8.6310

          k =-0.0044 0.7012 0.0000 (  2866 PWs)   bands (ev):

   -15.4485 -13.3914  -9.6257  -2.9453  -2.1241  -2.0600   8.4600   8.6502

          k =-0.0044 0.7032 0.0000 (  2868 PWs)   bands (ev):

   -15.4379 -13.4032  -9.6273  -2.9181  -2.1257  -2.0875   8.4989   8.6685

          k =-0.0044 0.7052 0.0000 (  2868 PWs)   bands (ev):

   -15.4279 -13.4143  -9.6287  -2.8910  -2.1272  -2.1151   8.5376   8.6858

          k =-0.0044 0.7072 0.0000 (  2870 PWs)   bands (ev):

   -15.4185 -13.4247  -9.6301  -2.8638  -2.1427  -2.1286   8.5762   8.7022

          k =-0.0044 0.7092 0.0000 (  2870 PWs)   bands (ev):

   -15.4097 -13.4344  -9.6314  -2.8366  -2.1702  -2.1298   8.6146   8.7175

          k =-0.0044 0.7112 0.0000 (  2868 PWs)   bands (ev):

   -15.4016 -13.4435  -9.6326  -2.8094  -2.1976  -2.1310   8.6527   8.7318

          k =-0.0044 0.7132 0.0000 (  2870 PWs)   bands (ev):

   -15.3940 -13.4518  -9.6337  -2.7823  -2.2251  -2.1321   8.6904   8.7450

          k =-0.0044 0.7152 0.0000 (  2870 PWs)   bands (ev):

   -15.3872 -13.4594  -9.6346  -2.7552  -2.2524  -2.1330   8.7277   8.7571

          k =-0.0044 0.7172 0.0000 (  2870 PWs)   bands (ev):

   -15.3810 -13.4663  -9.6355  -2.7281  -2.2796  -2.1339   8.7643   8.7680

          k =-0.0044 0.7192 0.0000 (  2870 PWs)   bands (ev):

   -15.3755 -13.4724  -9.6363  -2.7012  -2.3068  -2.1347   8.7777   8.8001

          k =-0.0044 0.7212 0.0000 (  2870 PWs)   bands (ev):

   -15.3707 -13.4777  -9.6369  -2.6744  -2.3337  -2.1353   8.7862   8.8347

          k =-0.0044 0.7232 0.0000 (  2870 PWs)   bands (ev):

   -15.3666 -13.4822  -9.6375  -2.6478  -2.3604  -2.1359   8.7934   8.8676

          k =-0.0044 0.7252 0.0000 (  2870 PWs)   bands (ev):

   -15.3632 -13.4859  -9.6380  -2.6217  -2.3867  -2.1364   8.7993   8.8981

          k =-0.0044 0.7272 0.0000 (  2870 PWs)   bands (ev):

   -15.3606 -13.4887  -9.6383  -2.5963  -2.4121  -2.1367   8.8040   8.9250

          k =-0.0044 0.7292 0.0000 (  2870 PWs)   bands (ev):

   -15.3587 -13.4908  -9.6386  -2.5727  -2.4358  -2.1370   8.8073   8.9467

          k =-0.0044 0.7312 0.0000 (  2870 PWs)   bands (ev):

   -15.3576 -13.4921  -9.6387  -2.5533  -2.4552  -2.1371   8.8093   8.9612

          k =-0.0044 0.7332 0.0000 (  2870 PWs)   bands (ev):

   -15.3572 -13.4925  -9.6388  -2.5448  -2.4637  -2.1372   8.8100   8.9663

          k =-0.0044 0.7352 0.0000 (  2870 PWs)   bands (ev):

   -15.3576 -13.4921  -9.6387  -2.5533  -2.4552  -2.1371   8.8093   8.9612

          k =-0.0044 0.7372 0.0000 (  2870 PWs)   bands (ev):

   -15.3587 -13.4908  -9.6386  -2.5727  -2.4358  -2.1370   8.8073   8.9467

          k =-0.0044 0.7392 0.0000 (  2870 PWs)   bands (ev):

   -15.3606 -13.4887  -9.6383  -2.5963  -2.4121  -2.1367   8.8040   8.9250

          k =-0.0044 0.7412 0.0000 (  2870 PWs)   bands (ev):

   -15.3632 -13.4859  -9.6380  -2.6217  -2.3867  -2.1364   8.7993   8.8981

          k =-0.0044 0.7432 0.0000 (  2870 PWs)   bands (ev):

   -15.3666 -13.4822  -9.6375  -2.6478  -2.3604  -2.1359   8.7934   8.8676

          k =-0.0044 0.7452 0.0000 (  2870 PWs)   bands (ev):

   -15.3707 -13.4777  -9.6369  -2.6744  -2.3337  -2.1353   8.7862   8.8347

          k =-0.0044 0.7472 0.0000 (  2870 PWs)   bands (ev):

   -15.3755 -13.4724  -9.6363  -2.7012  -2.3068  -2.1347   8.7777   8.8001

          k =-0.0044 0.7492 0.0000 (  2870 PWs)   bands (ev):

   -15.3810 -13.4663  -9.6355  -2.7281  -2.2796  -2.1339   8.7643   8.7680

          k =-0.0044 0.7512 0.0000 (  2870 PWs)   bands (ev):

   -15.3872 -13.4594  -9.6346  -2.7552  -2.2524  -2.1330   8.7277   8.7571

          k =-0.0044 0.7532 0.0000 (  2870 PWs)   bands (ev):

   -15.3940 -13.4518  -9.6337  -2.7823  -2.2251  -2.1321   8.6904   8.7450

          k =-0.0044 0.7552 0.0000 (  2868 PWs)   bands (ev):

   -15.4016 -13.4435  -9.6326  -2.8094  -2.1976  -2.1310   8.6527   8.7318

          k =-0.0044 0.7572 0.0000 (  2870 PWs)   bands (ev):

   -15.4097 -13.4344  -9.6314  -2.8366  -2.1702  -2.1298   8.6146   8.7175

          k =-0.0044 0.7592 0.0000 (  2870 PWs)   bands (ev):

   -15.4185 -13.4247  -9.6301  -2.8638  -2.1427  -2.1286   8.5762   8.7022

          k =-0.0044 0.7612 0.0000 (  2868 PWs)   bands (ev):

   -15.4279 -13.4143  -9.6287  -2.8910  -2.1272  -2.1151   8.5376   8.6858

          k =-0.0044 0.7632 0.0000 (  2868 PWs)   bands (ev):

   -15.4379 -13.4032  -9.6273  -2.9181  -2.1257  -2.0875   8.4989   8.6685

          k =-0.0044 0.7652 0.0000 (  2866 PWs)   bands (ev):

   -15.4485 -13.3914  -9.6257  -2.9453  -2.1241  -2.0600   8.4600   8.6502

          k =-0.0044 0.7672 0.0000 (  2864 PWs)   bands (ev):

   -15.4596 -13.3790  -9.6240  -2.9725  -2.1224  -2.0323   8.4211   8.6310

          k =-0.0044 0.7692 0.0000 (  2864 PWs)   bands (ev):

   -15.4712 -13.3661  -9.6222  -2.9997  -2.1206  -2.0047   8.3821   8.6110

          k =-0.0044 0.7712 0.0000 (  2863 PWs)   bands (ev):

   -15.4833 -13.3525  -9.6203  -3.0269  -2.1188  -1.9771   8.3430   8.5901

          k =-0.0044 0.7732 0.0000 (  2866 PWs)   bands (ev):

   -15.4960 -13.3384  -9.6183  -3.0540  -2.1168  -1.9494   8.3039   8.5685

          k =-0.0024 0.6932 0.0000 (  2866 PWs)   bands (ev):

   -15.4960 -13.3385  -9.6177  -3.0540  -2.1177  -1.9494   8.3037   8.5687

          k =-0.0024 0.6952 0.0000 (  2866 PWs)   bands (ev):

   -15.4833 -13.3526  -9.6197  -3.0269  -2.1197  -1.9770   8.3428   8.5904

          k =-0.0024 0.6972 0.0000 (  2864 PWs)   bands (ev):

   -15.4712 -13.3662  -9.6216  -2.9997  -2.1216  -2.0047   8.3819   8.6112

          k =-0.0024 0.6992 0.0000 (  2864 PWs)   bands (ev):

   -15.4596 -13.3792  -9.6234  -2.9725  -2.1234  -2.0323   8.4209   8.6313

          k =-0.0024 0.7012 0.0000 (  2866 PWs)   bands (ev):

   -15.4485 -13.3915  -9.6251  -2.9453  -2.1251  -2.0599   8.4599   8.6505

          k =-0.0024 0.7032 0.0000 (  2868 PWs)   bands (ev):

   -15.4379 -13.4033  -9.6267  -2.9181  -2.1266  -2.0875   8.4987   8.6688

          k =-0.0024 0.7052 0.0000 (  2870 PWs)   bands (ev):

   -15.4279 -13.4144  -9.6282  -2.8909  -2.1281  -2.1151   8.5375   8.6861

          k =-0.0024 0.7072 0.0000 (  2868 PWs)   bands (ev):

   -15.4185 -13.4248  -9.6296  -2.8637  -2.1426  -2.1295   8.5760   8.7025

          k =-0.0024 0.7092 0.0000 (  2868 PWs)   bands (ev):

   -15.4097 -13.4346  -9.6308  -2.8365  -2.1701  -2.1308   8.6144   8.7179

          k =-0.0024 0.7112 0.0000 (  2868 PWs)   bands (ev):

   -15.4015 -13.4436  -9.6320  -2.8094  -2.1976  -2.1319   8.6525   8.7322

          k =-0.0024 0.7132 0.0000 (  2870 PWs)   bands (ev):

   -15.3940 -13.4520  -9.6331  -2.7822  -2.2250  -2.1330   8.6903   8.7454

          k =-0.0024 0.7152 0.0000 (  2870 PWs)   bands (ev):

   -15.3871 -13.4596  -9.6341  -2.7551  -2.2524  -2.1340   8.7275   8.7575

          k =-0.0024 0.7172 0.0000 (  2870 PWs)   bands (ev):

   -15.3809 -13.4664  -9.6349  -2.7281  -2.2796  -2.1349   8.7641   8.7685

          k =-0.0024 0.7192 0.0000 (  2870 PWs)   bands (ev):

   -15.3754 -13.4725  -9.6357  -2.7011  -2.3068  -2.1356   8.7781   8.7999

          k =-0.0024 0.7212 0.0000 (  2870 PWs)   bands (ev):

   -15.3706 -13.4778  -9.6364  -2.6743  -2.3337  -2.1363   8.7866   8.8345

          k =-0.0024 0.7232 0.0000 (  2870 PWs)   bands (ev):

   -15.3665 -13.4823  -9.6369  -2.6477  -2.3604  -2.1368   8.7938   8.8674

          k =-0.0024 0.7252 0.0000 (  2870 PWs)   bands (ev):

   -15.3632 -13.4860  -9.6374  -2.6216  -2.3867  -2.1373   8.7998   8.8979

          k =-0.0024 0.7272 0.0000 (  2870 PWs)   bands (ev):

   -15.3606 -13.4889  -9.6378  -2.5962  -2.4121  -2.1377   8.8044   8.9248

          k =-0.0024 0.7292 0.0000 (  2870 PWs)   bands (ev):

   -15.3587 -13.4910  -9.6380  -2.5726  -2.4359  -2.1379   8.8078   8.9466

          k =-0.0024 0.7312 0.0000 (  2870 PWs)   bands (ev):

   -15.3576 -13.4922  -9.6382  -2.5531  -2.4554  -2.1381   8.8098   8.9610

          k =-0.0024 0.7332 0.0000 (  2870 PWs)   bands (ev):

   -15.3572 -13.4926  -9.6382  -2.5446  -2.4639  -2.1381   8.8104   8.9661

          k =-0.0024 0.7352 0.0000 (  2870 PWs)   bands (ev):

   -15.3576 -13.4922  -9.6382  -2.5531  -2.4553  -2.1381   8.8098   8.9610

          k =-0.0024 0.7372 0.0000 (  2870 PWs)   bands (ev):

   -15.3587 -13.4910  -9.6380  -2.5726  -2.4359  -2.1379   8.8078   8.9466

          k =-0.0024 0.7392 0.0000 (  2870 PWs)   bands (ev):

   -15.3606 -13.4889  -9.6378  -2.5962  -2.4121  -2.1377   8.8044   8.9248

          k =-0.0024 0.7412 0.0000 (  2870 PWs)   bands (ev):

   -15.3632 -13.4860  -9.6374  -2.6216  -2.3867  -2.1373   8.7998   8.8979

          k =-0.0024 0.7432 0.0000 (  2870 PWs)   bands (ev):

   -15.3665 -13.4823  -9.6369  -2.6477  -2.3604  -2.1368   8.7938   8.8674

          k =-0.0024 0.7452 0.0000 (  2870 PWs)   bands (ev):

   -15.3706 -13.4778  -9.6364  -2.6743  -2.3337  -2.1363   8.7866   8.8345

          k =-0.0024 0.7472 0.0000 (  2870 PWs)   bands (ev):

   -15.3754 -13.4725  -9.6357  -2.7011  -2.3068  -2.1356   8.7781   8.7999

          k =-0.0024 0.7492 0.0000 (  2870 PWs)   bands (ev):

   -15.3809 -13.4664  -9.6349  -2.7281  -2.2796  -2.1349   8.7641   8.7685

          k =-0.0024 0.7512 0.0000 (  2870 PWs)   bands (ev):

   -15.3871 -13.4596  -9.6341  -2.7551  -2.2524  -2.1340   8.7275   8.7575

          k =-0.0024 0.7532 0.0000 (  2870 PWs)   bands (ev):

   -15.3940 -13.4520  -9.6331  -2.7822  -2.2250  -2.1330   8.6903   8.7454

          k =-0.0024 0.7552 0.0000 (  2868 PWs)   bands (ev):

   -15.4015 -13.4436  -9.6320  -2.8094  -2.1976  -2.1319   8.6525   8.7322

          k =-0.0024 0.7572 0.0000 (  2868 PWs)   bands (ev):

   -15.4097 -13.4346  -9.6308  -2.8365  -2.1701  -2.1308   8.6144   8.7179

          k =-0.0024 0.7592 0.0000 (  2868 PWs)   bands (ev):

   -15.4185 -13.4248  -9.6296  -2.8637  -2.1426  -2.1295   8.5760   8.7025

          k =-0.0024 0.7612 0.0000 (  2870 PWs)   bands (ev):

   -15.4279 -13.4144  -9.6282  -2.8909  -2.1281  -2.1151   8.5375   8.6861

          k =-0.0024 0.7632 0.0000 (  2868 PWs)   bands (ev):

   -15.4379 -13.4033  -9.6267  -2.9181  -2.1266  -2.0875   8.4987   8.6688

          k =-0.0024 0.7652 0.0000 (  2866 PWs)   bands (ev):

   -15.4485 -13.3915  -9.6251  -2.9453  -2.1251  -2.0599   8.4599   8.6505

          k =-0.0024 0.7672 0.0000 (  2864 PWs)   bands (ev):

   -15.4596 -13.3792  -9.6234  -2.9725  -2.1234  -2.0323   8.4209   8.6313

          k =-0.0024 0.7692 0.0000 (  2864 PWs)   bands (ev):

   -15.4712 -13.3662  -9.6216  -2.9997  -2.1216  -2.0047   8.3819   8.6112

          k =-0.0024 0.7712 0.0000 (  2866 PWs)   bands (ev):

   -15.4833 -13.3526  -9.6197  -3.0269  -2.1197  -1.9770   8.3428   8.5904

          k =-0.0024 0.7732 0.0000 (  2866 PWs)   bands (ev):

   -15.4960 -13.3385  -9.6177  -3.0540  -2.1177  -1.9494   8.3037   8.5687

          k =-0.0004 0.6932 0.0000 (  2866 PWs)   bands (ev):

   -15.4960 -13.3386  -9.6175  -3.0540  -2.1181  -1.9494   8.3036   8.5688

          k =-0.0004 0.6952 0.0000 (  2866 PWs)   bands (ev):

   -15.4833 -13.3527  -9.6195  -3.0269  -2.1201  -1.9770   8.3427   8.5905

          k =-0.0004 0.6972 0.0000 (  2864 PWs)   bands (ev):

   -15.4712 -13.3662  -9.6214  -2.9997  -2.1220  -2.0046   8.3818   8.6113

          k =-0.0004 0.6992 0.0000 (  2864 PWs)   bands (ev):

   -15.4596 -13.3792  -9.6232  -2.9725  -2.1237  -2.0323   8.4208   8.6314

          k =-0.0004 0.7012 0.0000 (  2870 PWs)   bands (ev):

   -15.4485 -13.3916  -9.6249  -2.9453  -2.1254  -2.0599   8.4598   8.6506

          k =-0.0004 0.7032 0.0000 (  2870 PWs)   bands (ev):

   -15.4379 -13.4034  -9.6265  -2.9181  -2.1270  -2.0875   8.4986   8.6689

          k =-0.0004 0.7052 0.0000 (  2868 PWs)   bands (ev):

   -15.4279 -13.4144  -9.6280  -2.8909  -2.1285  -2.1151   8.5374   8.6863

          k =-0.0004 0.7072 0.0000 (  2868 PWs)   bands (ev):

   -15.4185 -13.4249  -9.6293  -2.8637  -2.1426  -2.1299   8.5760   8.7027

          k =-0.0004 0.7092 0.0000 (  2868 PWs)   bands (ev):

   -15.4097 -13.4346  -9.6306  -2.8365  -2.1701  -2.1312   8.6143   8.7180

          k =-0.0004 0.7112 0.0000 (  2868 PWs)   bands (ev):

   -15.4015 -13.4437  -9.6318  -2.8094  -2.1976  -2.1323   8.6524   8.7324

          k =-0.0004 0.7132 0.0000 (  2870 PWs)   bands (ev):

   -15.3940 -13.4520  -9.6329  -2.7822  -2.2250  -2.1334   8.6902   8.7456

          k =-0.0004 0.7152 0.0000 (  2870 PWs)   bands (ev):

   -15.3871 -13.4596  -9.6338  -2.7551  -2.2524  -2.1344   8.7275   8.7577

          k =-0.0004 0.7172 0.0000 (  2870 PWs)   bands (ev):

   -15.3809 -13.4665  -9.6347  -2.7280  -2.2796  -2.1352   8.7641   8.7686

          k =-0.0004 0.7192 0.0000 (  2870 PWs)   bands (ev):

   -15.3754 -13.4726  -9.6355  -2.7011  -2.3068  -2.1360   8.7783   8.7999

          k =-0.0004 0.7212 0.0000 (  2870 PWs)   bands (ev):

   -15.3706 -13.4779  -9.6361  -2.6743  -2.3338  -2.1367   8.7868   8.8345

          k =-0.0004 0.7232 0.0000 (  2870 PWs)   bands (ev):

   -15.3665 -13.4824  -9.6367  -2.6477  -2.3605  -2.1372   8.7940   8.8674

          k =-0.0004 0.7252 0.0000 (  2870 PWs)   bands (ev):

   -15.3632 -13.4861  -9.6372  -2.6216  -2.3867  -2.1377   8.8000   8.8978

          k =-0.0004 0.7272 0.0000 (  2870 PWs)   bands (ev):

   -15.3605 -13.4890  -9.6375  -2.5962  -2.4122  -2.1380   8.8046   8.9248

          k =-0.0004 0.7292 0.0000 (  2870 PWs)   bands (ev):

   -15.3587 -13.4910  -9.6378  -2.5725  -2.4359  -2.1383   8.8079   8.9465

          k =-0.0004 0.7312 0.0000 (  2870 PWs)   bands (ev):

   -15.3575 -13.4923  -9.6379  -2.5531  -2.4554  -2.1384   8.8100   8.9609

          k =-0.0004 0.7332 0.0000 (  2870 PWs)   bands (ev):

   -15.3572 -13.4927  -9.6380  -2.5445  -2.4639  -2.1385   8.8106   8.9660

          k =-0.0004 0.7352 0.0000 (  2870 PWs)   bands (ev):

   -15.3575 -13.4923  -9.6379  -2.5531  -2.4554  -2.1384   8.8100   8.9609

          k =-0.0004 0.7372 0.0000 (  2870 PWs)   bands (ev):

   -15.3587 -13.4910  -9.6378  -2.5725  -2.4359  -2.1383   8.8079   8.9465

          k =-0.0004 0.7392 0.0000 (  2870 PWs)   bands (ev):

   -15.3605 -13.4890  -9.6375  -2.5962  -2.4122  -2.1380   8.8046   8.9248

          k =-0.0004 0.7412 0.0000 (  2870 PWs)   bands (ev):

   -15.3632 -13.4861  -9.6372  -2.6216  -2.3867  -2.1377   8.8000   8.8978

          k =-0.0004 0.7432 0.0000 (  2870 PWs)   bands (ev):

   -15.3665 -13.4824  -9.6367  -2.6477  -2.3605  -2.1372   8.7940   8.8674

          k =-0.0004 0.7452 0.0000 (  2870 PWs)   bands (ev):

   -15.3706 -13.4779  -9.6361  -2.6743  -2.3338  -2.1367   8.7868   8.8345

          k =-0.0004 0.7472 0.0000 (  2870 PWs)   bands (ev):

   -15.3754 -13.4726  -9.6355  -2.7011  -2.3068  -2.1360   8.7783   8.7999

          k =-0.0004 0.7492 0.0000 (  2870 PWs)   bands (ev):

   -15.3809 -13.4665  -9.6347  -2.7281  -2.2796  -2.1352   8.7641   8.7686

          k =-0.0004 0.7512 0.0000 (  2870 PWs)   bands (ev):

   -15.3871 -13.4596  -9.6338  -2.7551  -2.2524  -2.1344   8.7275   8.7577

          k =-0.0004 0.7532 0.0000 (  2870 PWs)   bands (ev):

   -15.3940 -13.4520  -9.6329  -2.7822  -2.2250  -2.1334   8.6902   8.7456

          k =-0.0004 0.7552 0.0000 (  2868 PWs)   bands (ev):

   -15.4015 -13.4437  -9.6318  -2.8094  -2.1976  -2.1323   8.6524   8.7324

          k =-0.0004 0.7572 0.0000 (  2868 PWs)   bands (ev):

   -15.4097 -13.4346  -9.6306  -2.8365  -2.1701  -2.1312   8.6143   8.7180

          k =-0.0004 0.7592 0.0000 (  2868 PWs)   bands (ev):

   -15.4185 -13.4249  -9.6293  -2.8637  -2.1426  -2.1299   8.5760   8.7027

          k =-0.0004 0.7612 0.0000 (  2868 PWs)   bands (ev):

   -15.4279 -13.4144  -9.6280  -2.8909  -2.1285  -2.1151   8.5374   8.6863

          k =-0.0004 0.7632 0.0000 (  2870 PWs)   bands (ev):

   -15.4379 -13.4034  -9.6265  -2.9181  -2.1270  -2.0875   8.4986   8.6689

          k =-0.0004 0.7652 0.0000 (  2870 PWs)   bands (ev):

   -15.4485 -13.3916  -9.6249  -2.9453  -2.1254  -2.0599   8.4598   8.6506

          k =-0.0004 0.7672 0.0000 (  2864 PWs)   bands (ev):

   -15.4596 -13.3792  -9.6232  -2.9725  -2.1237  -2.0323   8.4208   8.6314

          k =-0.0004 0.7692 0.0000 (  2864 PWs)   bands (ev):

   -15.4712 -13.3662  -9.6214  -2.9997  -2.1220  -2.0046   8.3818   8.6113

          k =-0.0004 0.7712 0.0000 (  2866 PWs)   bands (ev):

   -15.4833 -13.3527  -9.6195  -3.0269  -2.1201  -1.9770   8.3427   8.5905

          k =-0.0004 0.7732 0.0000 (  2866 PWs)   bands (ev):

   -15.4960 -13.3386  -9.6175  -3.0540  -2.1181  -1.9494   8.3036   8.5688

          k = 0.0016 0.6932 0.0000 (  2866 PWs)   bands (ev):

   -15.4960 -13.3386  -9.6176  -3.0540  -2.1179  -1.9494   8.3036   8.5688

          k = 0.0016 0.6952 0.0000 (  2866 PWs)   bands (ev):

   -15.4833 -13.3527  -9.6196  -3.0269  -2.1199  -1.9770   8.3428   8.5904

          k = 0.0016 0.6972 0.0000 (  2864 PWs)   bands (ev):

   -15.4712 -13.3662  -9.6215  -2.9997  -2.1218  -2.0046   8.3818   8.6113

          k = 0.0016 0.6992 0.0000 (  2864 PWs)   bands (ev):

   -15.4596 -13.3792  -9.6233  -2.9725  -2.1236  -2.0323   8.4209   8.6314

          k = 0.0016 0.7012 0.0000 (  2866 PWs)   bands (ev):

   -15.4485 -13.3916  -9.6250  -2.9453  -2.1253  -2.0599   8.4598   8.6506

          k = 0.0016 0.7032 0.0000 (  2870 PWs)   bands (ev):

   -15.4379 -13.4033  -9.6266  -2.9181  -2.1269  -2.0876   8.4987   8.6689

          k = 0.0016 0.7052 0.0000 (  2870 PWs)   bands (ev):

   -15.4279 -13.4144  -9.6281  -2.8909  -2.1283  -2.1151   8.5374   8.6862

          k = 0.0016 0.7072 0.0000 (  2868 PWs)   bands (ev):

   -15.4185 -13.4249  -9.6294  -2.8637  -2.1426  -2.1297   8.5760   8.7026

          k = 0.0016 0.7092 0.0000 (  2868 PWs)   bands (ev):

   -15.4097 -13.4346  -9.6307  -2.8365  -2.1701  -2.1310   8.6144   8.7180

          k = 0.0016 0.7112 0.0000 (  2868 PWs)   bands (ev):

   -15.4015 -13.4437  -9.6319  -2.8094  -2.1976  -2.1322   8.6525   8.7323

          k = 0.0016 0.7132 0.0000 (  2870 PWs)   bands (ev):

   -15.3940 -13.4520  -9.6330  -2.7822  -2.2250  -2.1332   8.6902   8.7455

          k = 0.0016 0.7152 0.0000 (  2870 PWs)   bands (ev):

   -15.3871 -13.4596  -9.6339  -2.7551  -2.2524  -2.1342   8.7275   8.7576

          k = 0.0016 0.7172 0.0000 (  2870 PWs)   bands (ev):

   -15.3809 -13.4665  -9.6348  -2.7281  -2.2796  -2.1351   8.7641   8.7685

          k = 0.0016 0.7192 0.0000 (  2870 PWs)   bands (ev):

   -15.3754 -13.4725  -9.6356  -2.7011  -2.3068  -2.1358   8.7782   8.7999

          k = 0.0016 0.7212 0.0000 (  2870 PWs)   bands (ev):

   -15.3706 -13.4778  -9.6362  -2.6743  -2.3338  -2.1365   8.7867   8.8345

          k = 0.0016 0.7232 0.0000 (  2870 PWs)   bands (ev):

   -15.3665 -13.4823  -9.6368  -2.6477  -2.3605  -2.1371   8.7939   8.8674

          k = 0.0016 0.7252 0.0000 (  2870 PWs)   bands (ev):

   -15.3632 -13.4860  -9.6373  -2.6216  -2.3867  -2.1375   8.7999   8.8979

          k = 0.0016 0.7272 0.0000 (  2870 PWs)   bands (ev):

   -15.3606 -13.4889  -9.6376  -2.5962  -2.4122  -2.1379   8.8045   8.9248

          k = 0.0016 0.7292 0.0000 (  2870 PWs)   bands (ev):

   -15.3587 -13.4910  -9.6379  -2.5725  -2.4359  -2.1381   8.8079   8.9465

          k = 0.0016 0.7312 0.0000 (  2870 PWs)   bands (ev):

   -15.3576 -13.4922  -9.6380  -2.5531  -2.4554  -2.1383   8.8099   8.9610

          k = 0.0016 0.7332 0.0000 (  2870 PWs)   bands (ev):

   -15.3572 -13.4926  -9.6381  -2.5446  -2.4639  -2.1383   8.8105   8.9661

          k = 0.0016 0.7352 0.0000 (  2870 PWs)   bands (ev):

   -15.3576 -13.4922  -9.6380  -2.5531  -2.4554  -2.1383   8.8099   8.9610

          k = 0.0016 0.7372 0.0000 (  2870 PWs)   bands (ev):

   -15.3587 -13.4910  -9.6379  -2.5725  -2.4359  -2.1381   8.8079   8.9465

          k = 0.0016 0.7392 0.0000 (  2870 PWs)   bands (ev):

   -15.3606 -13.4889  -9.6376  -2.5962  -2.4122  -2.1379   8.8045   8.9248

          k = 0.0016 0.7412 0.0000 (  2870 PWs)   bands (ev):

   -15.3632 -13.4860  -9.6373  -2.6216  -2.3867  -2.1375   8.7999   8.8979

          k = 0.0016 0.7432 0.0000 (  2870 PWs)   bands (ev):

   -15.3665 -13.4823  -9.6368  -2.6477  -2.3605  -2.1371   8.7939   8.8674

          k = 0.0016 0.7452 0.0000 (  2870 PWs)   bands (ev):

   -15.3706 -13.4778  -9.6362  -2.6743  -2.3337  -2.1365   8.7867   8.8345

          k = 0.0016 0.7472 0.0000 (  2870 PWs)   bands (ev):

   -15.3754 -13.4725  -9.6356  -2.7011  -2.3068  -2.1358   8.7782   8.7999

          k = 0.0016 0.7492 0.0000 (  2870 PWs)   bands (ev):

   -15.3809 -13.4665  -9.6348  -2.7281  -2.2796  -2.1351   8.7641   8.7685

          k = 0.0016 0.7512 0.0000 (  2870 PWs)   bands (ev):

   -15.3871 -13.4596  -9.6339  -2.7551  -2.2524  -2.1342   8.7275   8.7576

          k = 0.0016 0.7532 0.0000 (  2870 PWs)   bands (ev):

   -15.3940 -13.4520  -9.6330  -2.7822  -2.2250  -2.1332   8.6902   8.7455

          k = 0.0016 0.7552 0.0000 (  2868 PWs)   bands (ev):

   -15.4015 -13.4437  -9.6319  -2.8094  -2.1976  -2.1322   8.6525   8.7323

          k = 0.0016 0.7572 0.0000 (  2868 PWs)   bands (ev):

   -15.4097 -13.4346  -9.6307  -2.8365  -2.1701  -2.1310   8.6144   8.7180

          k = 0.0016 0.7592 0.0000 (  2868 PWs)   bands (ev):

   -15.4185 -13.4249  -9.6294  -2.8637  -2.1426  -2.1297   8.5760   8.7026

          k = 0.0016 0.7612 0.0000 (  2870 PWs)   bands (ev):

   -15.4279 -13.4144  -9.6281  -2.8909  -2.1283  -2.1151   8.5374   8.6862

          k = 0.0016 0.7632 0.0000 (  2870 PWs)   bands (ev):

   -15.4379 -13.4033  -9.6266  -2.9181  -2.1269  -2.0876   8.4987   8.6689

          k = 0.0016 0.7652 0.0000 (  2866 PWs)   bands (ev):

   -15.4485 -13.3916  -9.6250  -2.9453  -2.1253  -2.0599   8.4598   8.6505

          k = 0.0016 0.7672 0.0000 (  2864 PWs)   bands (ev):

   -15.4596 -13.3792  -9.6233  -2.9725  -2.1236  -2.0323   8.4208   8.6313

          k = 0.0016 0.7692 0.0000 (  2864 PWs)   bands (ev):

   -15.4712 -13.3662  -9.6215  -2.9997  -2.1218  -2.0046   8.3818   8.6113

          k = 0.0016 0.7712 0.0000 (  2866 PWs)   bands (ev):

   -15.4833 -13.3527  -9.6196  -3.0269  -2.1199  -1.9770   8.3427   8.5904

          k = 0.0016 0.7732 0.0000 (  2866 PWs)   bands (ev):

   -15.4960 -13.3386  -9.6176  -3.0540  -2.1179  -1.9494   8.3036   8.5688

          k = 0.0036 0.6932 0.0000 (  2866 PWs)   bands (ev):

   -15.4960 -13.3385  -9.6180  -3.0540  -2.1172  -1.9494   8.3038   8.5686

          k = 0.0036 0.6952 0.0000 (  2865 PWs)   bands (ev):

   -15.4833 -13.3526  -9.6200  -3.0269  -2.1192  -1.9771   8.3429   8.5902

          k = 0.0036 0.6972 0.0000 (  2862 PWs)   bands (ev):

   -15.4712 -13.3661  -9.6219  -2.9997  -2.1211  -2.0047   8.3820   8.6111

          k = 0.0036 0.6992 0.0000 (  2864 PWs)   bands (ev):

   -15.4596 -13.3791  -9.6237  -2.9725  -2.1229  -2.0323   8.4210   8.6311

          k = 0.0036 0.7012 0.0000 (  2866 PWs)   bands (ev):

   -15.4485 -13.3915  -9.6254  -2.9453  -2.1245  -2.0599   8.4600   8.6503

          k = 0.0036 0.7032 0.0000 (  2868 PWs)   bands (ev):

   -15.4379 -13.4032  -9.6270  -2.9181  -2.1261  -2.0875   8.4988   8.6686

          k = 0.0036 0.7052 0.0000 (  2870 PWs)   bands (ev):

   -15.4279 -13.4143  -9.6285  -2.8909  -2.1276  -2.1151   8.5376   8.6860

          k = 0.0036 0.7072 0.0000 (  2870 PWs)   bands (ev):

   -15.4185 -13.4248  -9.6299  -2.8637  -2.1427  -2.1290   8.5761   8.7024

          k = 0.0036 0.7092 0.0000 (  2868 PWs)   bands (ev):

   -15.4097 -13.4345  -9.6311  -2.8366  -2.1702  -2.1303   8.6145   8.7177

          k = 0.0036 0.7112 0.0000 (  2868 PWs)   bands (ev):

   -15.4015 -13.4436  -9.6323  -2.8094  -2.1976  -2.1314   8.6526   8.7320

          k = 0.0036 0.7132 0.0000 (  2870 PWs)   bands (ev):

   -15.3940 -13.4519  -9.6334  -2.7822  -2.2250  -2.1325   8.6904   8.7452

          k = 0.0036 0.7152 0.0000 (  2870 PWs)   bands (ev):

   -15.3871 -13.4595  -9.6344  -2.7551  -2.2524  -2.1335   8.7276   8.7573

          k = 0.0036 0.7172 0.0000 (  2870 PWs)   bands (ev):

   -15.3809 -13.4663  -9.6352  -2.7281  -2.2796  -2.1343   8.7642   8.7682

          k = 0.0036 0.7192 0.0000 (  2870 PWs)   bands (ev):

   -15.3754 -13.4724  -9.6360  -2.7011  -2.3068  -2.1351   8.7779   8.8000

          k = 0.0036 0.7212 0.0000 (  2870 PWs)   bands (ev):

   -15.3706 -13.4777  -9.6367  -2.6743  -2.3337  -2.1358   8.7864   8.8346

          k = 0.0036 0.7232 0.0000 (  2870 PWs)   bands (ev):

   -15.3666 -13.4822  -9.6372  -2.6478  -2.3604  -2.1363   8.7936   8.8675

          k = 0.0036 0.7252 0.0000 (  2870 PWs)   bands (ev):

   -15.3632 -13.4859  -9.6377  -2.6216  -2.3867  -2.1368   8.7995   8.8980

          k = 0.0036 0.7272 0.0000 (  2870 PWs)   bands (ev):

   -15.3606 -13.4888  -9.6381  -2.5963  -2.4121  -2.1371   8.8042   8.9249

          k = 0.0036 0.7292 0.0000 (  2870 PWs)   bands (ev):

   -15.3587 -13.4909  -9.6383  -2.5726  -2.4358  -2.1374   8.8075   8.9466

          k = 0.0036 0.7312 0.0000 (  2870 PWs)   bands (ev):

   -15.3576 -13.4921  -9.6385  -2.5532  -2.4553  -2.1376   8.8095   8.9611

          k = 0.0036 0.7332 0.0000 (  2870 PWs)   bands (ev):

   -15.3572 -13.4925  -9.6385  -2.5447  -2.4638  -2.1376   8.8102   8.9662

          k = 0.0036 0.7352 0.0000 (  2870 PWs)   bands (ev):

   -15.3576 -13.4921  -9.6385  -2.5532  -2.4553  -2.1376   8.8095   8.9611

          k = 0.0036 0.7372 0.0000 (  2870 PWs)   bands (ev):

   -15.3587 -13.4909  -9.6383  -2.5727  -2.4358  -2.1374   8.8075   8.9466

          k = 0.0036 0.7392 0.0000 (  2870 PWs)   bands (ev):

   -15.3606 -13.4888  -9.6381  -2.5963  -2.4121  -2.1371   8.8042   8.9249

          k = 0.0036 0.7412 0.0000 (  2870 PWs)   bands (ev):

   -15.3632 -13.4859  -9.6377  -2.6216  -2.3867  -2.1368   8.7995   8.8980

          k = 0.0036 0.7432 0.0000 (  2870 PWs)   bands (ev):

   -15.3666 -13.4822  -9.6372  -2.6478  -2.3604  -2.1363   8.7936   8.8675

          k = 0.0036 0.7452 0.0000 (  2870 PWs)   bands (ev):

   -15.3706 -13.4777  -9.6367  -2.6743  -2.3337  -2.1358   8.7864   8.8346

          k = 0.0036 0.7472 0.0000 (  2870 PWs)   bands (ev):

   -15.3754 -13.4724  -9.6360  -2.7011  -2.3068  -2.1351   8.7779   8.8000

          k = 0.0036 0.7492 0.0000 (  2870 PWs)   bands (ev):

   -15.3809 -13.4663  -9.6352  -2.7281  -2.2796  -2.1343   8.7642   8.7682

          k = 0.0036 0.7512 0.0000 (  2870 PWs)   bands (ev):

   -15.3871 -13.4595  -9.6344  -2.7551  -2.2524  -2.1335   8.7276   8.7573

          k = 0.0036 0.7532 0.0000 (  2870 PWs)   bands (ev):

   -15.3940 -13.4519  -9.6334  -2.7822  -2.2250  -2.1325   8.6904   8.7452

          k = 0.0036 0.7552 0.0000 (  2868 PWs)   bands (ev):

   -15.4015 -13.4436  -9.6323  -2.8094  -2.1976  -2.1314   8.6526   8.7320

          k = 0.0036 0.7572 0.0000 (  2868 PWs)   bands (ev):

   -15.4097 -13.4345  -9.6311  -2.8366  -2.1702  -2.1303   8.6145   8.7177

          k = 0.0036 0.7592 0.0000 (  2870 PWs)   bands (ev):

   -15.4185 -13.4248  -9.6299  -2.8638  -2.1427  -2.1290   8.5761   8.7024

          k = 0.0036 0.7612 0.0000 (  2870 PWs)   bands (ev):

   -15.4279 -13.4143  -9.6285  -2.8909  -2.1276  -2.1151   8.5376   8.6860

          k = 0.0036 0.7632 0.0000 (  2868 PWs)   bands (ev):

   -15.4379 -13.4032  -9.6270  -2.9181  -2.1261  -2.0875   8.4988   8.6686

          k = 0.0036 0.7652 0.0000 (  2866 PWs)   bands (ev):

   -15.4485 -13.3915  -9.6254  -2.9453  -2.1245  -2.0599   8.4599   8.6503

          k = 0.0036 0.7672 0.0000 (  2864 PWs)   bands (ev):

   -15.4596 -13.3791  -9.6237  -2.9725  -2.1229  -2.0323   8.4210   8.6311

          k = 0.0036 0.7692 0.0000 (  2862 PWs)   bands (ev):

   -15.4712 -13.3661  -9.6219  -2.9997  -2.1211  -2.0047   8.3820   8.6111

          k = 0.0036 0.7712 0.0000 (  2865 PWs)   bands (ev):

   -15.4833 -13.3526  -9.6200  -3.0269  -2.1192  -1.9770   8.3429   8.5902

          k = 0.0036 0.7732 0.0000 (  2866 PWs)   bands (ev):

   -15.4960 -13.3385  -9.6180  -3.0540  -2.1172  -1.9494   8.3038   8.5686

          k = 0.0056 0.6932 0.0000 (  2860 PWs)   bands (ev):

   -15.4960 -13.3383  -9.6188  -3.0540  -2.1159  -1.9495   8.3040   8.5683

          k = 0.0056 0.6952 0.0000 (  2863 PWs)   bands (ev):

   -15.4834 -13.3524  -9.6208  -3.0269  -2.1179  -1.9771   8.3431   8.5899

          k = 0.0056 0.6972 0.0000 (  2864 PWs)   bands (ev):

   -15.4712 -13.3660  -9.6227  -2.9997  -2.1198  -2.0048   8.3822   8.6108

          k = 0.0056 0.6992 0.0000 (  2866 PWs)   bands (ev):

   -15.4596 -13.3789  -9.6245  -2.9725  -2.1216  -2.0324   8.4212   8.6308

          k = 0.0056 0.7012 0.0000 (  2866 PWs)   bands (ev):

   -15.4485 -13.3913  -9.6262  -2.9454  -2.1233  -2.0600   8.4602   8.6499

          k = 0.0056 0.7032 0.0000 (  2866 PWs)   bands (ev):

   -15.4379 -13.4030  -9.6278  -2.9182  -2.1248  -2.0876   8.4991   8.6682

          k = 0.0056 0.7052 0.0000 (  2868 PWs)   bands (ev):

   -15.4280 -13.4141  -9.6292  -2.8910  -2.1263  -2.1151   8.5378   8.6855

          k = 0.0056 0.7072 0.0000 (  2870 PWs)   bands (ev):

   -15.4186 -13.4246  -9.6306  -2.8638  -2.1427  -2.1277   8.5764   8.7019

          k = 0.0056 0.7092 0.0000 (  2870 PWs)   bands (ev):

   -15.4098 -13.4343  -9.6319  -2.8366  -2.1702  -2.1290   8.6148   8.7172

          k = 0.0056 0.7112 0.0000 (  2870 PWs)   bands (ev):

   -15.4016 -13.4434  -9.6331  -2.8094  -2.1976  -2.1302   8.6529   8.7315

          k = 0.0056 0.7132 0.0000 (  2870 PWs)   bands (ev):

   -15.3940 -13.4517  -9.6342  -2.7823  -2.2251  -2.1312   8.6906   8.7447

          k = 0.0056 0.7152 0.0000 (  2870 PWs)   bands (ev):

   -15.3872 -13.4593  -9.6351  -2.7552  -2.2524  -2.1322   8.7279   8.7568

          k = 0.0056 0.7172 0.0000 (  2870 PWs)   bands (ev):

   -15.3810 -13.4662  -9.6360  -2.7281  -2.2796  -2.1331   8.7645   8.7677

          k = 0.0056 0.7192 0.0000 (  2870 PWs)   bands (ev):

   -15.3755 -13.4722  -9.6368  -2.7012  -2.3068  -2.1338   8.7773   8.8003

          k = 0.0056 0.7212 0.0000 (  2870 PWs)   bands (ev):

   -15.3707 -13.4775  -9.6374  -2.6744  -2.3337  -2.1345   8.7858   8.8349

          k = 0.0056 0.7232 0.0000 (  2870 PWs)   bands (ev):

   -15.3666 -13.4820  -9.6380  -2.6479  -2.3604  -2.1351   8.7930   8.8678

          k = 0.0056 0.7252 0.0000 (  2870 PWs)   bands (ev):

   -15.3632 -13.4857  -9.6385  -2.6218  -2.3866  -2.1355   8.7989   8.8982

          k = 0.0056 0.7272 0.0000 (  2870 PWs)   bands (ev):

   -15.3606 -13.4886  -9.6388  -2.5964  -2.4120  -2.1359   8.8036   8.9251

          k = 0.0056 0.7292 0.0000 (  2870 PWs)   bands (ev):

   -15.3587 -13.4907  -9.6391  -2.5728  -2.4357  -2.1361   8.8069   8.9469

          k = 0.0056 0.7312 0.0000 (  2870 PWs)   bands (ev):

   -15.3576 -13.4919  -9.6392  -2.5535  -2.4551  -2.1363   8.8089   8.9613

          k = 0.0056 0.7332 0.0000 (  2870 PWs)   bands (ev):

   -15.3572 -13.4923  -9.6393  -2.5450  -2.4636  -2.1363   8.8096   8.9664

          k = 0.0056 0.7352 0.0000 (  2870 PWs)   bands (ev):

   -15.3576 -13.4919  -9.6392  -2.5535  -2.4551  -2.1363   8.8089   8.9613

          k = 0.0056 0.7372 0.0000 (  2870 PWs)   bands (ev):

   -15.3587 -13.4907  -9.6391  -2.5728  -2.4357  -2.1361   8.8069   8.9469

          k = 0.0056 0.7392 0.0000 (  2870 PWs)   bands (ev):

   -15.3606 -13.4886  -9.6388  -2.5964  -2.4120  -2.1359   8.8036   8.9251

          k = 0.0056 0.7412 0.0000 (  2870 PWs)   bands (ev):

   -15.3632 -13.4857  -9.6385  -2.6218  -2.3866  -2.1355   8.7989   8.8982

          k = 0.0056 0.7432 0.0000 (  2870 PWs)   bands (ev):

   -15.3666 -13.4820  -9.6380  -2.6479  -2.3604  -2.1351   8.7930   8.8678

          k = 0.0056 0.7452 0.0000 (  2870 PWs)   bands (ev):

   -15.3707 -13.4775  -9.6374  -2.6744  -2.3337  -2.1345   8.7858   8.8349

          k = 0.0056 0.7472 0.0000 (  2870 PWs)   bands (ev):

   -15.3755 -13.4722  -9.6368  -2.7012  -2.3068  -2.1338   8.7773   8.8003

          k = 0.0056 0.7492 0.0000 (  2870 PWs)   bands (ev):

   -15.3810 -13.4662  -9.6360  -2.7282  -2.2796  -2.1331   8.7644   8.7677

          k = 0.0056 0.7512 0.0000 (  2870 PWs)   bands (ev):

   -15.3872 -13.4593  -9.6351  -2.7552  -2.2524  -2.1322   8.7279   8.7568

          k = 0.0056 0.7532 0.0000 (  2870 PWs)   bands (ev):

   -15.3941 -13.4517  -9.6342  -2.7823  -2.2251  -2.1312   8.6906   8.7447

          k = 0.0056 0.7552 0.0000 (  2870 PWs)   bands (ev):

   -15.4016 -13.4434  -9.6331  -2.8094  -2.1976  -2.1302   8.6529   8.7315

          k = 0.0056 0.7572 0.0000 (  2870 PWs)   bands (ev):

   -15.4098 -13.4343  -9.6319  -2.8366  -2.1702  -2.1290   8.6148   8.7172

          k = 0.0056 0.7592 0.0000 (  2868 PWs)   bands (ev):

   -15.4185 -13.4246  -9.6306  -2.8638  -2.1426  -2.1277   8.5764   8.7019

          k = 0.0056 0.7612 0.0000 (  2868 PWs)   bands (ev):

   -15.4280 -13.4141  -9.6292  -2.8910  -2.1263  -2.1151   8.5378   8.6855

          k = 0.0056 0.7632 0.0000 (  2866 PWs)   bands (ev):

   -15.4379 -13.4030  -9.6278  -2.9182  -2.1248  -2.0876   8.4991   8.6682

          k = 0.0056 0.7652 0.0000 (  2866 PWs)   bands (ev):

   -15.4485 -13.3913  -9.6262  -2.9454  -2.1233  -2.0600   8.4602   8.6499

          k = 0.0056 0.7672 0.0000 (  2866 PWs)   bands (ev):

   -15.4596 -13.3789  -9.6245  -2.9725  -2.1216  -2.0324   8.4212   8.6308

          k = 0.0056 0.7692 0.0000 (  2864 PWs)   bands (ev):

   -15.4712 -13.3660  -9.6227  -2.9997  -2.1198  -2.0048   8.3822   8.6108

          k = 0.0056 0.7712 0.0000 (  2863 PWs)   bands (ev):

   -15.4834 -13.3524  -9.6208  -3.0269  -2.1179  -1.9771   8.3431   8.5899

          k = 0.0056 0.7732 0.0000 (  2860 PWs)   bands (ev):

   -15.4960 -13.3383  -9.6188  -3.0540  -2.1159  -1.9495   8.3040   8.5683

          k = 0.0076 0.6932 0.0000 (  2860 PWs)   bands (ev):

   -15.4960 -13.3381  -9.6198  -3.0540  -2.1141  -1.9495   8.3044   8.5679

          k = 0.0076 0.6952 0.0000 (  2859 PWs)   bands (ev):

   -15.4834 -13.3522  -9.6218  -3.0269  -2.1161  -1.9772   8.3435   8.5895

          k = 0.0076 0.6972 0.0000 (  2862 PWs)   bands (ev):

   -15.4712 -13.3657  -9.6237  -2.9997  -2.1180  -2.0048   8.3826   8.6103

          k = 0.0076 0.6992 0.0000 (  2866 PWs)   bands (ev):

   -15.4596 -13.3787  -9.6255  -2.9726  -2.1198  -2.0325   8.4216   8.6302

          k = 0.0076 0.7012 0.0000 (  2866 PWs)   bands (ev):

   -15.4485 -13.3911  -9.6272  -2.9454  -2.1214  -2.0600   8.4606   8.6494

          k = 0.0076 0.7032 0.0000 (  2866 PWs)   bands (ev):

   -15.4380 -13.4028  -9.6288  -2.9182  -2.1230  -2.0876   8.4994   8.6676

          k = 0.0076 0.7052 0.0000 (  2868 PWs)   bands (ev):

   -15.4280 -13.4139  -9.6303  -2.8910  -2.1245  -2.1152   8.5382   8.6849

          k = 0.0076 0.7072 0.0000 (  2868 PWs)   bands (ev):

   -15.4186 -13.4243  -9.6317  -2.8638  -2.1427  -2.1259   8.5767   8.7012

          k = 0.0076 0.7092 0.0000 (  2868 PWs)   bands (ev):

   -15.4098 -13.4341  -9.6330  -2.8366  -2.1702  -2.1272   8.6151   8.7165

          k = 0.0076 0.7112 0.0000 (  2870 PWs)   bands (ev):

   -15.4016 -13.4431  -9.6342  -2.8095  -2.1977  -2.1283   8.6532   8.7308

          k = 0.0076 0.7132 0.0000 (  2872 PWs)   bands (ev):

   -15.3941 -13.4515  -9.6352  -2.7824  -2.2251  -2.1294   8.6909   8.7440

          k = 0.0076 0.7152 0.0000 (  2872 PWs)   bands (ev):

   -15.3872 -13.4590  -9.6362  -2.7553  -2.2524  -2.1304   8.7282   8.7560

          k = 0.0076 0.7172 0.0000 (  2870 PWs)   bands (ev):

   -15.3810 -13.4659  -9.6371  -2.7282  -2.2796  -2.1312   8.7648   8.7669

          k = 0.0076 0.7192 0.0000 (  2870 PWs)   bands (ev):

   -15.3755 -13.4720  -9.6379  -2.7013  -2.3068  -2.1320   8.7765   8.8006

          k = 0.0076 0.7212 0.0000 (  2870 PWs)   bands (ev):

   -15.3707 -13.4772  -9.6385  -2.6745  -2.3337  -2.1327   8.7850   8.8352

          k = 0.0076 0.7232 0.0000 (  2870 PWs)   bands (ev):

   -15.3667 -13.4817  -9.6391  -2.6480  -2.3604  -2.1332   8.7922   8.8681

          k = 0.0076 0.7252 0.0000 (  2870 PWs)   bands (ev):

   -15.3633 -13.4854  -9.6395  -2.6219  -2.3866  -2.1337   8.7981   8.8986

          k = 0.0076 0.7272 0.0000 (  2870 PWs)   bands (ev):

   -15.3607 -13.4883  -9.6399  -2.5966  -2.4119  -2.1340   8.8027   8.9255

          k = 0.0076 0.7292 0.0000 (  2870 PWs)   bands (ev):

   -15.3588 -13.4904  -9.6402  -2.5731  -2.4355  -2.1343   8.8060   8.9472

          k = 0.0076 0.7312 0.0000 (  2870 PWs)   bands (ev):

   -15.3577 -13.4916  -9.6403  -2.5538  -2.4548  -2.1344   8.8080   8.9616

          k = 0.0076 0.7332 0.0000 (  2870 PWs)   bands (ev):

   -15.3573 -13.4920  -9.6404  -2.5454  -2.4632  -2.1345   8.8087   8.9667

          k = 0.0076 0.7352 0.0000 (  2870 PWs)   bands (ev):

   -15.3577 -13.4916  -9.6403  -2.5538  -2.4548  -2.1344   8.8080   8.9616

          k = 0.0076 0.7372 0.0000 (  2870 PWs)   bands (ev):

   -15.3588 -13.4904  -9.6402  -2.5731  -2.4355  -2.1343   8.8060   8.9472

          k = 0.0076 0.7392 0.0000 (  2870 PWs)   bands (ev):

   -15.3607 -13.4883  -9.6399  -2.5966  -2.4119  -2.1340   8.8027   8.9255

          k = 0.0076 0.7412 0.0000 (  2870 PWs)   bands (ev):

   -15.3633 -13.4854  -9.6395  -2.6219  -2.3866  -2.1337   8.7981   8.8986

          k = 0.0076 0.7432 0.0000 (  2870 PWs)   bands (ev):

   -15.3667 -13.4817  -9.6391  -2.6480  -2.3603  -2.1332   8.7922   8.8681

          k = 0.0076 0.7452 0.0000 (  2870 PWs)   bands (ev):

   -15.3707 -13.4772  -9.6385  -2.6745  -2.3337  -2.1327   8.7850   8.8352

          k = 0.0076 0.7472 0.0000 (  2870 PWs)   bands (ev):

   -15.3755 -13.4720  -9.6379  -2.7013  -2.3068  -2.1320   8.7765   8.8006

          k = 0.0076 0.7492 0.0000 (  2870 PWs)   bands (ev):

   -15.3810 -13.4659  -9.6371  -2.7282  -2.2796  -2.1312   8.7648   8.7669

          k = 0.0076 0.7512 0.0000 (  2872 PWs)   bands (ev):

   -15.3872 -13.4590  -9.6362  -2.7553  -2.2524  -2.1304   8.7282   8.7560

          k = 0.0076 0.7532 0.0000 (  2872 PWs)   bands (ev):

   -15.3941 -13.4514  -9.6352  -2.7824  -2.2251  -2.1294   8.6909   8.7440

          k = 0.0076 0.7552 0.0000 (  2870 PWs)   bands (ev):

   -15.4016 -13.4431  -9.6342  -2.8095  -2.1977  -2.1283   8.6532   8.7308

          k = 0.0076 0.7572 0.0000 (  2868 PWs)   bands (ev):

   -15.4098 -13.4341  -9.6330  -2.8367  -2.1702  -2.1272   8.6151   8.7165

          k = 0.0076 0.7592 0.0000 (  2868 PWs)   bands (ev):

   -15.4186 -13.4243  -9.6317  -2.8638  -2.1427  -2.1259   8.5767   8.7012

          k = 0.0076 0.7612 0.0000 (  2868 PWs)   bands (ev):

   -15.4280 -13.4139  -9.6303  -2.8910  -2.1245  -2.1152   8.5382   8.6849

          k = 0.0076 0.7632 0.0000 (  2866 PWs)   bands (ev):

   -15.4380 -13.4028  -9.6288  -2.9182  -2.1230  -2.0876   8.4994   8.6676

          k = 0.0076 0.7652 0.0000 (  2866 PWs)   bands (ev):

   -15.4485 -13.3911  -9.6272  -2.9454  -2.1214  -2.0600   8.4606   8.6494

          k = 0.0076 0.7672 0.0000 (  2866 PWs)   bands (ev):

   -15.4596 -13.3787  -9.6255  -2.9726  -2.1198  -2.0325   8.4216   8.6302

          k = 0.0076 0.7692 0.0000 (  2862 PWs)   bands (ev):

   -15.4712 -13.3657  -9.6237  -2.9997  -2.1180  -2.0048   8.3826   8.6103

          k = 0.0076 0.7712 0.0000 (  2859 PWs)   bands (ev):

   -15.4834 -13.3522  -9.6218  -3.0269  -2.1161  -1.9772   8.3435   8.5895

          k = 0.0076 0.7732 0.0000 (  2860 PWs)   bands (ev):

   -15.4960 -13.3381  -9.6198  -3.0540  -2.1141  -1.9495   8.3044   8.5679

          k = 0.0096 0.6932 0.0000 (  2862 PWs)   bands (ev):

   -15.4960 -13.3378  -9.6212  -3.0540  -2.1118  -1.9497   8.3049   8.5673

          k = 0.0096 0.6952 0.0000 (  2859 PWs)   bands (ev):

   -15.4834 -13.3519  -9.6232  -3.0269  -2.1137  -1.9773   8.3440   8.5889

          k = 0.0096 0.6972 0.0000 (  2859 PWs)   bands (ev):

   -15.4713 -13.3654  -9.6251  -2.9997  -2.1156  -2.0049   8.3831   8.6096

          k = 0.0096 0.6992 0.0000 (  2862 PWs)   bands (ev):

   -15.4597 -13.3784  -9.6269  -2.9726  -2.1174  -2.0325   8.4221   8.6296

          k = 0.0096 0.7012 0.0000 (  2864 PWs)   bands (ev):

   -15.4486 -13.3907  -9.6286  -2.9454  -2.1191  -2.0601   8.4610   8.6487

          k = 0.0096 0.7032 0.0000 (  2866 PWs)   bands (ev):

   -15.4380 -13.4025  -9.6302  -2.9182  -2.1206  -2.0877   8.4999   8.6668

          k = 0.0096 0.7052 0.0000 (  2868 PWs)   bands (ev):

   -15.4280 -13.4136  -9.6317  -2.8911  -2.1221  -2.1152   8.5386   8.6841

          k = 0.0096 0.7072 0.0000 (  2868 PWs)   bands (ev):

   -15.4186 -13.4240  -9.6331  -2.8639  -2.1427  -2.1235   8.5772   8.7004

          k = 0.0096 0.7092 0.0000 (  2868 PWs)   bands (ev):

   -15.4099 -13.4337  -9.6344  -2.8367  -2.1702  -2.1248   8.6156   8.7157

          k = 0.0096 0.7112 0.0000 (  2868 PWs)   bands (ev):

   -15.4017 -13.4428  -9.6356  -2.8096  -2.1977  -2.1259   8.6537   8.7299

          k = 0.0096 0.7132 0.0000 (  2872 PWs)   bands (ev):

   -15.3942 -13.4511  -9.6367  -2.7824  -2.2251  -2.1270   8.6914   8.7430

          k = 0.0096 0.7152 0.0000 (  2872 PWs)   bands (ev):

   -15.3873 -13.4587  -9.6376  -2.7554  -2.2524  -2.1280   8.7287   8.7550

          k = 0.0096 0.7172 0.0000 (  2872 PWs)   bands (ev):

   -15.3811 -13.4655  -9.6385  -2.7283  -2.2796  -2.1289   8.7651   8.7660

          k = 0.0096 0.7192 0.0000 (  2872 PWs)   bands (ev):

   -15.3756 -13.4716  -9.6393  -2.7014  -2.3067  -2.1296   8.7754   8.8011

          k = 0.0096 0.7212 0.0000 (  2870 PWs)   bands (ev):

   -15.3708 -13.4769  -9.6399  -2.6747  -2.3337  -2.1303   8.7839   8.8356

          k = 0.0096 0.7232 0.0000 (  2870 PWs)   bands (ev):

   -15.3667 -13.4814  -9.6405  -2.6482  -2.3603  -2.1308   8.7910   8.8685

          k = 0.0096 0.7252 0.0000 (  2870 PWs)   bands (ev):

   -15.3634 -13.4851  -9.6410  -2.6221  -2.3865  -2.1313   8.7969   8.8990

          k = 0.0096 0.7272 0.0000 (  2870 PWs)   bands (ev):

   -15.3608 -13.4880  -9.6413  -2.5969  -2.4118  -2.1317   8.8015   8.9259

          k = 0.0096 0.7292 0.0000 (  2870 PWs)   bands (ev):

   -15.3589 -13.4900  -9.6416  -2.5734  -2.4353  -2.1319   8.8048   8.9476

          k = 0.0096 0.7312 0.0000 (  2870 PWs)   bands (ev):

   -15.3578 -13.4913  -9.6417  -2.5543  -2.4545  -2.1321   8.8068   8.9620

          k = 0.0096 0.7332 0.0000 (  2870 PWs)   bands (ev):

   -15.3574 -13.4917  -9.6418  -2.5460  -2.4628  -2.1321   8.8075   8.9671

          k = 0.0096 0.7352 0.0000 (  2870 PWs)   bands (ev):

   -15.3578 -13.4913  -9.6417  -2.5543  -2.4545  -2.1321   8.8068   8.9620

          k = 0.0096 0.7372 0.0000 (  2870 PWs)   bands (ev):

   -15.3589 -13.4900  -9.6416  -2.5734  -2.4353  -2.1319   8.8048   8.9476

          k = 0.0096 0.7392 0.0000 (  2870 PWs)   bands (ev):

   -15.3608 -13.4880  -9.6413  -2.5969  -2.4118  -2.1317   8.8015   8.9259

          k = 0.0096 0.7412 0.0000 (  2870 PWs)   bands (ev):

   -15.3634 -13.4851  -9.6410  -2.6221  -2.3865  -2.1313   8.7969   8.8990

          k = 0.0096 0.7432 0.0000 (  2870 PWs)   bands (ev):

   -15.3667 -13.4814  -9.6405  -2.6482  -2.3603  -2.1308   8.7910   8.8685

          k = 0.0096 0.7452 0.0000 (  2870 PWs)   bands (ev):

   -15.3708 -13.4769  -9.6399  -2.6747  -2.3336  -2.1303   8.7839   8.8356

          k = 0.0096 0.7472 0.0000 (  2872 PWs)   bands (ev):

   -15.3756 -13.4716  -9.6393  -2.7014  -2.3067  -2.1296   8.7754   8.8011

          k = 0.0096 0.7492 0.0000 (  2872 PWs)   bands (ev):

   -15.3811 -13.4655  -9.6385  -2.7284  -2.2796  -2.1289   8.7651   8.7660

          k = 0.0096 0.7512 0.0000 (  2872 PWs)   bands (ev):

   -15.3873 -13.4587  -9.6376  -2.7554  -2.2524  -2.1280   8.7286   8.7550

          k = 0.0096 0.7532 0.0000 (  2872 PWs)   bands (ev):

   -15.3942 -13.4511  -9.6367  -2.7824  -2.2251  -2.1270   8.6914   8.7430

          k = 0.0096 0.7552 0.0000 (  2868 PWs)   bands (ev):

   -15.4017 -13.4428  -9.6356  -2.8096  -2.1976  -2.1259   8.6537   8.7299

          k = 0.0096 0.7572 0.0000 (  2868 PWs)   bands (ev):

   -15.4099 -13.4337  -9.6344  -2.8367  -2.1702  -2.1248   8.6156   8.7157

          k = 0.0096 0.7592 0.0000 (  2868 PWs)   bands (ev):

   -15.4186 -13.4240  -9.6331  -2.8639  -2.1427  -2.1235   8.5772   8.7004

          k = 0.0096 0.7612 0.0000 (  2868 PWs)   bands (ev):

   -15.4280 -13.4136  -9.6317  -2.8911  -2.1221  -2.1152   8.5386   8.6841

          k = 0.0096 0.7632 0.0000 (  2866 PWs)   bands (ev):

   -15.4380 -13.4025  -9.6302  -2.9182  -2.1206  -2.0877   8.4999   8.6668

          k = 0.0096 0.7652 0.0000 (  2864 PWs)   bands (ev):

   -15.4486 -13.3907  -9.6286  -2.9454  -2.1191  -2.0601   8.4610   8.6487

          k = 0.0096 0.7672 0.0000 (  2862 PWs)   bands (ev):

   -15.4597 -13.3784  -9.6269  -2.9726  -2.1174  -2.0325   8.4221   8.6296

          k = 0.0096 0.7692 0.0000 (  2859 PWs)   bands (ev):

   -15.4713 -13.3654  -9.6251  -2.9997  -2.1156  -2.0049   8.3831   8.6096

          k = 0.0096 0.7712 0.0000 (  2859 PWs)   bands (ev):

   -15.4834 -13.3519  -9.6232  -3.0269  -2.1137  -1.9773   8.3440   8.5889

          k = 0.0096 0.7732 0.0000 (  2862 PWs)   bands (ev):

   -15.4960 -13.3378  -9.6212  -3.0540  -2.1117  -1.9497   8.3049   8.5673

          k = 0.0116 0.6932 0.0000 (  2862 PWs)   bands (ev):

   -15.4961 -13.3374  -9.6229  -3.0540  -2.1088  -1.9498   8.3055   8.5666

          k = 0.0116 0.6952 0.0000 (  2859 PWs)   bands (ev):

   -15.4834 -13.3515  -9.6249  -3.0269  -2.1108  -1.9774   8.3446   8.5881

          k = 0.0116 0.6972 0.0000 (  2861 PWs)   bands (ev):

   -15.4713 -13.3651  -9.6268  -2.9998  -2.1127  -2.0050   8.3836   8.6088

          k = 0.0116 0.6992 0.0000 (  2860 PWs)   bands (ev):

   -15.4597 -13.3780  -9.6286  -2.9726  -2.1144  -2.0326   8.4227   8.6287

          k = 0.0116 0.7012 0.0000 (  2862 PWs)   bands (ev):

   -15.4486 -13.3903  -9.6303  -2.9454  -2.1161  -2.0602   8.4616   8.6478

          k = 0.0116 0.7032 0.0000 (  2864 PWs)   bands (ev):

   -15.4381 -13.4021  -9.6319  -2.9183  -2.1177  -2.0878   8.5005   8.6659

          k = 0.0116 0.7052 0.0000 (  2864 PWs)   bands (ev):

   -15.4281 -13.4131  -9.6334  -2.8911  -2.1192  -2.1153   8.5392   8.6831

          k = 0.0116 0.7072 0.0000 (  2868 PWs)   bands (ev):

   -15.4187 -13.4236  -9.6348  -2.8640  -2.1428  -2.1206   8.5778   8.6993

          k = 0.0116 0.7092 0.0000 (  2868 PWs)   bands (ev):

   -15.4099 -13.4333  -9.6361  -2.8368  -2.1703  -2.1218   8.6161   8.7145

          k = 0.0116 0.7112 0.0000 (  2868 PWs)   bands (ev):

   -15.4018 -13.4423  -9.6373  -2.8097  -2.1977  -2.1230   8.6542   8.7287

          k = 0.0116 0.7132 0.0000 (  2870 PWs)   bands (ev):

   -15.3943 -13.4507  -9.6384  -2.7825  -2.2251  -2.1241   8.6920   8.7418

          k = 0.0116 0.7152 0.0000 (  2872 PWs)   bands (ev):

   -15.3874 -13.4582  -9.6394  -2.7555  -2.2524  -2.1251   8.7292   8.7537

          k = 0.0116 0.7172 0.0000 (  2872 PWs)   bands (ev):

   -15.3812 -13.4651  -9.6402  -2.7285  -2.2796  -2.1259   8.7644   8.7659

          k = 0.0116 0.7192 0.0000 (  2872 PWs)   bands (ev):

   -15.3757 -13.4711  -9.6410  -2.7016  -2.3067  -2.1267   8.7741   8.8016

          k = 0.0116 0.7212 0.0000 (  2872 PWs)   bands (ev):

   -15.3709 -13.4764  -9.6417  -2.6749  -2.3336  -2.1273   8.7825   8.8362

          k = 0.0116 0.7232 0.0000 (  2870 PWs)   bands (ev):

   -15.3668 -13.4809  -9.6422  -2.6484  -2.3602  -2.1279   8.7897   8.8691

          k = 0.0116 0.7252 0.0000 (  2870 PWs)   bands (ev):

   -15.3635 -13.4846  -9.6427  -2.6224  -2.3863  -2.1284   8.7955   8.8995

          k = 0.0116 0.7272 0.0000 (  2870 PWs)   bands (ev):

   -15.3609 -13.4875  -9.6431  -2.5972  -2.4116  -2.1287   8.8001   8.9264

          k = 0.0116 0.7292 0.0000 (  2870 PWs)   bands (ev):

   -15.3590 -13.4896  -9.6433  -2.5738  -2.4350  -2.1290   8.8034   8.9481

          k = 0.0116 0.7312 0.0000 (  2870 PWs)   bands (ev):

   -15.3579 -13.4908  -9.6435  -2.5548  -2.4541  -2.1291   8.8054   8.9625

          k = 0.0116 0.7332 0.0000 (  2870 PWs)   bands (ev):

   -15.3575 -13.4912  -9.6435  -2.5466  -2.4623  -2.1292   8.8061   8.9676

          k = 0.0116 0.7352 0.0000 (  2870 PWs)   bands (ev):

   -15.3579 -13.4908  -9.6435  -2.5548  -2.4541  -2.1291   8.8054   8.9625

          k = 0.0116 0.7372 0.0000 (  2870 PWs)   bands (ev):

   -15.3590 -13.4896  -9.6433  -2.5738  -2.4350  -2.1290   8.8034   8.9481

          k = 0.0116 0.7392 0.0000 (  2870 PWs)   bands (ev):

   -15.3609 -13.4875  -9.6431  -2.5972  -2.4116  -2.1287   8.8001   8.9264

          k = 0.0116 0.7412 0.0000 (  2870 PWs)   bands (ev):

   -15.3635 -13.4846  -9.6427  -2.6224  -2.3863  -2.1284   8.7955   8.8995

          k = 0.0116 0.7432 0.0000 (  2870 PWs)   bands (ev):

   -15.3668 -13.4809  -9.6422  -2.6484  -2.3602  -2.1279   8.7897   8.8690

          k = 0.0116 0.7452 0.0000 (  2872 PWs)   bands (ev):

   -15.3709 -13.4764  -9.6417  -2.6749  -2.3336  -2.1273   8.7825   8.8362

          k = 0.0116 0.7472 0.0000 (  2872 PWs)   bands (ev):

   -15.3757 -13.4711  -9.6410  -2.7016  -2.3067  -2.1267   8.7741   8.8016

          k = 0.0116 0.7492 0.0000 (  2872 PWs)   bands (ev):

   -15.3812 -13.4651  -9.6402  -2.7285  -2.2796  -2.1259   8.7644   8.7659

          k = 0.0116 0.7512 0.0000 (  2872 PWs)   bands (ev):

   -15.3874 -13.4582  -9.6394  -2.7555  -2.2524  -2.1251   8.7292   8.7537

          k = 0.0116 0.7532 0.0000 (  2870 PWs)   bands (ev):

   -15.3943 -13.4507  -9.6384  -2.7826  -2.2251  -2.1241   8.6919   8.7418

          k = 0.0116 0.7552 0.0000 (  2868 PWs)   bands (ev):

   -15.4018 -13.4423  -9.6373  -2.8097  -2.1977  -2.1230   8.6542   8.7287

          k = 0.0116 0.7572 0.0000 (  2868 PWs)   bands (ev):

   -15.4099 -13.4333  -9.6361  -2.8368  -2.1703  -2.1218   8.6161   8.7145

          k = 0.0116 0.7592 0.0000 (  2868 PWs)   bands (ev):

   -15.4187 -13.4236  -9.6348  -2.8640  -2.1428  -2.1206   8.5778   8.6993

          k = 0.0116 0.7612 0.0000 (  2864 PWs)   bands (ev):

   -15.4281 -13.4131  -9.6334  -2.8911  -2.1192  -2.1153   8.5392   8.6831

          k = 0.0116 0.7632 0.0000 (  2864 PWs)   bands (ev):

   -15.4381 -13.4021  -9.6319  -2.9183  -2.1177  -2.0877   8.5005   8.6659

          k = 0.0116 0.7652 0.0000 (  2862 PWs)   bands (ev):

   -15.4486 -13.3903  -9.6303  -2.9455  -2.1161  -2.0602   8.4616   8.6477

          k = 0.0116 0.7672 0.0000 (  2860 PWs)   bands (ev):

   -15.4597 -13.3780  -9.6286  -2.9726  -2.1144  -2.0326   8.4226   8.6287

          k = 0.0116 0.7692 0.0000 (  2861 PWs)   bands (ev):

   -15.4713 -13.3650  -9.6268  -2.9998  -2.1127  -2.0050   8.3836   8.6088

          k = 0.0116 0.7712 0.0000 (  2859 PWs)   bands (ev):

   -15.4834 -13.3515  -9.6249  -3.0269  -2.1108  -1.9774   8.3446   8.5881

          k = 0.0116 0.7732 0.0000 (  2862 PWs)   bands (ev):

   -15.4961 -13.3374  -9.6229  -3.0540  -2.1088  -1.9498   8.3055   8.5666

          k = 0.0136 0.6932 0.0000 (  2858 PWs)   bands (ev):

   -15.4961 -13.3370  -9.6249  -3.0540  -2.1053  -1.9500   8.3062   8.5658

          k = 0.0136 0.6952 0.0000 (  2859 PWs)   bands (ev):

   -15.4835 -13.3511  -9.6270  -3.0269  -2.1073  -1.9776   8.3453   8.5872

          k = 0.0136 0.6972 0.0000 (  2861 PWs)   bands (ev):

   -15.4714 -13.3646  -9.6289  -2.9998  -2.1092  -2.0052   8.3843   8.6079

          k = 0.0136 0.6992 0.0000 (  2860 PWs)   bands (ev):

   -15.4598 -13.3775  -9.6307  -2.9727  -2.1110  -2.0327   8.4233   8.6277

          k = 0.0136 0.7012 0.0000 (  2860 PWs)   bands (ev):

   -15.4487 -13.3899  -9.6324  -2.9455  -2.1126  -2.0603   8.4623   8.6467

          k = 0.0136 0.7032 0.0000 (  2862 PWs)   bands (ev):

   -15.4381 -13.4016  -9.6340  -2.9183  -2.1142  -2.0878   8.5011   8.6648

          k = 0.0136 0.7052 0.0000 (  2862 PWs)   bands (ev):

   -15.4282 -13.4126  -9.6355  -2.8912  -2.1157  -2.1153   8.5399   8.6819

          k = 0.0136 0.7072 0.0000 (  2866 PWs)   bands (ev):

   -15.4188 -13.4231  -9.6369  -2.8640  -2.1429  -2.1171   8.5784   8.6981

          k = 0.0136 0.7092 0.0000 (  2866 PWs)   bands (ev):

   -15.4100 -13.4328  -9.6382  -2.8369  -2.1703  -2.1184   8.6168   8.7132

          k = 0.0136 0.7112 0.0000 (  2868 PWs)   bands (ev):

   -15.4019 -13.4418  -9.6394  -2.8098  -2.1977  -2.1195   8.6549   8.7273

          k = 0.0136 0.7132 0.0000 (  2870 PWs)   bands (ev):

   -15.3944 -13.4501  -9.6404  -2.7827  -2.2251  -2.1206   8.6926   8.7404

          k = 0.0136 0.7152 0.0000 (  2870 PWs)   bands (ev):

   -15.3875 -13.4577  -9.6414  -2.7556  -2.2524  -2.1216   8.7299   8.7523

          k = 0.0136 0.7172 0.0000 (  2872 PWs)   bands (ev):

   -15.3813 -13.4646  -9.6423  -2.7287  -2.2796  -2.1224   8.7630   8.7665

          k = 0.0136 0.7192 0.0000 (  2872 PWs)   bands (ev):

   -15.3758 -13.4706  -9.6431  -2.7018  -2.3067  -2.1232   8.7726   8.8022

          k = 0.0136 0.7212 0.0000 (  2872 PWs)   bands (ev):

   -15.3710 -13.4759  -9.6438  -2.6751  -2.3335  -2.1239   8.7809   8.8368

          k = 0.0136 0.7232 0.0000 (  2872 PWs)   bands (ev):

   -15.3670 -13.4804  -9.6443  -2.6487  -2.3601  -2.1244   8.7880   8.8697

          k = 0.0136 0.7252 0.0000 (  2872 PWs)   bands (ev):

   -15.3636 -13.4841  -9.6448  -2.6227  -2.3862  -2.1249   8.7939   8.9001

          k = 0.0136 0.7272 0.0000 (  2870 PWs)   bands (ev):

   -15.3610 -13.4870  -9.6451  -2.5976  -2.4114  -2.1252   8.7984   8.9270

          k = 0.0136 0.7292 0.0000 (  2870 PWs)   bands (ev):

   -15.3591 -13.4890  -9.6454  -2.5743  -2.4347  -2.1255   8.8017   8.9487

          k = 0.0136 0.7312 0.0000 (  2870 PWs)   bands (ev):

   -15.3580 -13.4903  -9.6455  -2.5555  -2.4535  -2.1256   8.8037   8.9631

          k = 0.0136 0.7332 0.0000 (  2870 PWs)   bands (ev):

   -15.3576 -13.4907  -9.6456  -2.5474  -2.4616  -2.1257   8.8043   8.9682

          k = 0.0136 0.7352 0.0000 (  2870 PWs)   bands (ev):

   -15.3580 -13.4903  -9.6455  -2.5555  -2.4535  -2.1256   8.8037   8.9631

          k = 0.0136 0.7372 0.0000 (  2870 PWs)   bands (ev):

   -15.3591 -13.4890  -9.6454  -2.5743  -2.4347  -2.1255   8.8017   8.9487

          k = 0.0136 0.7392 0.0000 (  2870 PWs)   bands (ev):

   -15.3610 -13.4870  -9.6451  -2.5976  -2.4113  -2.1252   8.7984   8.9270

          k = 0.0136 0.7412 0.0000 (  2872 PWs)   bands (ev):

   -15.3636 -13.4841  -9.6448  -2.6227  -2.3862  -2.1249   8.7939   8.9001

          k = 0.0136 0.7432 0.0000 (  2872 PWs)   bands (ev):

   -15.3670 -13.4804  -9.6443  -2.6487  -2.3601  -2.1244   8.7880   8.8697

          k = 0.0136 0.7452 0.0000 (  2872 PWs)   bands (ev):

   -15.3710 -13.4759  -9.6438  -2.6751  -2.3335  -2.1239   8.7809   8.8368

          k = 0.0136 0.7472 0.0000 (  2872 PWs)   bands (ev):

   -15.3758 -13.4706  -9.6431  -2.7018  -2.3067  -2.1232   8.7726   8.8022

          k = 0.0136 0.7492 0.0000 (  2872 PWs)   bands (ev):

   -15.3813 -13.4646  -9.6423  -2.7287  -2.2796  -2.1224   8.7630   8.7665

          k = 0.0136 0.7512 0.0000 (  2870 PWs)   bands (ev):

   -15.3875 -13.4577  -9.6414  -2.7556  -2.2524  -2.1216   8.7299   8.7523

          k = 0.0136 0.7532 0.0000 (  2870 PWs)   bands (ev):

   -15.3944 -13.4501  -9.6404  -2.7827  -2.2251  -2.1206   8.6926   8.7404

          k = 0.0136 0.7552 0.0000 (  2868 PWs)   bands (ev):

   -15.4019 -13.4418  -9.6394  -2.8098  -2.1977  -2.1195   8.6549   8.7273

          k = 0.0136 0.7572 0.0000 (  2866 PWs)   bands (ev):

   -15.4100 -13.4328  -9.6382  -2.8369  -2.1703  -2.1184   8.6168   8.7132

          k = 0.0136 0.7592 0.0000 (  2866 PWs)   bands (ev):

   -15.4188 -13.4231  -9.6369  -2.8640  -2.1429  -2.1171   8.5784   8.6981

          k = 0.0136 0.7612 0.0000 (  2862 PWs)   bands (ev):

   -15.4282 -13.4126  -9.6355  -2.8912  -2.1157  -2.1153   8.5399   8.6819

          k = 0.0136 0.7632 0.0000 (  2862 PWs)   bands (ev):

   -15.4381 -13.4016  -9.6340  -2.9184  -2.1142  -2.0878   8.5011   8.6648

          k = 0.0136 0.7652 0.0000 (  2860 PWs)   bands (ev):

   -15.4487 -13.3899  -9.6324  -2.9455  -2.1126  -2.0603   8.4623   8.6467

          k = 0.0136 0.7672 0.0000 (  2860 PWs)   bands (ev):

   -15.4598 -13.3775  -9.6307  -2.9727  -2.1110  -2.0327   8.4233   8.6277

          k = 0.0136 0.7692 0.0000 (  2861 PWs)   bands (ev):

   -15.4714 -13.3646  -9.6289  -2.9998  -2.1092  -2.0052   8.3843   8.6079

          k = 0.0136 0.7712 0.0000 (  2859 PWs)   bands (ev):

   -15.4835 -13.3511  -9.6270  -3.0269  -2.1073  -1.9776   8.3453   8.5872

          k = 0.0136 0.7732 0.0000 (  2858 PWs)   bands (ev):

   -15.4961 -13.3370  -9.6249  -3.0541  -2.1053  -1.9499   8.3062   8.5658

          k = 0.0156 0.6932 0.0000 (  2857 PWs)   bands (ev):

   -15.4961 -13.3365  -9.6273  -3.0541  -2.1013  -1.9501   8.3070   8.5648

          k = 0.0156 0.6952 0.0000 (  2861 PWs)   bands (ev):

   -15.4835 -13.3506  -9.6293  -3.0270  -2.1033  -1.9777   8.3461   8.5862

          k = 0.0156 0.6972 0.0000 (  2861 PWs)   bands (ev):

   -15.4714 -13.3641  -9.6312  -2.9998  -2.1052  -2.0053   8.3851   8.6068

          k = 0.0156 0.6992 0.0000 (  2860 PWs)   bands (ev):

   -15.4598 -13.3770  -9.6330  -2.9727  -2.1069  -2.0329   8.4241   8.6265

          k = 0.0156 0.7012 0.0000 (  2860 PWs)   bands (ev):

   -15.4487 -13.3893  -9.6347  -2.9456  -2.1086  -2.0604   8.4631   8.6454

          k = 0.0156 0.7032 0.0000 (  2860 PWs)   bands (ev):

   -15.4382 -13.4010  -9.6363  -2.9184  -2.1102  -2.0880   8.5019   8.6634

          k = 0.0156 0.7052 0.0000 (  2862 PWs)   bands (ev):

   -15.4283 -13.4121  -9.6378  -2.8913  -2.1155  -2.1117   8.5407   8.6805

          k = 0.0156 0.7072 0.0000 (  2864 PWs)   bands (ev):

   -15.4189 -13.4225  -9.6392  -2.8641  -2.1430  -2.1130   8.5792   8.6966

          k = 0.0156 0.7092 0.0000 (  2864 PWs)   bands (ev):

   -15.4101 -13.4322  -9.6405  -2.8370  -2.1704  -2.1143   8.6176   8.7117

          k = 0.0156 0.7112 0.0000 (  2866 PWs)   bands (ev):

   -15.4020 -13.4412  -9.6417  -2.8099  -2.1978  -2.1155   8.6557   8.7258

          k = 0.0156 0.7132 0.0000 (  2870 PWs)   bands (ev):

   -15.3945 -13.4496  -9.6428  -2.7828  -2.2252  -2.1166   8.6934   8.7387

          k = 0.0156 0.7152 0.0000 (  2870 PWs)   bands (ev):

   -15.3876 -13.4571  -9.6438  -2.7558  -2.2524  -2.1175   8.7306   8.7506

          k = 0.0156 0.7172 0.0000 (  2870 PWs)   bands (ev):

   -15.3814 -13.4639  -9.6447  -2.7288  -2.2796  -2.1184   8.7612   8.7673

          k = 0.0156 0.7192 0.0000 (  2872 PWs)   bands (ev):

   -15.3760 -13.4700  -9.6455  -2.7020  -2.3066  -2.1192   8.7708   8.8030

          k = 0.0156 0.7212 0.0000 (  2872 PWs)   bands (ev):

   -15.3712 -13.4753  -9.6461  -2.6753  -2.3335  -2.1198   8.7791   8.8375

          k = 0.0156 0.7232 0.0000 (  2872 PWs)   bands (ev):

   -15.3671 -13.4798  -9.6467  -2.6490  -2.3600  -2.1204   8.7861   8.8704

          k = 0.0156 0.7252 0.0000 (  2872 PWs)   bands (ev):

   -15.3638 -13.4835  -9.6472  -2.6231  -2.3860  -2.1208   8.7920   8.9009

          k = 0.0156 0.7272 0.0000 (  2872 PWs)   bands (ev):

   -15.3611 -13.4863  -9.6475  -2.5981  -2.4111  -2.1212   8.7965   8.9277

          k = 0.0156 0.7292 0.0000 (  2872 PWs)   bands (ev):

   -15.3593 -13.4884  -9.6478  -2.5749  -2.4343  -2.1215   8.7998   8.9494

          k = 0.0156 0.7312 0.0000 (  2870 PWs)   bands (ev):

   -15.3581 -13.4896  -9.6479  -2.5563  -2.4529  -2.1216   8.8017   8.9638

          k = 0.0156 0.7332 0.0000 (  2870 PWs)   bands (ev):

   -15.3578 -13.4900  -9.6480  -2.5483  -2.4609  -2.1217   8.8024   8.9689

          k = 0.0156 0.7352 0.0000 (  2870 PWs)   bands (ev):

   -15.3581 -13.4896  -9.6479  -2.5563  -2.4529  -2.1216   8.8017   8.9638

          k = 0.0156 0.7372 0.0000 (  2872 PWs)   bands (ev):

   -15.3593 -13.4884  -9.6478  -2.5749  -2.4343  -2.1215   8.7998   8.9494

          k = 0.0156 0.7392 0.0000 (  2872 PWs)   bands (ev):

   -15.3611 -13.4863  -9.6475  -2.5981  -2.4111  -2.1212   8.7965   8.9277

          k = 0.0156 0.7412 0.0000 (  2872 PWs)   bands (ev):

   -15.3638 -13.4834  -9.6472  -2.6231  -2.3860  -2.1208   8.7920   8.9009

          k = 0.0156 0.7432 0.0000 (  2872 PWs)   bands (ev):

   -15.3671 -13.4798  -9.6467  -2.6490  -2.3600  -2.1204   8.7861   8.8704

          k = 0.0156 0.7452 0.0000 (  2872 PWs)   bands (ev):

   -15.3712 -13.4753  -9.6461  -2.6754  -2.3335  -2.1198   8.7791   8.8375

          k = 0.0156 0.7472 0.0000 (  2872 PWs)   bands (ev):

   -15.3760 -13.4700  -9.6455  -2.7020  -2.3066  -2.1192   8.7708   8.8030

          k = 0.0156 0.7492 0.0000 (  2870 PWs)   bands (ev):

   -15.3814 -13.4639  -9.6447  -2.7289  -2.2796  -2.1184   8.7612   8.7673

          k = 0.0156 0.7512 0.0000 (  2870 PWs)   bands (ev):

   -15.3876 -13.4571  -9.6438  -2.7558  -2.2524  -2.1175   8.7306   8.7506

          k = 0.0156 0.7532 0.0000 (  2870 PWs)   bands (ev):

   -15.3945 -13.4495  -9.6428  -2.7828  -2.2252  -2.1166   8.6934   8.7387

          k = 0.0156 0.7552 0.0000 (  2866 PWs)   bands (ev):

   -15.4020 -13.4412  -9.6417  -2.8099  -2.1978  -2.1155   8.6557   8.7258

          k = 0.0156 0.7572 0.0000 (  2864 PWs)   bands (ev):

   -15.4101 -13.4322  -9.6405  -2.8370  -2.1704  -2.1143   8.6176   8.7117

          k = 0.0156 0.7592 0.0000 (  2864 PWs)   bands (ev):

   -15.4189 -13.4225  -9.6392  -2.8641  -2.1429  -2.1130   8.5792   8.6966

          k = 0.0156 0.7612 0.0000 (  2862 PWs)   bands (ev):

   -15.4283 -13.4121  -9.6378  -2.8913  -2.1155  -2.1117   8.5407   8.6805

          k = 0.0156 0.7632 0.0000 (  2860 PWs)   bands (ev):

   -15.4382 -13.4010  -9.6363  -2.9184  -2.1102  -2.0880   8.5019   8.6634

          k = 0.0156 0.7652 0.0000 (  2860 PWs)   bands (ev):

   -15.4488 -13.3893  -9.6347  -2.9456  -2.1086  -2.0604   8.4631   8.6454

          k = 0.0156 0.7672 0.0000 (  2860 PWs)   bands (ev):

   -15.4598 -13.3770  -9.6330  -2.9727  -2.1069  -2.0329   8.4241   8.6265

          k = 0.0156 0.7692 0.0000 (  2861 PWs)   bands (ev):

   -15.4714 -13.3641  -9.6312  -2.9999  -2.1052  -2.0053   8.3851   8.6068

          k = 0.0156 0.7712 0.0000 (  2861 PWs)   bands (ev):

   -15.4835 -13.3506  -9.6293  -3.0270  -2.1033  -1.9777   8.3461   8.5862

          k = 0.0156 0.7732 0.0000 (  2857 PWs)   bands (ev):

   -15.4961 -13.3365  -9.6273  -3.0541  -2.1013  -1.9501   8.3070   8.5648

          k = 0.0176 0.6932 0.0000 (  2857 PWs)   bands (ev):

   -15.4962 -13.3359  -9.6300  -3.0541  -2.0967  -1.9503   8.3079   8.5638

          k = 0.0176 0.6952 0.0000 (  2857 PWs)   bands (ev):

   -15.4836 -13.3500  -9.6320  -3.0270  -2.0987  -1.9779   8.3470   8.5850

          k = 0.0176 0.6972 0.0000 (  2861 PWs)   bands (ev):

   -15.4715 -13.3635  -9.6339  -2.9999  -2.1006  -2.0055   8.3860   8.6055

          k = 0.0176 0.6992 0.0000 (  2860 PWs)   bands (ev):

   -15.4599 -13.3764  -9.6357  -2.9728  -2.1024  -2.0330   8.4250   8.6252

          k = 0.0176 0.7012 0.0000 (  2860 PWs)   bands (ev):

   -15.4488 -13.3887  -9.6374  -2.9456  -2.1040  -2.0606   8.4640   8.6440

          k = 0.0176 0.7032 0.0000 (  2860 PWs)   bands (ev):

   -15.4383 -13.4004  -9.6390  -2.9185  -2.1056  -2.0881   8.5028   8.6620

          k = 0.0176 0.7052 0.0000 (  2860 PWs)   bands (ev):

   -15.4284 -13.4114  -9.6405  -2.8914  -2.1156  -2.1071   8.5416   8.6789

          k = 0.0176 0.7072 0.0000 (  2860 PWs)   bands (ev):

   -15.4190 -13.4218  -9.6419  -2.8642  -2.1430  -2.1084   8.5801   8.6950

          k = 0.0176 0.7092 0.0000 (  2864 PWs)   bands (ev):

   -15.4102 -13.4315  -9.6432  -2.8371  -2.1705  -2.1097   8.6185   8.7100

          k = 0.0176 0.7112 0.0000 (  2864 PWs)   bands (ev):

   -15.4021 -13.4406  -9.6444  -2.8100  -2.1978  -2.1109   8.6565   8.7240

          k = 0.0176 0.7132 0.0000 (  2868 PWs)   bands (ev):

   -15.3946 -13.4489  -9.6455  -2.7830  -2.2252  -2.1120   8.6942   8.7369

          k = 0.0176 0.7152 0.0000 (  2868 PWs)   bands (ev):

   -15.3877 -13.4564  -9.6465  -2.7560  -2.2524  -2.1130   8.7315   8.7486

          k = 0.0176 0.7172 0.0000 (  2870 PWs)   bands (ev):

   -15.3816 -13.4632  -9.6474  -2.7291  -2.2796  -2.1138   8.7592   8.7681

          k = 0.0176 0.7192 0.0000 (  2870 PWs)   bands (ev):

   -15.3761 -13.4693  -9.6482  -2.7023  -2.3066  -2.1146   8.7687   8.8038

          k = 0.0176 0.7212 0.0000 (  2872 PWs)   bands (ev):

   -15.3713 -13.4746  -9.6489  -2.6756  -2.3334  -2.1152   8.7770   8.8384

          k = 0.0176 0.7232 0.0000 (  2872 PWs)   bands (ev):

   -15.3673 -13.4791  -9.6494  -2.6493  -2.3598  -2.1158   8.7840   8.8712

          k = 0.0176 0.7252 0.0000 (  2872 PWs)   bands (ev):

   -15.3639 -13.4827  -9.6499  -2.6235  -2.3858  -2.1163   8.7898   8.9017

          k = 0.0176 0.7272 0.0000 (  2872 PWs)   bands (ev):

   -15.3613 -13.4856  -9.6503  -2.5986  -2.4108  -2.1166   8.7943   8.9286

          k = 0.0176 0.7292 0.0000 (  2872 PWs)   bands (ev):

   -15.3594 -13.4877  -9.6505  -2.5756  -2.4338  -2.1169   8.7975   8.9502

          k = 0.0176 0.7312 0.0000 (  2872 PWs)   bands (ev):

   -15.3583 -13.4889  -9.6507  -2.5572  -2.4523  -2.1170   8.7995   8.9646

          k = 0.0176 0.7332 0.0000 (  2870 PWs)   bands (ev):

   -15.3579 -13.4893  -9.6507  -2.5494  -2.4601  -2.1171   8.8001   8.9697

          k = 0.0176 0.7352 0.0000 (  2872 PWs)   bands (ev):

   -15.3583 -13.4889  -9.6507  -2.5572  -2.4523  -2.1170   8.7995   8.9646

          k = 0.0176 0.7372 0.0000 (  2872 PWs)   bands (ev):

   -15.3594 -13.4877  -9.6505  -2.5756  -2.4338  -2.1169   8.7975   8.9502

          k = 0.0176 0.7392 0.0000 (  2872 PWs)   bands (ev):

   -15.3613 -13.4856  -9.6503  -2.5986  -2.4108  -2.1166   8.7943   8.9286

          k = 0.0176 0.7412 0.0000 (  2872 PWs)   bands (ev):

   -15.3639 -13.4827  -9.6499  -2.6235  -2.3858  -2.1163   8.7898   8.9017

          k = 0.0176 0.7432 0.0000 (  2872 PWs)   bands (ev):

   -15.3673 -13.4791  -9.6494  -2.6493  -2.3598  -2.1158   8.7840   8.8712

          k = 0.0176 0.7452 0.0000 (  2872 PWs)   bands (ev):

   -15.3713 -13.4746  -9.6489  -2.6756  -2.3334  -2.1152   8.7770   8.8384

          k = 0.0176 0.7472 0.0000 (  2870 PWs)   bands (ev):

   -15.3761 -13.4693  -9.6482  -2.7023  -2.3065  -2.1146   8.7687   8.8038

          k = 0.0176 0.7492 0.0000 (  2870 PWs)   bands (ev):

   -15.3816 -13.4632  -9.6474  -2.7291  -2.2796  -2.1138   8.7592   8.7681

          k = 0.0176 0.7512 0.0000 (  2868 PWs)   bands (ev):

   -15.3877 -13.4564  -9.6465  -2.7560  -2.2524  -2.1129   8.7315   8.7486

          k = 0.0176 0.7532 0.0000 (  2868 PWs)   bands (ev):

   -15.3946 -13.4489  -9.6455  -2.7830  -2.2252  -2.1120   8.6942   8.7369

          k = 0.0176 0.7552 0.0000 (  2864 PWs)   bands (ev):

   -15.4021 -13.4406  -9.6444  -2.8101  -2.1978  -2.1109   8.6565   8.7240

          k = 0.0176 0.7572 0.0000 (  2864 PWs)   bands (ev):

   -15.4102 -13.4315  -9.6432  -2.8371  -2.1705  -2.1097   8.6185   8.7100

          k = 0.0176 0.7592 0.0000 (  2860 PWs)   bands (ev):

   -15.4190 -13.4218  -9.6419  -2.8643  -2.1430  -2.1084   8.5801   8.6950

          k = 0.0176 0.7612 0.0000 (  2860 PWs)   bands (ev):

   -15.4284 -13.4114  -9.6405  -2.8914  -2.1156  -2.1071   8.5415   8.6789

          k = 0.0176 0.7632 0.0000 (  2860 PWs)   bands (ev):

   -15.4383 -13.4004  -9.6390  -2.9185  -2.1056  -2.0881   8.5028   8.6619

          k = 0.0176 0.7652 0.0000 (  2860 PWs)   bands (ev):

   -15.4488 -13.3887  -9.6374  -2.9456  -2.1040  -2.0606   8.4640   8.6440

          k = 0.0176 0.7672 0.0000 (  2860 PWs)   bands (ev):

   -15.4599 -13.3764  -9.6357  -2.9728  -2.1024  -2.0330   8.4250   8.6252

          k = 0.0176 0.7692 0.0000 (  2861 PWs)   bands (ev):

   -15.4715 -13.3635  -9.6339  -2.9999  -2.1006  -2.0055   8.3860   8.6055

          k = 0.0176 0.7712 0.0000 (  2857 PWs)   bands (ev):

   -15.4836 -13.3500  -9.6320  -3.0270  -2.0987  -1.9779   8.3470   8.5850

          k = 0.0176 0.7732 0.0000 (  2857 PWs)   bands (ev):

   -15.4962 -13.3359  -9.6300  -3.0541  -2.0967  -1.9503   8.3079   8.5637

          k = 0.0196 0.6932 0.0000 (  2857 PWs)   bands (ev):

   -15.4962 -13.3353  -9.6330  -3.0541  -2.0916  -1.9506   8.3089   8.5625

          k = 0.0196 0.6952 0.0000 (  2859 PWs)   bands (ev):

   -15.4837 -13.3493  -9.6350  -3.0270  -2.0936  -1.9781   8.3480   8.5837

          k = 0.0196 0.6972 0.0000 (  2859 PWs)   bands (ev):

   -15.4716 -13.3628  -9.6369  -3.0000  -2.0955  -2.0057   8.3870   8.6041

          k = 0.0196 0.6992 0.0000 (  2860 PWs)   bands (ev):

   -15.4600 -13.3757  -9.6387  -2.9728  -2.0972  -2.0332   8.4260   8.6237

          k = 0.0196 0.7012 0.0000 (  2860 PWs)   bands (ev):

   -15.4489 -13.3880  -9.6404  -2.9457  -2.0989  -2.0607   8.4650   8.6424

          k = 0.0196 0.7032 0.0000 (  2860 PWs)   bands (ev):

   -15.4384 -13.3997  -9.6420  -2.9186  -2.1005  -2.0882   8.5038   8.6603

          k = 0.0196 0.7052 0.0000 (  2860 PWs)   bands (ev):

   -15.4285 -13.4107  -9.6435  -2.8915  -2.1157  -2.1019   8.5425   8.6772

          k = 0.0196 0.7072 0.0000 (  2860 PWs)   bands (ev):

   -15.4191 -13.4211  -9.6449  -2.8644  -2.1431  -2.1033   8.5811   8.6931

          k = 0.0196 0.7092 0.0000 (  2862 PWs)   bands (ev):

   -15.4104 -13.4308  -9.6462  -2.8373  -2.1706  -2.1046   8.6195   8.7081

          k = 0.0196 0.7112 0.0000 (  2864 PWs)   bands (ev):

   -15.4022 -13.4398  -9.6474  -2.8102  -2.1979  -2.1058   8.6575   8.7219

          k = 0.0196 0.7132 0.0000 (  2866 PWs)   bands (ev):

   -15.3947 -13.4481  -9.6485  -2.7832  -2.2252  -2.1069   8.6952   8.7348

          k = 0.0196 0.7152 0.0000 (  2866 PWs)   bands (ev):

   -15.3879 -13.4557  -9.6495  -2.7562  -2.2524  -2.1078   8.7325   8.7465

          k = 0.0196 0.7172 0.0000 (  2868 PWs)   bands (ev):

   -15.3817 -13.4625  -9.6504  -2.7293  -2.2795  -2.1087   8.7570   8.7691

          k = 0.0196 0.7192 0.0000 (  2868 PWs)   bands (ev):

   -15.3763 -13.4685  -9.6512  -2.7025  -2.3065  -2.1094   8.7664   8.8048

          k = 0.0196 0.7212 0.0000 (  2870 PWs)   bands (ev):

   -15.3715 -13.4738  -9.6519  -2.6760  -2.3332  -2.1101   8.7746   8.8393

          k = 0.0196 0.7232 0.0000 (  2872 PWs)   bands (ev):

   -15.3674 -13.4783  -9.6525  -2.6497  -2.3597  -2.1107   8.7816   8.8722

          k = 0.0196 0.7252 0.0000 (  2872 PWs)   bands (ev):

   -15.3641 -13.4819  -9.6529  -2.6240  -2.3855  -2.1111   8.7873   8.9026

          k = 0.0196 0.7272 0.0000 (  2872 PWs)   bands (ev):

   -15.3615 -13.4848  -9.6533  -2.5992  -2.4104  -2.1115   8.7918   8.9295

          k = 0.0196 0.7292 0.0000 (  2872 PWs)   bands (ev):

   -15.3596 -13.4869  -9.6535  -2.5764  -2.4333  -2.1117   8.7950   8.9511

          k = 0.0196 0.7312 0.0000 (  2874 PWs)   bands (ev):

   -15.3585 -13.4881  -9.6537  -2.5582  -2.4515  -2.1119   8.7970   8.9655

          k = 0.0196 0.7332 0.0000 (  2874 PWs)   bands (ev):

   -15.3581 -13.4885  -9.6538  -2.5505  -2.4591  -2.1119   8.7976   8.9706

          k = 0.0196 0.7352 0.0000 (  2874 PWs)   bands (ev):

   -15.3585 -13.4881  -9.6537  -2.5582  -2.4515  -2.1119   8.7970   8.9655

          k = 0.0196 0.7372 0.0000 (  2872 PWs)   bands (ev):

   -15.3596 -13.4869  -9.6535  -2.5764  -2.4333  -2.1117   8.7950   8.9511

          k = 0.0196 0.7392 0.0000 (  2872 PWs)   bands (ev):

   -15.3615 -13.4848  -9.6533  -2.5992  -2.4104  -2.1115   8.7918   8.9295

          k = 0.0196 0.7412 0.0000 (  2872 PWs)   bands (ev):

   -15.3641 -13.4819  -9.6529  -2.6240  -2.3855  -2.1111   8.7873   8.9026

          k = 0.0196 0.7432 0.0000 (  2872 PWs)   bands (ev):

   -15.3674 -13.4783  -9.6525  -2.6497  -2.3597  -2.1107   8.7816   8.8722

          k = 0.0196 0.7452 0.0000 (  2870 PWs)   bands (ev):

   -15.3715 -13.4738  -9.6519  -2.6760  -2.3332  -2.1101   8.7746   8.8393

          k = 0.0196 0.7472 0.0000 (  2868 PWs)   bands (ev):

   -15.3763 -13.4685  -9.6512  -2.7026  -2.3065  -2.1094   8.7664   8.8048

          k = 0.0196 0.7492 0.0000 (  2868 PWs)   bands (ev):

   -15.3817 -13.4625  -9.6504  -2.7293  -2.2795  -2.1087   8.7570   8.7691

          k = 0.0196 0.7512 0.0000 (  2866 PWs)   bands (ev):

   -15.3879 -13.4557  -9.6495  -2.7562  -2.2524  -2.1078   8.7324   8.7465

          k = 0.0196 0.7532 0.0000 (  2866 PWs)   bands (ev):

   -15.3947 -13.4481  -9.6485  -2.7832  -2.2252  -2.1069   8.6952   8.7348

          k = 0.0196 0.7552 0.0000 (  2864 PWs)   bands (ev):

   -15.4022 -13.4398  -9.6474  -2.8102  -2.1979  -2.1058   8.6575   8.7219

          k = 0.0196 0.7572 0.0000 (  2862 PWs)   bands (ev):

   -15.4104 -13.4308  -9.6462  -2.8373  -2.1705  -2.1046   8.6194   8.7080

          k = 0.0196 0.7592 0.0000 (  2860 PWs)   bands (ev):

   -15.4191 -13.4211  -9.6449  -2.8644  -2.1431  -2.1033   8.5811   8.6931

          k = 0.0196 0.7612 0.0000 (  2860 PWs)   bands (ev):

   -15.4285 -13.4107  -9.6435  -2.8915  -2.1157  -2.1019   8.5425   8.6772

          k = 0.0196 0.7632 0.0000 (  2860 PWs)   bands (ev):

   -15.4384 -13.3997  -9.6420  -2.9186  -2.1005  -2.0882   8.5038   8.6603

          k = 0.0196 0.7652 0.0000 (  2860 PWs)   bands (ev):

   -15.4489 -13.3880  -9.6404  -2.9457  -2.0989  -2.0607   8.4650   8.6424

          k = 0.0196 0.7672 0.0000 (  2860 PWs)   bands (ev):

   -15.4600 -13.3757  -9.6387  -2.9729  -2.0972  -2.0332   8.4260   8.6237

          k = 0.0196 0.7692 0.0000 (  2859 PWs)   bands (ev):

   -15.4716 -13.3628  -9.6369  -3.0000  -2.0955  -2.0057   8.3870   8.6041

          k = 0.0196 0.7712 0.0000 (  2859 PWs)   bands (ev):

   -15.4837 -13.3493  -9.6350  -3.0271  -2.0936  -1.9781   8.3480   8.5837

          k = 0.0196 0.7732 0.0000 (  2857 PWs)   bands (ev):

   -15.4962 -13.3353  -9.6330  -3.0541  -2.0916  -1.9505   8.3089   8.5625

          k = 0.0216 0.6932 0.0000 (  2859 PWs)   bands (ev):

   -15.4963 -13.3346  -9.6363  -3.0542  -2.0860  -1.9508   8.3100   8.5612

          k = 0.0216 0.6952 0.0000 (  2859 PWs)   bands (ev):

   -15.4837 -13.3486  -9.6383  -3.0271  -2.0879  -1.9784   8.3491   8.5822

          k = 0.0216 0.6972 0.0000 (  2857 PWs)   bands (ev):

   -15.4717 -13.3621  -9.6402  -3.0000  -2.0898  -2.0059   8.3882   8.6026

          k = 0.0216 0.6992 0.0000 (  2861 PWs)   bands (ev):

   -15.4601 -13.3750  -9.6420  -2.9729  -2.0916  -2.0334   8.4272   8.6220

          k = 0.0216 0.7012 0.0000 (  2860 PWs)   bands (ev):

   -15.4490 -13.3872  -9.6438  -2.9458  -2.0932  -2.0609   8.4661   8.6407

          k = 0.0216 0.7032 0.0000 (  2860 PWs)   bands (ev):

   -15.4385 -13.3989  -9.6454  -2.9187  -2.0948  -2.0884   8.5049   8.6584

          k = 0.0216 0.7052 0.0000 (  2860 PWs)   bands (ev):

   -15.4286 -13.4099  -9.6469  -2.8916  -2.1158  -2.0963   8.5437   8.6752

          k = 0.0216 0.7072 0.0000 (  2860 PWs)   bands (ev):

   -15.4192 -13.4203  -9.6483  -2.8645  -2.1433  -2.0976   8.5822   8.6911

          k = 0.0216 0.7092 0.0000 (  2860 PWs)   bands (ev):

   -15.4105 -13.4300  -9.6496  -2.8375  -2.1706  -2.0989   8.6205   8.7059

          k = 0.0216 0.7112 0.0000 (  2862 PWs)   bands (ev):

   -15.4024 -13.4390  -9.6508  -2.8104  -2.1980  -2.1001   8.6586   8.7197

          k = 0.0216 0.7132 0.0000 (  2866 PWs)   bands (ev):

   -15.3949 -13.4473  -9.6519  -2.7834  -2.2253  -2.1012   8.6963   8.7324

          k = 0.0216 0.7152 0.0000 (  2866 PWs)   bands (ev):

   -15.3881 -13.4548  -9.6529  -2.7565  -2.2524  -2.1021   8.7335   8.7441

          k = 0.0216 0.7172 0.0000 (  2866 PWs)   bands (ev):

   -15.3819 -13.4616  -9.6537  -2.7296  -2.2795  -2.1030   8.7545   8.7701

          k = 0.0216 0.7192 0.0000 (  2866 PWs)   bands (ev):

   -15.3764 -13.4676  -9.6545  -2.7029  -2.3064  -2.1038   8.7639   8.8059

          k = 0.0216 0.7212 0.0000 (  2868 PWs)   bands (ev):

   -15.3717 -13.4729  -9.6552  -2.6764  -2.3331  -2.1044   8.7720   8.8404

          k = 0.0216 0.7232 0.0000 (  2868 PWs)   bands (ev):

   -15.3676 -13.4774  -9.6558  -2.6501  -2.3594  -2.1050   8.7789   8.8732

          k = 0.0216 0.7252 0.0000 (  2872 PWs)   bands (ev):

   -15.3643 -13.4811  -9.6563  -2.6245  -2.3853  -2.1055   8.7846   8.9036

          k = 0.0216 0.7272 0.0000 (  2874 PWs)   bands (ev):

   -15.3617 -13.4839  -9.6567  -2.5998  -2.4100  -2.1058   8.7891   8.9305

          k = 0.0216 0.7292 0.0000 (  2874 PWs)   bands (ev):

   -15.3598 -13.4860  -9.6569  -2.5772  -2.4327  -2.1061   8.7923   8.9521

          k = 0.0216 0.7312 0.0000 (  2874 PWs)   bands (ev):

   -15.3587 -13.4872  -9.6571  -2.5593  -2.4506  -2.1062   8.7942   8.9665

          k = 0.0216 0.7332 0.0000 (  2874 PWs)   bands (ev):

   -15.3583 -13.4876  -9.6571  -2.5518  -2.4581  -2.1063   8.7948   8.9716

          k = 0.0216 0.7352 0.0000 (  2874 PWs)   bands (ev):

   -15.3587 -13.4872  -9.6571  -2.5593  -2.4506  -2.1062   8.7942   8.9665

          k = 0.0216 0.7372 0.0000 (  2874 PWs)   bands (ev):

   -15.3598 -13.4860  -9.6569  -2.5772  -2.4327  -2.1061   8.7923   8.9521

          k = 0.0216 0.7392 0.0000 (  2874 PWs)   bands (ev):

   -15.3617 -13.4839  -9.6567  -2.5998  -2.4100  -2.1058   8.7891   8.9305

          k = 0.0216 0.7412 0.0000 (  2872 PWs)   bands (ev):

   -15.3643 -13.4811  -9.6563  -2.6245  -2.3852  -2.1055   8.7846   8.9036

          k = 0.0216 0.7432 0.0000 (  2868 PWs)   bands (ev):

   -15.3676 -13.4774  -9.6558  -2.6502  -2.3594  -2.1050   8.7789   8.8732

          k = 0.0216 0.7452 0.0000 (  2868 PWs)   bands (ev):

   -15.3717 -13.4729  -9.6552  -2.6764  -2.3331  -2.1044   8.7720   8.8404

          k = 0.0216 0.7472 0.0000 (  2866 PWs)   bands (ev):

   -15.3764 -13.4676  -9.6545  -2.7029  -2.3064  -2.1038   8.7639   8.8058

          k = 0.0216 0.7492 0.0000 (  2866 PWs)   bands (ev):

   -15.3819 -13.4616  -9.6537  -2.7296  -2.2795  -2.1030   8.7545   8.7701

          k = 0.0216 0.7512 0.0000 (  2866 PWs)   bands (ev):

   -15.3881 -13.4548  -9.6529  -2.7565  -2.2524  -2.1021   8.7335   8.7441

          k = 0.0216 0.7532 0.0000 (  2866 PWs)   bands (ev):

   -15.3949 -13.4473  -9.6519  -2.7834  -2.2252  -2.1012   8.6963   8.7324

          k = 0.0216 0.7552 0.0000 (  2862 PWs)   bands (ev):

   -15.4024 -13.4390  -9.6508  -2.8104  -2.1980  -2.1001   8.6586   8.7197

          k = 0.0216 0.7572 0.0000 (  2860 PWs)   bands (ev):

   -15.4105 -13.4300  -9.6496  -2.8375  -2.1706  -2.0989   8.6205   8.7059

          k = 0.0216 0.7592 0.0000 (  2860 PWs)   bands (ev):

   -15.4192 -13.4203  -9.6483  -2.8645  -2.1432  -2.0976   8.5822   8.6911

          k = 0.0216 0.7612 0.0000 (  2860 PWs)   bands (ev):

   -15.4286 -13.4099  -9.6469  -2.8916  -2.1158  -2.0963   8.5436   8.6752

          k = 0.0216 0.7632 0.0000 (  2860 PWs)   bands (ev):

   -15.4385 -13.3989  -9.6454  -2.9187  -2.0948  -2.0884   8.5049   8.6584

          k = 0.0216 0.7652 0.0000 (  2860 PWs)   bands (ev):

   -15.4490 -13.3872  -9.6438  -2.9458  -2.0932  -2.0609   8.4661   8.6407

          k = 0.0216 0.7672 0.0000 (  2861 PWs)   bands (ev):

   -15.4601 -13.3750  -9.6420  -2.9729  -2.0916  -2.0334   8.4272   8.6220

          k = 0.0216 0.7692 0.0000 (  2857 PWs)   bands (ev):

   -15.4717 -13.3621  -9.6402  -3.0000  -2.0898  -2.0059   8.3882   8.6025

          k = 0.0216 0.7712 0.0000 (  2859 PWs)   bands (ev):

   -15.4838 -13.3486  -9.6383  -3.0271  -2.0879  -1.9783   8.3491   8.5822

          k = 0.0216 0.7732 0.0000 (  2859 PWs)   bands (ev):

   -15.4963 -13.3346  -9.6363  -3.0542  -2.0859  -1.9508   8.3100   8.5612

          k = 0.0236 0.6932 0.0000 (  2859 PWs)   bands (ev):

   -15.4964 -13.3338  -9.6399  -3.0542  -2.0797  -1.9511   8.3113   8.5597

          k = 0.0236 0.6952 0.0000 (  2859 PWs)   bands (ev):

   -15.4838 -13.3478  -9.6419  -3.0272  -2.0817  -1.9786   8.3504   8.5806

          k = 0.0236 0.6972 0.0000 (  2857 PWs)   bands (ev):

   -15.4718 -13.3613  -9.6438  -3.0001  -2.0836  -2.0061   8.3894   8.6008

          k = 0.0236 0.6992 0.0000 (  2859 PWs)   bands (ev):

   -15.4602 -13.3741  -9.6457  -2.9730  -2.0854  -2.0336   8.4284   8.6202

          k = 0.0236 0.7012 0.0000 (  2860 PWs)   bands (ev):

   -15.4492 -13.3864  -9.6474  -2.9459  -2.0870  -2.0611   8.4673   8.6387

          k = 0.0236 0.7032 0.0000 (  2860 PWs)   bands (ev):

   -15.4387 -13.3981  -9.6490  -2.9189  -2.0887  -2.0885   8.5062   8.6564

          k = 0.0236 0.7052 0.0000 (  2860 PWs)   bands (ev):

   -15.4287 -13.4091  -9.6505  -2.8918  -2.1160  -2.0901   8.5449   8.6731

          k = 0.0236 0.7072 0.0000 (  2860 PWs)   bands (ev):

   -15.4194 -13.4194  -9.6519  -2.8647  -2.1434  -2.0914   8.5834   8.6888

          k = 0.0236 0.7092 0.0000 (  2860 PWs)   bands (ev):

   -15.4107 -13.4291  -9.6532  -2.8377  -2.1707  -2.0927   8.6217   8.7035

          k = 0.0236 0.7112 0.0000 (  2862 PWs)   bands (ev):

   -15.4025 -13.4381  -9.6544  -2.8106  -2.1980  -2.0939   8.6598   8.7172

          k = 0.0236 0.7132 0.0000 (  2864 PWs)   bands (ev):

   -15.3951 -13.4463  -9.6555  -2.7837  -2.2253  -2.0950   8.6975   8.7299

          k = 0.0236 0.7152 0.0000 (  2866 PWs)   bands (ev):

   -15.3882 -13.4539  -9.6565  -2.7568  -2.2524  -2.0959   8.7347   8.7414

          k = 0.0236 0.7172 0.0000 (  2866 PWs)   bands (ev):

   -15.3821 -13.4607  -9.6574  -2.7299  -2.2795  -2.0968   8.7518   8.7713

          k = 0.0236 0.7192 0.0000 (  2866 PWs)   bands (ev):

   -15.3766 -13.4667  -9.6582  -2.7033  -2.3063  -2.0976   8.7611   8.8070

          k = 0.0236 0.7212 0.0000 (  2866 PWs)   bands (ev):

   -15.3719 -13.4719  -9.6589  -2.6768  -2.3329  -2.0982   8.7691   8.8415

          k = 0.0236 0.7232 0.0000 (  2866 PWs)   bands (ev):

   -15.3678 -13.4764  -9.6594  -2.6507  -2.3592  -2.0988   8.7760   8.8744

          k = 0.0236 0.7252 0.0000 (  2870 PWs)   bands (ev):

   -15.3645 -13.4801  -9.6599  -2.6251  -2.3849  -2.0992   8.7817   8.9047

          k = 0.0236 0.7272 0.0000 (  2872 PWs)   bands (ev):

   -15.3619 -13.4829  -9.6603  -2.6006  -2.4095  -2.0996   8.7861   8.9316

          k = 0.0236 0.7292 0.0000 (  2874 PWs)   bands (ev):

   -15.3600 -13.4850  -9.6606  -2.5782  -2.4320  -2.0998   8.7892   8.9532

          k = 0.0236 0.7312 0.0000 (  2874 PWs)   bands (ev):

   -15.3589 -13.4862  -9.6607  -2.5605  -2.4497  -2.1000   8.7911   8.9676

          k = 0.0236 0.7332 0.0000 (  2874 PWs)   bands (ev):

   -15.3586 -13.4866  -9.6608  -2.5532  -2.4570  -2.1000   8.7918   8.9727

          k = 0.0236 0.7352 0.0000 (  2874 PWs)   bands (ev):

   -15.3589 -13.4862  -9.6607  -2.5605  -2.4497  -2.1000   8.7911   8.9676

          k = 0.0236 0.7372 0.0000 (  2874 PWs)   bands (ev):

   -15.3600 -13.4850  -9.6606  -2.5782  -2.4320  -2.0998   8.7892   8.9532

          k = 0.0236 0.7392 0.0000 (  2872 PWs)   bands (ev):

   -15.3619 -13.4829  -9.6603  -2.6006  -2.4095  -2.0996   8.7861   8.9316

          k = 0.0236 0.7412 0.0000 (  2870 PWs)   bands (ev):

   -15.3645 -13.4801  -9.6599  -2.6251  -2.3849  -2.0992   8.7817   8.9047

          k = 0.0236 0.7432 0.0000 (  2866 PWs)   bands (ev):

   -15.3678 -13.4764  -9.6594  -2.6507  -2.3592  -2.0988   8.7760   8.8744

          k = 0.0236 0.7452 0.0000 (  2866 PWs)   bands (ev):

   -15.3719 -13.4719  -9.6589  -2.6768  -2.3329  -2.0982   8.7691   8.8415

          k = 0.0236 0.7472 0.0000 (  2866 PWs)   bands (ev):

   -15.3766 -13.4667  -9.6582  -2.7033  -2.3063  -2.0976   8.7611   8.8070

          k = 0.0236 0.7492 0.0000 (  2866 PWs)   bands (ev):

   -15.3821 -13.4607  -9.6574  -2.7299  -2.2794  -2.0968   8.7518   8.7713

          k = 0.0236 0.7512 0.0000 (  2866 PWs)   bands (ev):

   -15.3883 -13.4539  -9.6565  -2.7568  -2.2524  -2.0959   8.7347   8.7414

          k = 0.0236 0.7532 0.0000 (  2864 PWs)   bands (ev):

   -15.3951 -13.4463  -9.6555  -2.7837  -2.2253  -2.0950   8.6975   8.7299

          k = 0.0236 0.7552 0.0000 (  2862 PWs)   bands (ev):

   -15.4025 -13.4381  -9.6544  -2.8107  -2.1980  -2.0939   8.6598   8.7172

          k = 0.0236 0.7572 0.0000 (  2860 PWs)   bands (ev):

   -15.4107 -13.4291  -9.6532  -2.8377  -2.1707  -2.0927   8.6217   8.7035

          k = 0.0236 0.7592 0.0000 (  2860 PWs)   bands (ev):

   -15.4194 -13.4194  -9.6519  -2.8647  -2.1434  -2.0914   8.5834   8.6888

          k = 0.0236 0.7612 0.0000 (  2860 PWs)   bands (ev):

   -15.4287 -13.4091  -9.6505  -2.8918  -2.1160  -2.0901   8.5449   8.6731

          k = 0.0236 0.7632 0.0000 (  2860 PWs)   bands (ev):

   -15.4387 -13.3980  -9.6490  -2.9189  -2.0887  -2.0885   8.5062   8.6564

          k = 0.0236 0.7652 0.0000 (  2860 PWs)   bands (ev):

   -15.4492 -13.3864  -9.6474  -2.9460  -2.0870  -2.0611   8.4673   8.6387

          k = 0.0236 0.7672 0.0000 (  2859 PWs)   bands (ev):

   -15.4602 -13.3741  -9.6457  -2.9730  -2.0854  -2.0336   8.4284   8.6202

          k = 0.0236 0.7692 0.0000 (  2857 PWs)   bands (ev):

   -15.4718 -13.3613  -9.6438  -3.0001  -2.0836  -2.0061   8.3894   8.6008

          k = 0.0236 0.7712 0.0000 (  2859 PWs)   bands (ev):

   -15.4838 -13.3478  -9.6419  -3.0272  -2.0817  -1.9786   8.3503   8.5806

          k = 0.0236 0.7732 0.0000 (  2859 PWs)   bands (ev):

   -15.4964 -13.3338  -9.6399  -3.0542  -2.0797  -1.9511   8.3113   8.5597

     Writing all to output data dir ./tmp/graphene27.0upper.save/ :
     XML data file, pseudopotentials, collected wavefunctions

     init_run     :      0.80s CPU      0.84s WALL (       1 calls)
     electrons    :     30.27s CPU     30.45s WALL (       1 calls)

     Called by init_run:
     wfcinit      :      0.00s CPU      0.02s WALL (       1 calls)
     wfcinit:atom :      0.05s CPU      0.05s WALL (     211 calls)
     wfcinit:wfcr :      1.74s CPU      1.74s WALL (     211 calls)
     potinit      :      0.04s CPU      0.04s WALL (       1 calls)
     hinit0       :      0.70s CPU      0.71s WALL (       1 calls)

     Called by electrons:
     c_bands      :     30.26s CPU     30.43s WALL (       1 calls)
     v_of_rho     :      0.03s CPU      0.03s WALL (       1 calls)
     v_h          :      0.00s CPU      0.00s WALL (       1 calls)
     v_xc         :      0.03s CPU      0.03s WALL (       1 calls)
     newd         :      0.00s CPU      0.00s WALL (       1 calls)
     PAW_pot      :      0.01s CPU      0.01s WALL (       1 calls)

     Called by c_bands:
     init_us_2    :      0.06s CPU      0.07s WALL (     211 calls)
     cegterg      :     24.61s CPU     24.75s WALL (     428 calls)

     Called by sum_band:

     Called by *egterg:
     cdiaghg      :      0.46s CPU      0.47s WALL (    6870 calls)
     cegterg:over :      0.87s CPU      0.88s WALL (    6659 calls)
     cegterg:upda :      0.84s CPU      0.85s WALL (    6659 calls)
     cegterg:last :      1.33s CPU      1.33s WALL (    3075 calls)
     h_psi        :     21.52s CPU     21.62s WALL (    7298 calls)
     s_psi        :      0.67s CPU      0.68s WALL (    7298 calls)
     g_psi        :      0.26s CPU      0.27s WALL (    6659 calls)

     Called by h_psi:
     h_psi:calbec :      0.78s CPU      0.79s WALL (    7298 calls)
     vloc_psi     :     19.90s CPU     20.00s WALL (    7298 calls)
     add_vuspsi   :      0.73s CPU      0.74s WALL (    7298 calls)

     General routines
     calbec       :      0.78s CPU      0.78s WALL (    7298 calls)
     fft          :      0.63s CPU      0.63s WALL (      12 calls)
     fftw         :     17.09s CPU     17.18s WALL (   55278 calls)
     davcio       :      0.03s CPU      0.04s WALL (     422 calls)

     Parallel routines

     PAW routines
     PAW_pot      :      0.01s CPU      0.01s WALL (       1 calls)

     PWSCF        :     32.67s CPU     38.84s WALL


   This run was terminated on:   7:39: 0  22Apr2026            

=------------------------------------------------------------------------------=
   JOB DONE.
=------------------------------------------------------------------------------=
