
     Program PWSCF v.7.3.1 starts on 22Apr2026 at  6: 6:25 

     This program is part of the open-source Quantum ESPRESSO suite
     for quantum simulation of materials; please cite
         "P. Giannozzi et al., J. Phys.:Condens. Matter 21 395502 (2009);
         "P. Giannozzi et al., J. Phys.:Condens. Matter 29 465901 (2017);
         "P. Giannozzi et al., J. Chem. Phys. 152 154105 (2020);
          URL http://www.quantum-espresso.org", 
     in publications or presentations arising from this work. More details at
     http://www.quantum-espresso.org/quote

     Parallel version (MPI & OpenMP), running on       8 processor cores
     Number of MPI processes:                 8
     Threads/MPI process:                     1

     MPI processes distributed on     1 nodes
     29031 MiB available memory on the printing compute node when the environment starts

     Reading input from ./io/relax24.0.in

     Current dimensions of program PWSCF are:
     Max number of different atomic species (ntypx) = 10
     Max number of k-points (npk) =  40000
     Max angular momentum in pseudopotentials (lmaxx) =  4
     file C.pbe-n-kjpaw_psl.1.0.0.UPF: wavefunction(s)  2S 2P renormalized

     IMPORTANT: XC functional enforced from input :
     Exchange-correlation= PBE
                           (   1   4   3   4   0   0   0)
     Any further DFT definition will be discarded
     Please, verify this is what you really want


     K-points division:     npool     =       8
     Subspace diagonalization in iterative solution of the eigenvalue problem:
     a serial algorithm will be used


     G-vector sticks info
     --------------------
     sticks:   dense  smooth     PW     G-vecs:    dense   smooth      PW
     Sum         287     287     99                22213    22213    4735

     Using Slab Decomposition



     bravais-lattice index     =            0
     lattice parameter (alat)  =       5.7361  a.u.
     unit-cell volume          =     651.4003 (a.u.)^3
     number of atoms/cell      =            2
     number of atomic types    =            1
     number of electrons       =         8.00
     number of Kohn-Sham states=            8
     kinetic-energy cutoff     =      40.0000  Ry
     charge density cutoff     =     160.0000  Ry
     scf convergence threshold =      1.0E-08
     mixing beta               =       0.7000
     number of iterations used =            8  plain     mixing
     energy convergence thresh.=      1.0E-05
     force convergence thresh. =      1.0E-04
     Exchange-correlation= PBE
                           (   1   4   3   4   0   0   0)
     nstep                     =           50


     celldm(1)=   5.736145  celldm(2)=   0.000000  celldm(3)=   0.000000
     celldm(4)=   0.000000  celldm(5)=   0.000000  celldm(6)=   0.000000

     crystal axes: (cart. coord. in units of alat)
               a(1) = (   1.000000   0.000000   0.000000 )  
               a(2) = (   0.500000   0.698408   0.000000 )  
               a(3) = (   0.000000   0.000000   4.941726 )  

     reciprocal axes: (cart. coord. in units 2 pi/alat)
               b(1) = (  1.000000 -0.715914  0.000000 )  
               b(2) = (  0.000000  1.431829  0.000000 )  
               b(3) = (  0.000000  0.000000  0.202358 )  


     PseudoPot. # 1 for C  read from file:
     ./C.pbe-n-kjpaw_psl.1.0.0.UPF
     MD5 check sum: 5f16ad9a65e90284d1d834d4ab3b0f7d
     Pseudo is Projector augmented-wave + core cor, Zval =  4.0
     Generated using &quot;atomic&quot; code by A. Dal Corso  v.6.3
     Shape of augmentation charge: PSQ
     Using radial grid of 1073 points,  4 beta functions with: 
                l(1) =   0
                l(2) =   0
                l(3) =   1
                l(4) =   1
     Q(r) pseudized with 0 coefficients 


     atomic species   valence    mass     pseudopotential
     C                 4.00    12.01100     C ( 1.00)

     No symmetry found


                                    s                        frac. trans.

      isym =  1     identity                                     

 cryst.   s( 1) = (     1          0          0      )
                  (     0          1          0      )
                  (     0          0          1      )

 cart.    s( 1) = (  1.0000000  0.0000000  0.0000000 )
                  (  0.0000000  1.0000000  0.0000000 )
                  (  0.0000000  0.0000000  1.0000000 )


   Cartesian axes

     site n.     atom                  positions (alat units)
         1        C      tau(   1) = (   0.0000230  -0.0028746   0.0000000  )
         2        C      tau(   2) = (   0.4999765   0.2356769   0.0000000  )

   Crystallographic axes

     site n.     atom                  positions (cryst. coord.)
         1        C      tau(   1) = (  0.0020810 -0.0041160  0.0000000  )
         2        C      tau(   2) = (  0.3312520  0.3374490  0.0000000  )

     number of k points=   576  Marzari-Vanderbilt smearing, width (Ry)=  0.0200
                       cart. coord. in units 2pi/alat
        k(    1) = (   0.0000000   0.0000000   0.0000000), wk =   0.0034722
        k(    2) = (   0.0000000   0.0596595   0.0000000), wk =   0.0034722
        k(    3) = (   0.0000000   0.1193191   0.0000000), wk =   0.0034722
        k(    4) = (   0.0000000   0.1789786   0.0000000), wk =   0.0034722
        k(    5) = (   0.0000000   0.2386381   0.0000000), wk =   0.0034722
        k(    6) = (   0.0000000   0.2982977   0.0000000), wk =   0.0034722
        k(    7) = (   0.0000000   0.3579572   0.0000000), wk =   0.0034722
        k(    8) = (   0.0000000   0.4176167   0.0000000), wk =   0.0034722
        k(    9) = (   0.0000000   0.4772762   0.0000000), wk =   0.0034722
        k(   10) = (   0.0000000   0.5369358   0.0000000), wk =   0.0034722
        k(   11) = (   0.0000000   0.5965953   0.0000000), wk =   0.0034722
        k(   12) = (   0.0000000   0.6562548   0.0000000), wk =   0.0034722
        k(   13) = (   0.0000000  -0.7159144   0.0000000), wk =   0.0034722
        k(   14) = (   0.0000000  -0.6562548   0.0000000), wk =   0.0034722
        k(   15) = (   0.0000000  -0.5965953   0.0000000), wk =   0.0034722
        k(   16) = (   0.0000000  -0.5369358   0.0000000), wk =   0.0034722
        k(   17) = (   0.0000000  -0.4772762   0.0000000), wk =   0.0034722
        k(   18) = (   0.0000000  -0.4176167   0.0000000), wk =   0.0034722
        k(   19) = (   0.0000000  -0.3579572   0.0000000), wk =   0.0034722
        k(   20) = (   0.0000000  -0.2982977   0.0000000), wk =   0.0034722
        k(   21) = (   0.0000000  -0.2386381   0.0000000), wk =   0.0034722
        k(   22) = (   0.0000000  -0.1789786   0.0000000), wk =   0.0034722
        k(   23) = (   0.0000000  -0.1193191   0.0000000), wk =   0.0034722
        k(   24) = (   0.0000000  -0.0596595   0.0000000), wk =   0.0034722
        k(   25) = (   0.0416667  -0.0298298   0.0000000), wk =   0.0034722
        k(   26) = (   0.0416667   0.0298298   0.0000000), wk =   0.0034722
        k(   27) = (   0.0416667   0.0894893   0.0000000), wk =   0.0034722
        k(   28) = (   0.0416667   0.1491488   0.0000000), wk =   0.0034722
        k(   29) = (   0.0416667   0.2088084   0.0000000), wk =   0.0034722
        k(   30) = (   0.0416667   0.2684679   0.0000000), wk =   0.0034722
        k(   31) = (   0.0416667   0.3281274   0.0000000), wk =   0.0034722
        k(   32) = (   0.0416667   0.3877869   0.0000000), wk =   0.0034722
        k(   33) = (   0.0416667   0.4474465   0.0000000), wk =   0.0034722
        k(   34) = (   0.0416667   0.5071060   0.0000000), wk =   0.0034722
        k(   35) = (   0.0416667   0.5667655   0.0000000), wk =   0.0034722
        k(   36) = (   0.0416667   0.6264251   0.0000000), wk =   0.0034722
        k(   37) = (   0.0416667  -0.7457441   0.0000000), wk =   0.0034722
        k(   38) = (   0.0416667  -0.6860846   0.0000000), wk =   0.0034722
        k(   39) = (   0.0416667  -0.6264251   0.0000000), wk =   0.0034722
        k(   40) = (   0.0416667  -0.5667655   0.0000000), wk =   0.0034722
        k(   41) = (   0.0416667  -0.5071060   0.0000000), wk =   0.0034722
        k(   42) = (   0.0416667  -0.4474465   0.0000000), wk =   0.0034722
        k(   43) = (   0.0416667  -0.3877870   0.0000000), wk =   0.0034722
        k(   44) = (   0.0416667  -0.3281274   0.0000000), wk =   0.0034722
        k(   45) = (   0.0416667  -0.2684679   0.0000000), wk =   0.0034722
        k(   46) = (   0.0416667  -0.2088084   0.0000000), wk =   0.0034722
        k(   47) = (   0.0416667  -0.1491488   0.0000000), wk =   0.0034722
        k(   48) = (   0.0416667  -0.0894893   0.0000000), wk =   0.0034722
        k(   49) = (   0.0833333  -0.0596595   0.0000000), wk =   0.0034722
        k(   50) = (   0.0833333  -0.0000000   0.0000000), wk =   0.0034722
        k(   51) = (   0.0833333   0.0596595   0.0000000), wk =   0.0034722
        k(   52) = (   0.0833333   0.1193191   0.0000000), wk =   0.0034722
        k(   53) = (   0.0833333   0.1789786   0.0000000), wk =   0.0034722
        k(   54) = (   0.0833333   0.2386381   0.0000000), wk =   0.0034722
        k(   55) = (   0.0833333   0.2982976   0.0000000), wk =   0.0034722
        k(   56) = (   0.0833333   0.3579572   0.0000000), wk =   0.0034722
        k(   57) = (   0.0833333   0.4176167   0.0000000), wk =   0.0034722
        k(   58) = (   0.0833333   0.4772762   0.0000000), wk =   0.0034722
        k(   59) = (   0.0833333   0.5369358   0.0000000), wk =   0.0034722
        k(   60) = (   0.0833333   0.5965953   0.0000000), wk =   0.0034722
        k(   61) = (   0.0833333  -0.7755739   0.0000000), wk =   0.0034722
        k(   62) = (   0.0833333  -0.7159144   0.0000000), wk =   0.0034722
        k(   63) = (   0.0833333  -0.6562548   0.0000000), wk =   0.0034722
        k(   64) = (   0.0833333  -0.5965953   0.0000000), wk =   0.0034722
        k(   65) = (   0.0833333  -0.5369358   0.0000000), wk =   0.0034722
        k(   66) = (   0.0833333  -0.4772763   0.0000000), wk =   0.0034722
        k(   67) = (   0.0833333  -0.4176167   0.0000000), wk =   0.0034722
        k(   68) = (   0.0833333  -0.3579572   0.0000000), wk =   0.0034722
        k(   69) = (   0.0833333  -0.2982977   0.0000000), wk =   0.0034722
        k(   70) = (   0.0833333  -0.2386381   0.0000000), wk =   0.0034722
        k(   71) = (   0.0833333  -0.1789786   0.0000000), wk =   0.0034722
        k(   72) = (   0.0833333  -0.1193191   0.0000000), wk =   0.0034722
        k(   73) = (   0.1250000  -0.0894893   0.0000000), wk =   0.0034722
        k(   74) = (   0.1250000  -0.0298298   0.0000000), wk =   0.0034722
        k(   75) = (   0.1250000   0.0298297   0.0000000), wk =   0.0034722
        k(   76) = (   0.1250000   0.0894893   0.0000000), wk =   0.0034722
        k(   77) = (   0.1250000   0.1491488   0.0000000), wk =   0.0034722
        k(   78) = (   0.1250000   0.2088083   0.0000000), wk =   0.0034722
        k(   79) = (   0.1250000   0.2684679   0.0000000), wk =   0.0034722
        k(   80) = (   0.1250000   0.3281274   0.0000000), wk =   0.0034722
        k(   81) = (   0.1250000   0.3877869   0.0000000), wk =   0.0034722
        k(   82) = (   0.1250000   0.4474465   0.0000000), wk =   0.0034722
        k(   83) = (   0.1250000   0.5071060   0.0000000), wk =   0.0034722
        k(   84) = (   0.1250000   0.5667655   0.0000000), wk =   0.0034722
        k(   85) = (   0.1250000  -0.8054037   0.0000000), wk =   0.0034722
        k(   86) = (   0.1250000  -0.7457441   0.0000000), wk =   0.0034722
        k(   87) = (   0.1250000  -0.6860846   0.0000000), wk =   0.0034722
        k(   88) = (   0.1250000  -0.6264251   0.0000000), wk =   0.0034722
        k(   89) = (   0.1250000  -0.5667656   0.0000000), wk =   0.0034722
        k(   90) = (   0.1250000  -0.5071060   0.0000000), wk =   0.0034722
        k(   91) = (   0.1250000  -0.4474465   0.0000000), wk =   0.0034722
        k(   92) = (   0.1250000  -0.3877870   0.0000000), wk =   0.0034722
        k(   93) = (   0.1250000  -0.3281274   0.0000000), wk =   0.0034722
        k(   94) = (   0.1250000  -0.2684679   0.0000000), wk =   0.0034722
        k(   95) = (   0.1250000  -0.2088084   0.0000000), wk =   0.0034722
        k(   96) = (   0.1250000  -0.1491488   0.0000000), wk =   0.0034722
        k(   97) = (   0.1666667  -0.1193191   0.0000000), wk =   0.0034722
        k(   98) = (   0.1666667  -0.0596596   0.0000000), wk =   0.0034722
        k(   99) = (   0.1666667  -0.0000000   0.0000000), wk =   0.0034722
        k(  100) = (   0.1666667   0.0596595   0.0000000), wk =   0.0034722
        k(  101) = (   0.1666667   0.1193190   0.0000000), wk =   0.0034722
        k(  102) = (   0.1666667   0.1789786   0.0000000), wk =   0.0034722
        k(  103) = (   0.1666667   0.2386381   0.0000000), wk =   0.0034722
        k(  104) = (   0.1666667   0.2982976   0.0000000), wk =   0.0034722
        k(  105) = (   0.1666667   0.3579572   0.0000000), wk =   0.0034722
        k(  106) = (   0.1666667   0.4176167   0.0000000), wk =   0.0034722
        k(  107) = (   0.1666667   0.4772762   0.0000000), wk =   0.0034722
        k(  108) = (   0.1666667   0.5369358   0.0000000), wk =   0.0034722
        k(  109) = (   0.1666667  -0.8352334   0.0000000), wk =   0.0034722
        k(  110) = (   0.1666667  -0.7755739   0.0000000), wk =   0.0034722
        k(  111) = (   0.1666667  -0.7159144   0.0000000), wk =   0.0034722
        k(  112) = (   0.1666667  -0.6562549   0.0000000), wk =   0.0034722
        k(  113) = (   0.1666667  -0.5965953   0.0000000), wk =   0.0034722
        k(  114) = (   0.1666667  -0.5369358   0.0000000), wk =   0.0034722
        k(  115) = (   0.1666667  -0.4772763   0.0000000), wk =   0.0034722
        k(  116) = (   0.1666667  -0.4176167   0.0000000), wk =   0.0034722
        k(  117) = (   0.1666667  -0.3579572   0.0000000), wk =   0.0034722
        k(  118) = (   0.1666667  -0.2982977   0.0000000), wk =   0.0034722
        k(  119) = (   0.1666667  -0.2386381   0.0000000), wk =   0.0034722
        k(  120) = (   0.1666667  -0.1789786   0.0000000), wk =   0.0034722
        k(  121) = (   0.2083333  -0.1491489   0.0000000), wk =   0.0034722
        k(  122) = (   0.2083333  -0.0894893   0.0000000), wk =   0.0034722
        k(  123) = (   0.2083333  -0.0298298   0.0000000), wk =   0.0034722
        k(  124) = (   0.2083333   0.0298297   0.0000000), wk =   0.0034722
        k(  125) = (   0.2083333   0.0894893   0.0000000), wk =   0.0034722
        k(  126) = (   0.2083333   0.1491488   0.0000000), wk =   0.0034722
        k(  127) = (   0.2083333   0.2088083   0.0000000), wk =   0.0034722
        k(  128) = (   0.2083333   0.2684679   0.0000000), wk =   0.0034722
        k(  129) = (   0.2083333   0.3281274   0.0000000), wk =   0.0034722
        k(  130) = (   0.2083333   0.3877869   0.0000000), wk =   0.0034722
        k(  131) = (   0.2083333   0.4474465   0.0000000), wk =   0.0034722
        k(  132) = (   0.2083333   0.5071060   0.0000000), wk =   0.0034722
        k(  133) = (   0.2083333  -0.8650632   0.0000000), wk =   0.0034722
        k(  134) = (   0.2083333  -0.8054037   0.0000000), wk =   0.0034722
        k(  135) = (   0.2083333  -0.7457442   0.0000000), wk =   0.0034722
        k(  136) = (   0.2083333  -0.6860846   0.0000000), wk =   0.0034722
        k(  137) = (   0.2083333  -0.6264251   0.0000000), wk =   0.0034722
        k(  138) = (   0.2083333  -0.5667656   0.0000000), wk =   0.0034722
        k(  139) = (   0.2083333  -0.5071060   0.0000000), wk =   0.0034722
        k(  140) = (   0.2083333  -0.4474465   0.0000000), wk =   0.0034722
        k(  141) = (   0.2083333  -0.3877870   0.0000000), wk =   0.0034722
        k(  142) = (   0.2083333  -0.3281274   0.0000000), wk =   0.0034722
        k(  143) = (   0.2083333  -0.2684679   0.0000000), wk =   0.0034722
        k(  144) = (   0.2083333  -0.2088084   0.0000000), wk =   0.0034722
        k(  145) = (   0.2500000  -0.1789786   0.0000000), wk =   0.0034722
        k(  146) = (   0.2500000  -0.1193191   0.0000000), wk =   0.0034722
        k(  147) = (   0.2500000  -0.0596596   0.0000000), wk =   0.0034722
        k(  148) = (   0.2500000  -0.0000000   0.0000000), wk =   0.0034722
        k(  149) = (   0.2500000   0.0596595   0.0000000), wk =   0.0034722
        k(  150) = (   0.2500000   0.1193190   0.0000000), wk =   0.0034722
        k(  151) = (   0.2500000   0.1789786   0.0000000), wk =   0.0034722
        k(  152) = (   0.2500000   0.2386381   0.0000000), wk =   0.0034722
        k(  153) = (   0.2500000   0.2982976   0.0000000), wk =   0.0034722
        k(  154) = (   0.2500000   0.3579572   0.0000000), wk =   0.0034722
        k(  155) = (   0.2500000   0.4176167   0.0000000), wk =   0.0034722
        k(  156) = (   0.2500000   0.4772762   0.0000000), wk =   0.0034722
        k(  157) = (   0.2500000  -0.8948930   0.0000000), wk =   0.0034722
        k(  158) = (   0.2500000  -0.8352335   0.0000000), wk =   0.0034722
        k(  159) = (   0.2500000  -0.7755739   0.0000000), wk =   0.0034722
        k(  160) = (   0.2500000  -0.7159144   0.0000000), wk =   0.0034722
        k(  161) = (   0.2500000  -0.6562549   0.0000000), wk =   0.0034722
        k(  162) = (   0.2500000  -0.5965953   0.0000000), wk =   0.0034722
        k(  163) = (   0.2500000  -0.5369358   0.0000000), wk =   0.0034722
        k(  164) = (   0.2500000  -0.4772763   0.0000000), wk =   0.0034722
        k(  165) = (   0.2500000  -0.4176167   0.0000000), wk =   0.0034722
        k(  166) = (   0.2500000  -0.3579572   0.0000000), wk =   0.0034722
        k(  167) = (   0.2500000  -0.2982977   0.0000000), wk =   0.0034722
        k(  168) = (   0.2500000  -0.2386382   0.0000000), wk =   0.0034722
        k(  169) = (   0.2916667  -0.2088084   0.0000000), wk =   0.0034722
        k(  170) = (   0.2916667  -0.1491489   0.0000000), wk =   0.0034722
        k(  171) = (   0.2916667  -0.0894893   0.0000000), wk =   0.0034722
        k(  172) = (   0.2916667  -0.0298298   0.0000000), wk =   0.0034722
        k(  173) = (   0.2916667   0.0298297   0.0000000), wk =   0.0034722
        k(  174) = (   0.2916667   0.0894893   0.0000000), wk =   0.0034722
        k(  175) = (   0.2916667   0.1491488   0.0000000), wk =   0.0034722
        k(  176) = (   0.2916667   0.2088083   0.0000000), wk =   0.0034722
        k(  177) = (   0.2916667   0.2684679   0.0000000), wk =   0.0034722
        k(  178) = (   0.2916667   0.3281274   0.0000000), wk =   0.0034722
        k(  179) = (   0.2916667   0.3877869   0.0000000), wk =   0.0034722
        k(  180) = (   0.2916667   0.4474464   0.0000000), wk =   0.0034722
        k(  181) = (   0.2916667  -0.9247228   0.0000000), wk =   0.0034722
        k(  182) = (   0.2916667  -0.8650632   0.0000000), wk =   0.0034722
        k(  183) = (   0.2916667  -0.8054037   0.0000000), wk =   0.0034722
        k(  184) = (   0.2916667  -0.7457442   0.0000000), wk =   0.0034722
        k(  185) = (   0.2916667  -0.6860846   0.0000000), wk =   0.0034722
        k(  186) = (   0.2916667  -0.6264251   0.0000000), wk =   0.0034722
        k(  187) = (   0.2916667  -0.5667656   0.0000000), wk =   0.0034722
        k(  188) = (   0.2916667  -0.5071060   0.0000000), wk =   0.0034722
        k(  189) = (   0.2916667  -0.4474465   0.0000000), wk =   0.0034722
        k(  190) = (   0.2916667  -0.3877870   0.0000000), wk =   0.0034722
        k(  191) = (   0.2916667  -0.3281275   0.0000000), wk =   0.0034722
        k(  192) = (   0.2916667  -0.2684679   0.0000000), wk =   0.0034722
        k(  193) = (   0.3333333  -0.2386382   0.0000000), wk =   0.0034722
        k(  194) = (   0.3333333  -0.1789786   0.0000000), wk =   0.0034722
        k(  195) = (   0.3333333  -0.1193191   0.0000000), wk =   0.0034722
        k(  196) = (   0.3333333  -0.0596596   0.0000000), wk =   0.0034722
        k(  197) = (   0.3333333  -0.0000000   0.0000000), wk =   0.0034722
        k(  198) = (   0.3333333   0.0596595   0.0000000), wk =   0.0034722
        k(  199) = (   0.3333333   0.1193190   0.0000000), wk =   0.0034722
        k(  200) = (   0.3333333   0.1789785   0.0000000), wk =   0.0034722
        k(  201) = (   0.3333333   0.2386381   0.0000000), wk =   0.0034722
        k(  202) = (   0.3333333   0.2982976   0.0000000), wk =   0.0034722
        k(  203) = (   0.3333333   0.3579571   0.0000000), wk =   0.0034722
        k(  204) = (   0.3333333   0.4176167   0.0000000), wk =   0.0034722
        k(  205) = (   0.3333333  -0.9545525   0.0000000), wk =   0.0034722
        k(  206) = (   0.3333333  -0.8948930   0.0000000), wk =   0.0034722
        k(  207) = (   0.3333333  -0.8352335   0.0000000), wk =   0.0034722
        k(  208) = (   0.3333333  -0.7755739   0.0000000), wk =   0.0034722
        k(  209) = (   0.3333333  -0.7159144   0.0000000), wk =   0.0034722
        k(  210) = (   0.3333333  -0.6562549   0.0000000), wk =   0.0034722
        k(  211) = (   0.3333333  -0.5965953   0.0000000), wk =   0.0034722
        k(  212) = (   0.3333333  -0.5369358   0.0000000), wk =   0.0034722
        k(  213) = (   0.3333333  -0.4772763   0.0000000), wk =   0.0034722
        k(  214) = (   0.3333333  -0.4176168   0.0000000), wk =   0.0034722
        k(  215) = (   0.3333333  -0.3579572   0.0000000), wk =   0.0034722
        k(  216) = (   0.3333333  -0.2982977   0.0000000), wk =   0.0034722
        k(  217) = (   0.3750000  -0.2684679   0.0000000), wk =   0.0034722
        k(  218) = (   0.3750000  -0.2088084   0.0000000), wk =   0.0034722
        k(  219) = (   0.3750000  -0.1491489   0.0000000), wk =   0.0034722
        k(  220) = (   0.3750000  -0.0894893   0.0000000), wk =   0.0034722
        k(  221) = (   0.3750000  -0.0298298   0.0000000), wk =   0.0034722
        k(  222) = (   0.3750000   0.0298297   0.0000000), wk =   0.0034722
        k(  223) = (   0.3750000   0.0894892   0.0000000), wk =   0.0034722
        k(  224) = (   0.3750000   0.1491488   0.0000000), wk =   0.0034722
        k(  225) = (   0.3750000   0.2088083   0.0000000), wk =   0.0034722
        k(  226) = (   0.3750000   0.2684678   0.0000000), wk =   0.0034722
        k(  227) = (   0.3750000   0.3281274   0.0000000), wk =   0.0034722
        k(  228) = (   0.3750000   0.3877869   0.0000000), wk =   0.0034722
        k(  229) = (   0.3750000  -0.9843823   0.0000000), wk =   0.0034722
        k(  230) = (   0.3750000  -0.9247228   0.0000000), wk =   0.0034722
        k(  231) = (   0.3750000  -0.8650632   0.0000000), wk =   0.0034722
        k(  232) = (   0.3750000  -0.8054037   0.0000000), wk =   0.0034722
        k(  233) = (   0.3750000  -0.7457442   0.0000000), wk =   0.0034722
        k(  234) = (   0.3750000  -0.6860846   0.0000000), wk =   0.0034722
        k(  235) = (   0.3750000  -0.6264251   0.0000000), wk =   0.0034722
        k(  236) = (   0.3750000  -0.5667656   0.0000000), wk =   0.0034722
        k(  237) = (   0.3750000  -0.5071061   0.0000000), wk =   0.0034722
        k(  238) = (   0.3750000  -0.4474465   0.0000000), wk =   0.0034722
        k(  239) = (   0.3750000  -0.3877870   0.0000000), wk =   0.0034722
        k(  240) = (   0.3750000  -0.3281275   0.0000000), wk =   0.0034722
        k(  241) = (   0.4166667  -0.2982977   0.0000000), wk =   0.0034722
        k(  242) = (   0.4166667  -0.2386382   0.0000000), wk =   0.0034722
        k(  243) = (   0.4166667  -0.1789786   0.0000000), wk =   0.0034722
        k(  244) = (   0.4166667  -0.1193191   0.0000000), wk =   0.0034722
        k(  245) = (   0.4166667  -0.0596596   0.0000000), wk =   0.0034722
        k(  246) = (   0.4166667  -0.0000001   0.0000000), wk =   0.0034722
        k(  247) = (   0.4166667   0.0596595   0.0000000), wk =   0.0034722
        k(  248) = (   0.4166667   0.1193190   0.0000000), wk =   0.0034722
        k(  249) = (   0.4166667   0.1789785   0.0000000), wk =   0.0034722
        k(  250) = (   0.4166667   0.2386381   0.0000000), wk =   0.0034722
        k(  251) = (   0.4166667   0.2982976   0.0000000), wk =   0.0034722
        k(  252) = (   0.4166667   0.3579571   0.0000000), wk =   0.0034722
        k(  253) = (   0.4166667  -1.0142121   0.0000000), wk =   0.0034722
        k(  254) = (   0.4166667  -0.9545525   0.0000000), wk =   0.0034722
        k(  255) = (   0.4166667  -0.8948930   0.0000000), wk =   0.0034722
        k(  256) = (   0.4166667  -0.8352335   0.0000000), wk =   0.0034722
        k(  257) = (   0.4166667  -0.7755739   0.0000000), wk =   0.0034722
        k(  258) = (   0.4166667  -0.7159144   0.0000000), wk =   0.0034722
        k(  259) = (   0.4166667  -0.6562549   0.0000000), wk =   0.0034722
        k(  260) = (   0.4166667  -0.5965954   0.0000000), wk =   0.0034722
        k(  261) = (   0.4166667  -0.5369358   0.0000000), wk =   0.0034722
        k(  262) = (   0.4166667  -0.4772763   0.0000000), wk =   0.0034722
        k(  263) = (   0.4166667  -0.4176168   0.0000000), wk =   0.0034722
        k(  264) = (   0.4166667  -0.3579572   0.0000000), wk =   0.0034722
        k(  265) = (   0.4583333  -0.3281275   0.0000000), wk =   0.0034722
        k(  266) = (   0.4583333  -0.2684679   0.0000000), wk =   0.0034722
        k(  267) = (   0.4583333  -0.2088084   0.0000000), wk =   0.0034722
        k(  268) = (   0.4583333  -0.1491489   0.0000000), wk =   0.0034722
        k(  269) = (   0.4583333  -0.0894894   0.0000000), wk =   0.0034722
        k(  270) = (   0.4583333  -0.0298298   0.0000000), wk =   0.0034722
        k(  271) = (   0.4583333   0.0298297   0.0000000), wk =   0.0034722
        k(  272) = (   0.4583333   0.0894892   0.0000000), wk =   0.0034722
        k(  273) = (   0.4583333   0.1491488   0.0000000), wk =   0.0034722
        k(  274) = (   0.4583333   0.2088083   0.0000000), wk =   0.0034722
        k(  275) = (   0.4583333   0.2684678   0.0000000), wk =   0.0034722
        k(  276) = (   0.4583333   0.3281274   0.0000000), wk =   0.0034722
        k(  277) = (   0.4583333  -1.0440418   0.0000000), wk =   0.0034722
        k(  278) = (   0.4583333  -0.9843823   0.0000000), wk =   0.0034722
        k(  279) = (   0.4583333  -0.9247228   0.0000000), wk =   0.0034722
        k(  280) = (   0.4583333  -0.8650632   0.0000000), wk =   0.0034722
        k(  281) = (   0.4583333  -0.8054037   0.0000000), wk =   0.0034722
        k(  282) = (   0.4583333  -0.7457442   0.0000000), wk =   0.0034722
        k(  283) = (   0.4583333  -0.6860847   0.0000000), wk =   0.0034722
        k(  284) = (   0.4583333  -0.6264251   0.0000000), wk =   0.0034722
        k(  285) = (   0.4583333  -0.5667656   0.0000000), wk =   0.0034722
        k(  286) = (   0.4583333  -0.5071061   0.0000000), wk =   0.0034722
        k(  287) = (   0.4583333  -0.4474465   0.0000000), wk =   0.0034722
        k(  288) = (   0.4583333  -0.3877870   0.0000000), wk =   0.0034722
        k(  289) = (  -0.5000000   0.3579572   0.0000000), wk =   0.0034722
        k(  290) = (  -0.5000000   0.4176168   0.0000000), wk =   0.0034722
        k(  291) = (  -0.5000000   0.4772763   0.0000000), wk =   0.0034722
        k(  292) = (  -0.5000000   0.5369358   0.0000000), wk =   0.0034722
        k(  293) = (  -0.5000000   0.5965954   0.0000000), wk =   0.0034722
        k(  294) = (  -0.5000000   0.6562549   0.0000000), wk =   0.0034722
        k(  295) = (  -0.5000000   0.7159144   0.0000000), wk =   0.0034722
        k(  296) = (  -0.5000000   0.7755740   0.0000000), wk =   0.0034722
        k(  297) = (  -0.5000000   0.8352335   0.0000000), wk =   0.0034722
        k(  298) = (  -0.5000000   0.8948930   0.0000000), wk =   0.0034722
        k(  299) = (  -0.5000000   0.9545525   0.0000000), wk =   0.0034722
        k(  300) = (  -0.5000000   1.0142121   0.0000000), wk =   0.0034722
        k(  301) = (  -0.5000000  -0.3579571   0.0000000), wk =   0.0034722
        k(  302) = (  -0.5000000  -0.2982976   0.0000000), wk =   0.0034722
        k(  303) = (  -0.5000000  -0.2386381   0.0000000), wk =   0.0034722
        k(  304) = (  -0.5000000  -0.1789785   0.0000000), wk =   0.0034722
        k(  305) = (  -0.5000000  -0.1193190   0.0000000), wk =   0.0034722
        k(  306) = (  -0.5000000  -0.0596595   0.0000000), wk =   0.0034722
        k(  307) = (  -0.5000000   0.0000001   0.0000000), wk =   0.0034722
        k(  308) = (  -0.5000000   0.0596596   0.0000000), wk =   0.0034722
        k(  309) = (  -0.5000000   0.1193191   0.0000000), wk =   0.0034722
        k(  310) = (  -0.5000000   0.1789787   0.0000000), wk =   0.0034722
        k(  311) = (  -0.5000000   0.2386382   0.0000000), wk =   0.0034722
        k(  312) = (  -0.5000000   0.2982977   0.0000000), wk =   0.0034722
        k(  313) = (  -0.4583333   0.3281275   0.0000000), wk =   0.0034722
        k(  314) = (  -0.4583333   0.3877870   0.0000000), wk =   0.0034722
        k(  315) = (  -0.4583333   0.4474465   0.0000000), wk =   0.0034722
        k(  316) = (  -0.4583333   0.5071061   0.0000000), wk =   0.0034722
        k(  317) = (  -0.4583333   0.5667656   0.0000000), wk =   0.0034722
        k(  318) = (  -0.4583333   0.6264251   0.0000000), wk =   0.0034722
        k(  319) = (  -0.4583333   0.6860847   0.0000000), wk =   0.0034722
        k(  320) = (  -0.4583333   0.7457442   0.0000000), wk =   0.0034722
        k(  321) = (  -0.4583333   0.8054037   0.0000000), wk =   0.0034722
        k(  322) = (  -0.4583333   0.8650632   0.0000000), wk =   0.0034722
        k(  323) = (  -0.4583333   0.9247228   0.0000000), wk =   0.0034722
        k(  324) = (  -0.4583333   0.9843823   0.0000000), wk =   0.0034722
        k(  325) = (  -0.4583333  -0.3877869   0.0000000), wk =   0.0034722
        k(  326) = (  -0.4583333  -0.3281274   0.0000000), wk =   0.0034722
        k(  327) = (  -0.4583333  -0.2684678   0.0000000), wk =   0.0034722
        k(  328) = (  -0.4583333  -0.2088083   0.0000000), wk =   0.0034722
        k(  329) = (  -0.4583333  -0.1491488   0.0000000), wk =   0.0034722
        k(  330) = (  -0.4583333  -0.0894892   0.0000000), wk =   0.0034722
        k(  331) = (  -0.4583333  -0.0298297   0.0000000), wk =   0.0034722
        k(  332) = (  -0.4583333   0.0298298   0.0000000), wk =   0.0034722
        k(  333) = (  -0.4583333   0.0894894   0.0000000), wk =   0.0034722
        k(  334) = (  -0.4583333   0.1491489   0.0000000), wk =   0.0034722
        k(  335) = (  -0.4583333   0.2088084   0.0000000), wk =   0.0034722
        k(  336) = (  -0.4583333   0.2684679   0.0000000), wk =   0.0034722
        k(  337) = (  -0.4166667   0.2982977   0.0000000), wk =   0.0034722
        k(  338) = (  -0.4166667   0.3579572   0.0000000), wk =   0.0034722
        k(  339) = (  -0.4166667   0.4176168   0.0000000), wk =   0.0034722
        k(  340) = (  -0.4166667   0.4772763   0.0000000), wk =   0.0034722
        k(  341) = (  -0.4166667   0.5369358   0.0000000), wk =   0.0034722
        k(  342) = (  -0.4166667   0.5965954   0.0000000), wk =   0.0034722
        k(  343) = (  -0.4166667   0.6562549   0.0000000), wk =   0.0034722
        k(  344) = (  -0.4166667   0.7159144   0.0000000), wk =   0.0034722
        k(  345) = (  -0.4166667   0.7755739   0.0000000), wk =   0.0034722
        k(  346) = (  -0.4166667   0.8352335   0.0000000), wk =   0.0034722
        k(  347) = (  -0.4166667   0.8948930   0.0000000), wk =   0.0034722
        k(  348) = (  -0.4166667   0.9545525   0.0000000), wk =   0.0034722
        k(  349) = (  -0.4166667  -0.4176167   0.0000000), wk =   0.0034722
        k(  350) = (  -0.4166667  -0.3579571   0.0000000), wk =   0.0034722
        k(  351) = (  -0.4166667  -0.2982976   0.0000000), wk =   0.0034722
        k(  352) = (  -0.4166667  -0.2386381   0.0000000), wk =   0.0034722
        k(  353) = (  -0.4166667  -0.1789785   0.0000000), wk =   0.0034722
        k(  354) = (  -0.4166667  -0.1193190   0.0000000), wk =   0.0034722
        k(  355) = (  -0.4166667  -0.0596595   0.0000000), wk =   0.0034722
        k(  356) = (  -0.4166667   0.0000001   0.0000000), wk =   0.0034722
        k(  357) = (  -0.4166667   0.0596596   0.0000000), wk =   0.0034722
        k(  358) = (  -0.4166667   0.1193191   0.0000000), wk =   0.0034722
        k(  359) = (  -0.4166667   0.1789786   0.0000000), wk =   0.0034722
        k(  360) = (  -0.4166667   0.2386382   0.0000000), wk =   0.0034722
        k(  361) = (  -0.3750000   0.2684679   0.0000000), wk =   0.0034722
        k(  362) = (  -0.3750000   0.3281275   0.0000000), wk =   0.0034722
        k(  363) = (  -0.3750000   0.3877870   0.0000000), wk =   0.0034722
        k(  364) = (  -0.3750000   0.4474465   0.0000000), wk =   0.0034722
        k(  365) = (  -0.3750000   0.5071061   0.0000000), wk =   0.0034722
        k(  366) = (  -0.3750000   0.5667656   0.0000000), wk =   0.0034722
        k(  367) = (  -0.3750000   0.6264251   0.0000000), wk =   0.0034722
        k(  368) = (  -0.3750000   0.6860846   0.0000000), wk =   0.0034722
        k(  369) = (  -0.3750000   0.7457442   0.0000000), wk =   0.0034722
        k(  370) = (  -0.3750000   0.8054037   0.0000000), wk =   0.0034722
        k(  371) = (  -0.3750000   0.8650632   0.0000000), wk =   0.0034722
        k(  372) = (  -0.3750000   0.9247228   0.0000000), wk =   0.0034722
        k(  373) = (  -0.3750000  -0.4474464   0.0000000), wk =   0.0034722
        k(  374) = (  -0.3750000  -0.3877869   0.0000000), wk =   0.0034722
        k(  375) = (  -0.3750000  -0.3281274   0.0000000), wk =   0.0034722
        k(  376) = (  -0.3750000  -0.2684678   0.0000000), wk =   0.0034722
        k(  377) = (  -0.3750000  -0.2088083   0.0000000), wk =   0.0034722
        k(  378) = (  -0.3750000  -0.1491488   0.0000000), wk =   0.0034722
        k(  379) = (  -0.3750000  -0.0894892   0.0000000), wk =   0.0034722
        k(  380) = (  -0.3750000  -0.0298297   0.0000000), wk =   0.0034722
        k(  381) = (  -0.3750000   0.0298298   0.0000000), wk =   0.0034722
        k(  382) = (  -0.3750000   0.0894893   0.0000000), wk =   0.0034722
        k(  383) = (  -0.3750000   0.1491489   0.0000000), wk =   0.0034722
        k(  384) = (  -0.3750000   0.2088084   0.0000000), wk =   0.0034722
        k(  385) = (  -0.3333333   0.2386382   0.0000000), wk =   0.0034722
        k(  386) = (  -0.3333333   0.2982977   0.0000000), wk =   0.0034722
        k(  387) = (  -0.3333333   0.3579572   0.0000000), wk =   0.0034722
        k(  388) = (  -0.3333333   0.4176168   0.0000000), wk =   0.0034722
        k(  389) = (  -0.3333333   0.4772763   0.0000000), wk =   0.0034722
        k(  390) = (  -0.3333333   0.5369358   0.0000000), wk =   0.0034722
        k(  391) = (  -0.3333333   0.5965953   0.0000000), wk =   0.0034722
        k(  392) = (  -0.3333333   0.6562549   0.0000000), wk =   0.0034722
        k(  393) = (  -0.3333333   0.7159144   0.0000000), wk =   0.0034722
        k(  394) = (  -0.3333333   0.7755739   0.0000000), wk =   0.0034722
        k(  395) = (  -0.3333333   0.8352335   0.0000000), wk =   0.0034722
        k(  396) = (  -0.3333333   0.8948930   0.0000000), wk =   0.0034722
        k(  397) = (  -0.3333333  -0.4772762   0.0000000), wk =   0.0034722
        k(  398) = (  -0.3333333  -0.4176167   0.0000000), wk =   0.0034722
        k(  399) = (  -0.3333333  -0.3579571   0.0000000), wk =   0.0034722
        k(  400) = (  -0.3333333  -0.2982976   0.0000000), wk =   0.0034722
        k(  401) = (  -0.3333333  -0.2386381   0.0000000), wk =   0.0034722
        k(  402) = (  -0.3333333  -0.1789785   0.0000000), wk =   0.0034722
        k(  403) = (  -0.3333333  -0.1193190   0.0000000), wk =   0.0034722
        k(  404) = (  -0.3333333  -0.0596595   0.0000000), wk =   0.0034722
        k(  405) = (  -0.3333333   0.0000000   0.0000000), wk =   0.0034722
        k(  406) = (  -0.3333333   0.0596596   0.0000000), wk =   0.0034722
        k(  407) = (  -0.3333333   0.1193191   0.0000000), wk =   0.0034722
        k(  408) = (  -0.3333333   0.1789786   0.0000000), wk =   0.0034722
        k(  409) = (  -0.2916667   0.2088084   0.0000000), wk =   0.0034722
        k(  410) = (  -0.2916667   0.2684679   0.0000000), wk =   0.0034722
        k(  411) = (  -0.2916667   0.3281275   0.0000000), wk =   0.0034722
        k(  412) = (  -0.2916667   0.3877870   0.0000000), wk =   0.0034722
        k(  413) = (  -0.2916667   0.4474465   0.0000000), wk =   0.0034722
        k(  414) = (  -0.2916667   0.5071060   0.0000000), wk =   0.0034722
        k(  415) = (  -0.2916667   0.5667656   0.0000000), wk =   0.0034722
        k(  416) = (  -0.2916667   0.6264251   0.0000000), wk =   0.0034722
        k(  417) = (  -0.2916667   0.6860846   0.0000000), wk =   0.0034722
        k(  418) = (  -0.2916667   0.7457442   0.0000000), wk =   0.0034722
        k(  419) = (  -0.2916667   0.8054037   0.0000000), wk =   0.0034722
        k(  420) = (  -0.2916667   0.8650632   0.0000000), wk =   0.0034722
        k(  421) = (  -0.2916667  -0.5071060   0.0000000), wk =   0.0034722
        k(  422) = (  -0.2916667  -0.4474464   0.0000000), wk =   0.0034722
        k(  423) = (  -0.2916667  -0.3877869   0.0000000), wk =   0.0034722
        k(  424) = (  -0.2916667  -0.3281274   0.0000000), wk =   0.0034722
        k(  425) = (  -0.2916667  -0.2684679   0.0000000), wk =   0.0034722
        k(  426) = (  -0.2916667  -0.2088083   0.0000000), wk =   0.0034722
        k(  427) = (  -0.2916667  -0.1491488   0.0000000), wk =   0.0034722
        k(  428) = (  -0.2916667  -0.0894893   0.0000000), wk =   0.0034722
        k(  429) = (  -0.2916667  -0.0298297   0.0000000), wk =   0.0034722
        k(  430) = (  -0.2916667   0.0298298   0.0000000), wk =   0.0034722
        k(  431) = (  -0.2916667   0.0894893   0.0000000), wk =   0.0034722
        k(  432) = (  -0.2916667   0.1491489   0.0000000), wk =   0.0034722
        k(  433) = (  -0.2500000   0.1789786   0.0000000), wk =   0.0034722
        k(  434) = (  -0.2500000   0.2386382   0.0000000), wk =   0.0034722
        k(  435) = (  -0.2500000   0.2982977   0.0000000), wk =   0.0034722
        k(  436) = (  -0.2500000   0.3579572   0.0000000), wk =   0.0034722
        k(  437) = (  -0.2500000   0.4176167   0.0000000), wk =   0.0034722
        k(  438) = (  -0.2500000   0.4772763   0.0000000), wk =   0.0034722
        k(  439) = (  -0.2500000   0.5369358   0.0000000), wk =   0.0034722
        k(  440) = (  -0.2500000   0.5965953   0.0000000), wk =   0.0034722
        k(  441) = (  -0.2500000   0.6562549   0.0000000), wk =   0.0034722
        k(  442) = (  -0.2500000   0.7159144   0.0000000), wk =   0.0034722
        k(  443) = (  -0.2500000   0.7755739   0.0000000), wk =   0.0034722
        k(  444) = (  -0.2500000   0.8352335   0.0000000), wk =   0.0034722
        k(  445) = (  -0.2500000  -0.5369357   0.0000000), wk =   0.0034722
        k(  446) = (  -0.2500000  -0.4772762   0.0000000), wk =   0.0034722
        k(  447) = (  -0.2500000  -0.4176167   0.0000000), wk =   0.0034722
        k(  448) = (  -0.2500000  -0.3579572   0.0000000), wk =   0.0034722
        k(  449) = (  -0.2500000  -0.2982976   0.0000000), wk =   0.0034722
        k(  450) = (  -0.2500000  -0.2386381   0.0000000), wk =   0.0034722
        k(  451) = (  -0.2500000  -0.1789786   0.0000000), wk =   0.0034722
        k(  452) = (  -0.2500000  -0.1193190   0.0000000), wk =   0.0034722
        k(  453) = (  -0.2500000  -0.0596595   0.0000000), wk =   0.0034722
        k(  454) = (  -0.2500000   0.0000000   0.0000000), wk =   0.0034722
        k(  455) = (  -0.2500000   0.0596596   0.0000000), wk =   0.0034722
        k(  456) = (  -0.2500000   0.1193191   0.0000000), wk =   0.0034722
        k(  457) = (  -0.2083333   0.1491489   0.0000000), wk =   0.0034722
        k(  458) = (  -0.2083333   0.2088084   0.0000000), wk =   0.0034722
        k(  459) = (  -0.2083333   0.2684679   0.0000000), wk =   0.0034722
        k(  460) = (  -0.2083333   0.3281274   0.0000000), wk =   0.0034722
        k(  461) = (  -0.2083333   0.3877870   0.0000000), wk =   0.0034722
        k(  462) = (  -0.2083333   0.4474465   0.0000000), wk =   0.0034722
        k(  463) = (  -0.2083333   0.5071060   0.0000000), wk =   0.0034722
        k(  464) = (  -0.2083333   0.5667656   0.0000000), wk =   0.0034722
        k(  465) = (  -0.2083333   0.6264251   0.0000000), wk =   0.0034722
        k(  466) = (  -0.2083333   0.6860846   0.0000000), wk =   0.0034722
        k(  467) = (  -0.2083333   0.7457442   0.0000000), wk =   0.0034722
        k(  468) = (  -0.2083333   0.8054037   0.0000000), wk =   0.0034722
        k(  469) = (  -0.2083333  -0.5667655   0.0000000), wk =   0.0034722
        k(  470) = (  -0.2083333  -0.5071060   0.0000000), wk =   0.0034722
        k(  471) = (  -0.2083333  -0.4474465   0.0000000), wk =   0.0034722
        k(  472) = (  -0.2083333  -0.3877869   0.0000000), wk =   0.0034722
        k(  473) = (  -0.2083333  -0.3281274   0.0000000), wk =   0.0034722
        k(  474) = (  -0.2083333  -0.2684679   0.0000000), wk =   0.0034722
        k(  475) = (  -0.2083333  -0.2088083   0.0000000), wk =   0.0034722
        k(  476) = (  -0.2083333  -0.1491488   0.0000000), wk =   0.0034722
        k(  477) = (  -0.2083333  -0.0894893   0.0000000), wk =   0.0034722
        k(  478) = (  -0.2083333  -0.0298297   0.0000000), wk =   0.0034722
        k(  479) = (  -0.2083333   0.0298298   0.0000000), wk =   0.0034722
        k(  480) = (  -0.2083333   0.0894893   0.0000000), wk =   0.0034722
        k(  481) = (  -0.1666667   0.1193191   0.0000000), wk =   0.0034722
        k(  482) = (  -0.1666667   0.1789786   0.0000000), wk =   0.0034722
        k(  483) = (  -0.1666667   0.2386381   0.0000000), wk =   0.0034722
        k(  484) = (  -0.1666667   0.2982977   0.0000000), wk =   0.0034722
        k(  485) = (  -0.1666667   0.3579572   0.0000000), wk =   0.0034722
        k(  486) = (  -0.1666667   0.4176167   0.0000000), wk =   0.0034722
        k(  487) = (  -0.1666667   0.4772763   0.0000000), wk =   0.0034722
        k(  488) = (  -0.1666667   0.5369358   0.0000000), wk =   0.0034722
        k(  489) = (  -0.1666667   0.5965953   0.0000000), wk =   0.0034722
        k(  490) = (  -0.1666667   0.6562549   0.0000000), wk =   0.0034722
        k(  491) = (  -0.1666667   0.7159144   0.0000000), wk =   0.0034722
        k(  492) = (  -0.1666667   0.7755739   0.0000000), wk =   0.0034722
        k(  493) = (  -0.1666667  -0.5965953   0.0000000), wk =   0.0034722
        k(  494) = (  -0.1666667  -0.5369358   0.0000000), wk =   0.0034722
        k(  495) = (  -0.1666667  -0.4772762   0.0000000), wk =   0.0034722
        k(  496) = (  -0.1666667  -0.4176167   0.0000000), wk =   0.0034722
        k(  497) = (  -0.1666667  -0.3579572   0.0000000), wk =   0.0034722
        k(  498) = (  -0.1666667  -0.2982976   0.0000000), wk =   0.0034722
        k(  499) = (  -0.1666667  -0.2386381   0.0000000), wk =   0.0034722
        k(  500) = (  -0.1666667  -0.1789786   0.0000000), wk =   0.0034722
        k(  501) = (  -0.1666667  -0.1193190   0.0000000), wk =   0.0034722
        k(  502) = (  -0.1666667  -0.0596595   0.0000000), wk =   0.0034722
        k(  503) = (  -0.1666667   0.0000000   0.0000000), wk =   0.0034722
        k(  504) = (  -0.1666667   0.0596596   0.0000000), wk =   0.0034722
        k(  505) = (  -0.1250000   0.0894893   0.0000000), wk =   0.0034722
        k(  506) = (  -0.1250000   0.1491488   0.0000000), wk =   0.0034722
        k(  507) = (  -0.1250000   0.2088084   0.0000000), wk =   0.0034722
        k(  508) = (  -0.1250000   0.2684679   0.0000000), wk =   0.0034722
        k(  509) = (  -0.1250000   0.3281274   0.0000000), wk =   0.0034722
        k(  510) = (  -0.1250000   0.3877870   0.0000000), wk =   0.0034722
        k(  511) = (  -0.1250000   0.4474465   0.0000000), wk =   0.0034722
        k(  512) = (  -0.1250000   0.5071060   0.0000000), wk =   0.0034722
        k(  513) = (  -0.1250000   0.5667656   0.0000000), wk =   0.0034722
        k(  514) = (  -0.1250000   0.6264251   0.0000000), wk =   0.0034722
        k(  515) = (  -0.1250000   0.6860846   0.0000000), wk =   0.0034722
        k(  516) = (  -0.1250000   0.7457441   0.0000000), wk =   0.0034722
        k(  517) = (  -0.1250000  -0.6264251   0.0000000), wk =   0.0034722
        k(  518) = (  -0.1250000  -0.5667655   0.0000000), wk =   0.0034722
        k(  519) = (  -0.1250000  -0.5071060   0.0000000), wk =   0.0034722
        k(  520) = (  -0.1250000  -0.4474465   0.0000000), wk =   0.0034722
        k(  521) = (  -0.1250000  -0.3877869   0.0000000), wk =   0.0034722
        k(  522) = (  -0.1250000  -0.3281274   0.0000000), wk =   0.0034722
        k(  523) = (  -0.1250000  -0.2684679   0.0000000), wk =   0.0034722
        k(  524) = (  -0.1250000  -0.2088083   0.0000000), wk =   0.0034722
        k(  525) = (  -0.1250000  -0.1491488   0.0000000), wk =   0.0034722
        k(  526) = (  -0.1250000  -0.0894893   0.0000000), wk =   0.0034722
        k(  527) = (  -0.1250000  -0.0298297   0.0000000), wk =   0.0034722
        k(  528) = (  -0.1250000   0.0298298   0.0000000), wk =   0.0034722
        k(  529) = (  -0.0833333   0.0596595   0.0000000), wk =   0.0034722
        k(  530) = (  -0.0833333   0.1193191   0.0000000), wk =   0.0034722
        k(  531) = (  -0.0833333   0.1789786   0.0000000), wk =   0.0034722
        k(  532) = (  -0.0833333   0.2386381   0.0000000), wk =   0.0034722
        k(  533) = (  -0.0833333   0.2982977   0.0000000), wk =   0.0034722
        k(  534) = (  -0.0833333   0.3579572   0.0000000), wk =   0.0034722
        k(  535) = (  -0.0833333   0.4176167   0.0000000), wk =   0.0034722
        k(  536) = (  -0.0833333   0.4772763   0.0000000), wk =   0.0034722
        k(  537) = (  -0.0833333   0.5369358   0.0000000), wk =   0.0034722
        k(  538) = (  -0.0833333   0.5965953   0.0000000), wk =   0.0034722
        k(  539) = (  -0.0833333   0.6562548   0.0000000), wk =   0.0034722
        k(  540) = (  -0.0833333   0.7159144   0.0000000), wk =   0.0034722
        k(  541) = (  -0.0833333  -0.6562548   0.0000000), wk =   0.0034722
        k(  542) = (  -0.0833333  -0.5965953   0.0000000), wk =   0.0034722
        k(  543) = (  -0.0833333  -0.5369358   0.0000000), wk =   0.0034722
        k(  544) = (  -0.0833333  -0.4772762   0.0000000), wk =   0.0034722
        k(  545) = (  -0.0833333  -0.4176167   0.0000000), wk =   0.0034722
        k(  546) = (  -0.0833333  -0.3579572   0.0000000), wk =   0.0034722
        k(  547) = (  -0.0833333  -0.2982976   0.0000000), wk =   0.0034722
        k(  548) = (  -0.0833333  -0.2386381   0.0000000), wk =   0.0034722
        k(  549) = (  -0.0833333  -0.1789786   0.0000000), wk =   0.0034722
        k(  550) = (  -0.0833333  -0.1193191   0.0000000), wk =   0.0034722
        k(  551) = (  -0.0833333  -0.0596595   0.0000000), wk =   0.0034722
        k(  552) = (  -0.0833333   0.0000000   0.0000000), wk =   0.0034722
        k(  553) = (  -0.0416667   0.0298298   0.0000000), wk =   0.0034722
        k(  554) = (  -0.0416667   0.0894893   0.0000000), wk =   0.0034722
        k(  555) = (  -0.0416667   0.1491488   0.0000000), wk =   0.0034722
        k(  556) = (  -0.0416667   0.2088084   0.0000000), wk =   0.0034722
        k(  557) = (  -0.0416667   0.2684679   0.0000000), wk =   0.0034722
        k(  558) = (  -0.0416667   0.3281274   0.0000000), wk =   0.0034722
        k(  559) = (  -0.0416667   0.3877870   0.0000000), wk =   0.0034722
        k(  560) = (  -0.0416667   0.4474465   0.0000000), wk =   0.0034722
        k(  561) = (  -0.0416667   0.5071060   0.0000000), wk =   0.0034722
        k(  562) = (  -0.0416667   0.5667655   0.0000000), wk =   0.0034722
        k(  563) = (  -0.0416667   0.6264251   0.0000000), wk =   0.0034722
        k(  564) = (  -0.0416667   0.6860846   0.0000000), wk =   0.0034722
        k(  565) = (  -0.0416667  -0.6860846   0.0000000), wk =   0.0034722
        k(  566) = (  -0.0416667  -0.6264251   0.0000000), wk =   0.0034722
        k(  567) = (  -0.0416667  -0.5667655   0.0000000), wk =   0.0034722
        k(  568) = (  -0.0416667  -0.5071060   0.0000000), wk =   0.0034722
        k(  569) = (  -0.0416667  -0.4474465   0.0000000), wk =   0.0034722
        k(  570) = (  -0.0416667  -0.3877869   0.0000000), wk =   0.0034722
        k(  571) = (  -0.0416667  -0.3281274   0.0000000), wk =   0.0034722
        k(  572) = (  -0.0416667  -0.2684679   0.0000000), wk =   0.0034722
        k(  573) = (  -0.0416667  -0.2088084   0.0000000), wk =   0.0034722
        k(  574) = (  -0.0416667  -0.1491488   0.0000000), wk =   0.0034722
        k(  575) = (  -0.0416667  -0.0894893   0.0000000), wk =   0.0034722
        k(  576) = (  -0.0416667  -0.0298298   0.0000000), wk =   0.0034722

                       cryst. coord.
        k(    1) = (   0.0000000   0.0000000   0.0000000), wk =   0.0034722
        k(    2) = (   0.0000000   0.0416667   0.0000000), wk =   0.0034722
        k(    3) = (   0.0000000   0.0833333   0.0000000), wk =   0.0034722
        k(    4) = (   0.0000000   0.1250000   0.0000000), wk =   0.0034722
        k(    5) = (   0.0000000   0.1666667   0.0000000), wk =   0.0034722
        k(    6) = (   0.0000000   0.2083333   0.0000000), wk =   0.0034722
        k(    7) = (   0.0000000   0.2500000   0.0000000), wk =   0.0034722
        k(    8) = (   0.0000000   0.2916667   0.0000000), wk =   0.0034722
        k(    9) = (   0.0000000   0.3333333   0.0000000), wk =   0.0034722
        k(   10) = (   0.0000000   0.3750000   0.0000000), wk =   0.0034722
        k(   11) = (   0.0000000   0.4166667   0.0000000), wk =   0.0034722
        k(   12) = (   0.0000000   0.4583333   0.0000000), wk =   0.0034722
        k(   13) = (   0.0000000  -0.5000000   0.0000000), wk =   0.0034722
        k(   14) = (   0.0000000  -0.4583333   0.0000000), wk =   0.0034722
        k(   15) = (   0.0000000  -0.4166667   0.0000000), wk =   0.0034722
        k(   16) = (   0.0000000  -0.3750000   0.0000000), wk =   0.0034722
        k(   17) = (   0.0000000  -0.3333333   0.0000000), wk =   0.0034722
        k(   18) = (   0.0000000  -0.2916667   0.0000000), wk =   0.0034722
        k(   19) = (   0.0000000  -0.2500000   0.0000000), wk =   0.0034722
        k(   20) = (   0.0000000  -0.2083333   0.0000000), wk =   0.0034722
        k(   21) = (   0.0000000  -0.1666667   0.0000000), wk =   0.0034722
        k(   22) = (   0.0000000  -0.1250000   0.0000000), wk =   0.0034722
        k(   23) = (   0.0000000  -0.0833333   0.0000000), wk =   0.0034722
        k(   24) = (   0.0000000  -0.0416667   0.0000000), wk =   0.0034722
        k(   25) = (   0.0416667  -0.0000000   0.0000000), wk =   0.0034722
        k(   26) = (   0.0416667   0.0416667   0.0000000), wk =   0.0034722
        k(   27) = (   0.0416667   0.0833333   0.0000000), wk =   0.0034722
        k(   28) = (   0.0416667   0.1250000   0.0000000), wk =   0.0034722
        k(   29) = (   0.0416667   0.1666667   0.0000000), wk =   0.0034722
        k(   30) = (   0.0416667   0.2083333   0.0000000), wk =   0.0034722
        k(   31) = (   0.0416667   0.2500000   0.0000000), wk =   0.0034722
        k(   32) = (   0.0416667   0.2916667   0.0000000), wk =   0.0034722
        k(   33) = (   0.0416667   0.3333333   0.0000000), wk =   0.0034722
        k(   34) = (   0.0416667   0.3750000   0.0000000), wk =   0.0034722
        k(   35) = (   0.0416667   0.4166667   0.0000000), wk =   0.0034722
        k(   36) = (   0.0416667   0.4583333   0.0000000), wk =   0.0034722
        k(   37) = (   0.0416667  -0.5000000   0.0000000), wk =   0.0034722
        k(   38) = (   0.0416667  -0.4583333   0.0000000), wk =   0.0034722
        k(   39) = (   0.0416667  -0.4166667   0.0000000), wk =   0.0034722
        k(   40) = (   0.0416667  -0.3750000   0.0000000), wk =   0.0034722
        k(   41) = (   0.0416667  -0.3333333   0.0000000), wk =   0.0034722
        k(   42) = (   0.0416667  -0.2916667   0.0000000), wk =   0.0034722
        k(   43) = (   0.0416667  -0.2500000   0.0000000), wk =   0.0034722
        k(   44) = (   0.0416667  -0.2083333   0.0000000), wk =   0.0034722
        k(   45) = (   0.0416667  -0.1666667   0.0000000), wk =   0.0034722
        k(   46) = (   0.0416667  -0.1250000   0.0000000), wk =   0.0034722
        k(   47) = (   0.0416667  -0.0833333   0.0000000), wk =   0.0034722
        k(   48) = (   0.0416667  -0.0416667   0.0000000), wk =   0.0034722
        k(   49) = (   0.0833333  -0.0000000   0.0000000), wk =   0.0034722
        k(   50) = (   0.0833333   0.0416667   0.0000000), wk =   0.0034722
        k(   51) = (   0.0833333   0.0833333   0.0000000), wk =   0.0034722
        k(   52) = (   0.0833333   0.1250000   0.0000000), wk =   0.0034722
        k(   53) = (   0.0833333   0.1666667   0.0000000), wk =   0.0034722
        k(   54) = (   0.0833333   0.2083333   0.0000000), wk =   0.0034722
        k(   55) = (   0.0833333   0.2500000   0.0000000), wk =   0.0034722
        k(   56) = (   0.0833333   0.2916667   0.0000000), wk =   0.0034722
        k(   57) = (   0.0833333   0.3333333   0.0000000), wk =   0.0034722
        k(   58) = (   0.0833333   0.3750000   0.0000000), wk =   0.0034722
        k(   59) = (   0.0833333   0.4166667   0.0000000), wk =   0.0034722
        k(   60) = (   0.0833333   0.4583333   0.0000000), wk =   0.0034722
        k(   61) = (   0.0833333  -0.5000000   0.0000000), wk =   0.0034722
        k(   62) = (   0.0833333  -0.4583333   0.0000000), wk =   0.0034722
        k(   63) = (   0.0833333  -0.4166667   0.0000000), wk =   0.0034722
        k(   64) = (   0.0833333  -0.3750000   0.0000000), wk =   0.0034722
        k(   65) = (   0.0833333  -0.3333333   0.0000000), wk =   0.0034722
        k(   66) = (   0.0833333  -0.2916667   0.0000000), wk =   0.0034722
        k(   67) = (   0.0833333  -0.2500000   0.0000000), wk =   0.0034722
        k(   68) = (   0.0833333  -0.2083333   0.0000000), wk =   0.0034722
        k(   69) = (   0.0833333  -0.1666667   0.0000000), wk =   0.0034722
        k(   70) = (   0.0833333  -0.1250000   0.0000000), wk =   0.0034722
        k(   71) = (   0.0833333  -0.0833333   0.0000000), wk =   0.0034722
        k(   72) = (   0.0833333  -0.0416667   0.0000000), wk =   0.0034722
        k(   73) = (   0.1250000   0.0000000   0.0000000), wk =   0.0034722
        k(   74) = (   0.1250000   0.0416667   0.0000000), wk =   0.0034722
        k(   75) = (   0.1250000   0.0833333   0.0000000), wk =   0.0034722
        k(   76) = (   0.1250000   0.1250000   0.0000000), wk =   0.0034722
        k(   77) = (   0.1250000   0.1666667   0.0000000), wk =   0.0034722
        k(   78) = (   0.1250000   0.2083333   0.0000000), wk =   0.0034722
        k(   79) = (   0.1250000   0.2500000   0.0000000), wk =   0.0034722
        k(   80) = (   0.1250000   0.2916667   0.0000000), wk =   0.0034722
        k(   81) = (   0.1250000   0.3333333   0.0000000), wk =   0.0034722
        k(   82) = (   0.1250000   0.3750000   0.0000000), wk =   0.0034722
        k(   83) = (   0.1250000   0.4166667   0.0000000), wk =   0.0034722
        k(   84) = (   0.1250000   0.4583333   0.0000000), wk =   0.0034722
        k(   85) = (   0.1250000  -0.5000000   0.0000000), wk =   0.0034722
        k(   86) = (   0.1250000  -0.4583333   0.0000000), wk =   0.0034722
        k(   87) = (   0.1250000  -0.4166667   0.0000000), wk =   0.0034722
        k(   88) = (   0.1250000  -0.3750000   0.0000000), wk =   0.0034722
        k(   89) = (   0.1250000  -0.3333333   0.0000000), wk =   0.0034722
        k(   90) = (   0.1250000  -0.2916667   0.0000000), wk =   0.0034722
        k(   91) = (   0.1250000  -0.2500000   0.0000000), wk =   0.0034722
        k(   92) = (   0.1250000  -0.2083333   0.0000000), wk =   0.0034722
        k(   93) = (   0.1250000  -0.1666667   0.0000000), wk =   0.0034722
        k(   94) = (   0.1250000  -0.1250000   0.0000000), wk =   0.0034722
        k(   95) = (   0.1250000  -0.0833333   0.0000000), wk =   0.0034722
        k(   96) = (   0.1250000  -0.0416667   0.0000000), wk =   0.0034722
        k(   97) = (   0.1666667  -0.0000000   0.0000000), wk =   0.0034722
        k(   98) = (   0.1666667   0.0416667   0.0000000), wk =   0.0034722
        k(   99) = (   0.1666667   0.0833333   0.0000000), wk =   0.0034722
        k(  100) = (   0.1666667   0.1250000   0.0000000), wk =   0.0034722
        k(  101) = (   0.1666667   0.1666667   0.0000000), wk =   0.0034722
        k(  102) = (   0.1666667   0.2083333   0.0000000), wk =   0.0034722
        k(  103) = (   0.1666667   0.2500000   0.0000000), wk =   0.0034722
        k(  104) = (   0.1666667   0.2916667   0.0000000), wk =   0.0034722
        k(  105) = (   0.1666667   0.3333333   0.0000000), wk =   0.0034722
        k(  106) = (   0.1666667   0.3750000   0.0000000), wk =   0.0034722
        k(  107) = (   0.1666667   0.4166667   0.0000000), wk =   0.0034722
        k(  108) = (   0.1666667   0.4583333   0.0000000), wk =   0.0034722
        k(  109) = (   0.1666667  -0.5000000   0.0000000), wk =   0.0034722
        k(  110) = (   0.1666667  -0.4583333   0.0000000), wk =   0.0034722
        k(  111) = (   0.1666667  -0.4166667   0.0000000), wk =   0.0034722
        k(  112) = (   0.1666667  -0.3750000   0.0000000), wk =   0.0034722
        k(  113) = (   0.1666667  -0.3333333   0.0000000), wk =   0.0034722
        k(  114) = (   0.1666667  -0.2916667   0.0000000), wk =   0.0034722
        k(  115) = (   0.1666667  -0.2500000   0.0000000), wk =   0.0034722
        k(  116) = (   0.1666667  -0.2083333   0.0000000), wk =   0.0034722
        k(  117) = (   0.1666667  -0.1666667   0.0000000), wk =   0.0034722
        k(  118) = (   0.1666667  -0.1250000   0.0000000), wk =   0.0034722
        k(  119) = (   0.1666667  -0.0833333   0.0000000), wk =   0.0034722
        k(  120) = (   0.1666667  -0.0416667   0.0000000), wk =   0.0034722
        k(  121) = (   0.2083333  -0.0000000   0.0000000), wk =   0.0034722
        k(  122) = (   0.2083333   0.0416667   0.0000000), wk =   0.0034722
        k(  123) = (   0.2083333   0.0833333   0.0000000), wk =   0.0034722
        k(  124) = (   0.2083333   0.1250000   0.0000000), wk =   0.0034722
        k(  125) = (   0.2083333   0.1666667   0.0000000), wk =   0.0034722
        k(  126) = (   0.2083333   0.2083333   0.0000000), wk =   0.0034722
        k(  127) = (   0.2083333   0.2500000   0.0000000), wk =   0.0034722
        k(  128) = (   0.2083333   0.2916667   0.0000000), wk =   0.0034722
        k(  129) = (   0.2083333   0.3333333   0.0000000), wk =   0.0034722
        k(  130) = (   0.2083333   0.3750000   0.0000000), wk =   0.0034722
        k(  131) = (   0.2083333   0.4166667   0.0000000), wk =   0.0034722
        k(  132) = (   0.2083333   0.4583333   0.0000000), wk =   0.0034722
        k(  133) = (   0.2083333  -0.5000000   0.0000000), wk =   0.0034722
        k(  134) = (   0.2083333  -0.4583333   0.0000000), wk =   0.0034722
        k(  135) = (   0.2083333  -0.4166667   0.0000000), wk =   0.0034722
        k(  136) = (   0.2083333  -0.3750000   0.0000000), wk =   0.0034722
        k(  137) = (   0.2083333  -0.3333333   0.0000000), wk =   0.0034722
        k(  138) = (   0.2083333  -0.2916667   0.0000000), wk =   0.0034722
        k(  139) = (   0.2083333  -0.2500000   0.0000000), wk =   0.0034722
        k(  140) = (   0.2083333  -0.2083333   0.0000000), wk =   0.0034722
        k(  141) = (   0.2083333  -0.1666667   0.0000000), wk =   0.0034722
        k(  142) = (   0.2083333  -0.1250000   0.0000000), wk =   0.0034722
        k(  143) = (   0.2083333  -0.0833333   0.0000000), wk =   0.0034722
        k(  144) = (   0.2083333  -0.0416667   0.0000000), wk =   0.0034722
        k(  145) = (   0.2500000   0.0000000   0.0000000), wk =   0.0034722
        k(  146) = (   0.2500000   0.0416667   0.0000000), wk =   0.0034722
        k(  147) = (   0.2500000   0.0833333   0.0000000), wk =   0.0034722
        k(  148) = (   0.2500000   0.1250000   0.0000000), wk =   0.0034722
        k(  149) = (   0.2500000   0.1666667   0.0000000), wk =   0.0034722
        k(  150) = (   0.2500000   0.2083333   0.0000000), wk =   0.0034722
        k(  151) = (   0.2500000   0.2500000   0.0000000), wk =   0.0034722
        k(  152) = (   0.2500000   0.2916667   0.0000000), wk =   0.0034722
        k(  153) = (   0.2500000   0.3333333   0.0000000), wk =   0.0034722
        k(  154) = (   0.2500000   0.3750000   0.0000000), wk =   0.0034722
        k(  155) = (   0.2500000   0.4166667   0.0000000), wk =   0.0034722
        k(  156) = (   0.2500000   0.4583333   0.0000000), wk =   0.0034722
        k(  157) = (   0.2500000  -0.5000000   0.0000000), wk =   0.0034722
        k(  158) = (   0.2500000  -0.4583333   0.0000000), wk =   0.0034722
        k(  159) = (   0.2500000  -0.4166667   0.0000000), wk =   0.0034722
        k(  160) = (   0.2500000  -0.3750000   0.0000000), wk =   0.0034722
        k(  161) = (   0.2500000  -0.3333333   0.0000000), wk =   0.0034722
        k(  162) = (   0.2500000  -0.2916667   0.0000000), wk =   0.0034722
        k(  163) = (   0.2500000  -0.2500000   0.0000000), wk =   0.0034722
        k(  164) = (   0.2500000  -0.2083333   0.0000000), wk =   0.0034722
        k(  165) = (   0.2500000  -0.1666667   0.0000000), wk =   0.0034722
        k(  166) = (   0.2500000  -0.1250000   0.0000000), wk =   0.0034722
        k(  167) = (   0.2500000  -0.0833333   0.0000000), wk =   0.0034722
        k(  168) = (   0.2500000  -0.0416667   0.0000000), wk =   0.0034722
        k(  169) = (   0.2916667  -0.0000000   0.0000000), wk =   0.0034722
        k(  170) = (   0.2916667   0.0416667   0.0000000), wk =   0.0034722
        k(  171) = (   0.2916667   0.0833333   0.0000000), wk =   0.0034722
        k(  172) = (   0.2916667   0.1250000   0.0000000), wk =   0.0034722
        k(  173) = (   0.2916667   0.1666667   0.0000000), wk =   0.0034722
        k(  174) = (   0.2916667   0.2083333   0.0000000), wk =   0.0034722
        k(  175) = (   0.2916667   0.2500000   0.0000000), wk =   0.0034722
        k(  176) = (   0.2916667   0.2916667   0.0000000), wk =   0.0034722
        k(  177) = (   0.2916667   0.3333333   0.0000000), wk =   0.0034722
        k(  178) = (   0.2916667   0.3750000   0.0000000), wk =   0.0034722
        k(  179) = (   0.2916667   0.4166667   0.0000000), wk =   0.0034722
        k(  180) = (   0.2916667   0.4583333   0.0000000), wk =   0.0034722
        k(  181) = (   0.2916667  -0.5000000   0.0000000), wk =   0.0034722
        k(  182) = (   0.2916667  -0.4583333   0.0000000), wk =   0.0034722
        k(  183) = (   0.2916667  -0.4166667   0.0000000), wk =   0.0034722
        k(  184) = (   0.2916667  -0.3750000   0.0000000), wk =   0.0034722
        k(  185) = (   0.2916667  -0.3333333   0.0000000), wk =   0.0034722
        k(  186) = (   0.2916667  -0.2916667   0.0000000), wk =   0.0034722
        k(  187) = (   0.2916667  -0.2500000   0.0000000), wk =   0.0034722
        k(  188) = (   0.2916667  -0.2083333   0.0000000), wk =   0.0034722
        k(  189) = (   0.2916667  -0.1666667   0.0000000), wk =   0.0034722
        k(  190) = (   0.2916667  -0.1250000   0.0000000), wk =   0.0034722
        k(  191) = (   0.2916667  -0.0833333   0.0000000), wk =   0.0034722
        k(  192) = (   0.2916667  -0.0416667   0.0000000), wk =   0.0034722
        k(  193) = (   0.3333333  -0.0000000   0.0000000), wk =   0.0034722
        k(  194) = (   0.3333333   0.0416667   0.0000000), wk =   0.0034722
        k(  195) = (   0.3333333   0.0833333   0.0000000), wk =   0.0034722
        k(  196) = (   0.3333333   0.1250000   0.0000000), wk =   0.0034722
        k(  197) = (   0.3333333   0.1666667   0.0000000), wk =   0.0034722
        k(  198) = (   0.3333333   0.2083333   0.0000000), wk =   0.0034722
        k(  199) = (   0.3333333   0.2500000   0.0000000), wk =   0.0034722
        k(  200) = (   0.3333333   0.2916667   0.0000000), wk =   0.0034722
        k(  201) = (   0.3333333   0.3333333   0.0000000), wk =   0.0034722
        k(  202) = (   0.3333333   0.3750000   0.0000000), wk =   0.0034722
        k(  203) = (   0.3333333   0.4166667   0.0000000), wk =   0.0034722
        k(  204) = (   0.3333333   0.4583333   0.0000000), wk =   0.0034722
        k(  205) = (   0.3333333  -0.5000000   0.0000000), wk =   0.0034722
        k(  206) = (   0.3333333  -0.4583333   0.0000000), wk =   0.0034722
        k(  207) = (   0.3333333  -0.4166667   0.0000000), wk =   0.0034722
        k(  208) = (   0.3333333  -0.3750000   0.0000000), wk =   0.0034722
        k(  209) = (   0.3333333  -0.3333333   0.0000000), wk =   0.0034722
        k(  210) = (   0.3333333  -0.2916667   0.0000000), wk =   0.0034722
        k(  211) = (   0.3333333  -0.2500000   0.0000000), wk =   0.0034722
        k(  212) = (   0.3333333  -0.2083333   0.0000000), wk =   0.0034722
        k(  213) = (   0.3333333  -0.1666667   0.0000000), wk =   0.0034722
        k(  214) = (   0.3333333  -0.1250000   0.0000000), wk =   0.0034722
        k(  215) = (   0.3333333  -0.0833333   0.0000000), wk =   0.0034722
        k(  216) = (   0.3333333  -0.0416667   0.0000000), wk =   0.0034722
        k(  217) = (   0.3750000  -0.0000000   0.0000000), wk =   0.0034722
        k(  218) = (   0.3750000   0.0416667   0.0000000), wk =   0.0034722
        k(  219) = (   0.3750000   0.0833333   0.0000000), wk =   0.0034722
        k(  220) = (   0.3750000   0.1250000   0.0000000), wk =   0.0034722
        k(  221) = (   0.3750000   0.1666667   0.0000000), wk =   0.0034722
        k(  222) = (   0.3750000   0.2083333   0.0000000), wk =   0.0034722
        k(  223) = (   0.3750000   0.2500000   0.0000000), wk =   0.0034722
        k(  224) = (   0.3750000   0.2916667   0.0000000), wk =   0.0034722
        k(  225) = (   0.3750000   0.3333333   0.0000000), wk =   0.0034722
        k(  226) = (   0.3750000   0.3750000   0.0000000), wk =   0.0034722
        k(  227) = (   0.3750000   0.4166667   0.0000000), wk =   0.0034722
        k(  228) = (   0.3750000   0.4583333   0.0000000), wk =   0.0034722
        k(  229) = (   0.3750000  -0.5000000   0.0000000), wk =   0.0034722
        k(  230) = (   0.3750000  -0.4583333   0.0000000), wk =   0.0034722
        k(  231) = (   0.3750000  -0.4166667   0.0000000), wk =   0.0034722
        k(  232) = (   0.3750000  -0.3750000   0.0000000), wk =   0.0034722
        k(  233) = (   0.3750000  -0.3333333   0.0000000), wk =   0.0034722
        k(  234) = (   0.3750000  -0.2916667   0.0000000), wk =   0.0034722
        k(  235) = (   0.3750000  -0.2500000   0.0000000), wk =   0.0034722
        k(  236) = (   0.3750000  -0.2083333   0.0000000), wk =   0.0034722
        k(  237) = (   0.3750000  -0.1666667   0.0000000), wk =   0.0034722
        k(  238) = (   0.3750000  -0.1250000   0.0000000), wk =   0.0034722
        k(  239) = (   0.3750000  -0.0833333   0.0000000), wk =   0.0034722
        k(  240) = (   0.3750000  -0.0416667   0.0000000), wk =   0.0034722
        k(  241) = (   0.4166667  -0.0000000   0.0000000), wk =   0.0034722
        k(  242) = (   0.4166667   0.0416667   0.0000000), wk =   0.0034722
        k(  243) = (   0.4166667   0.0833333   0.0000000), wk =   0.0034722
        k(  244) = (   0.4166667   0.1250000   0.0000000), wk =   0.0034722
        k(  245) = (   0.4166667   0.1666667   0.0000000), wk =   0.0034722
        k(  246) = (   0.4166667   0.2083333   0.0000000), wk =   0.0034722
        k(  247) = (   0.4166667   0.2500000   0.0000000), wk =   0.0034722
        k(  248) = (   0.4166667   0.2916667   0.0000000), wk =   0.0034722
        k(  249) = (   0.4166667   0.3333333   0.0000000), wk =   0.0034722
        k(  250) = (   0.4166667   0.3750000   0.0000000), wk =   0.0034722
        k(  251) = (   0.4166667   0.4166667   0.0000000), wk =   0.0034722
        k(  252) = (   0.4166667   0.4583333   0.0000000), wk =   0.0034722
        k(  253) = (   0.4166667  -0.5000000   0.0000000), wk =   0.0034722
        k(  254) = (   0.4166667  -0.4583333   0.0000000), wk =   0.0034722
        k(  255) = (   0.4166667  -0.4166667   0.0000000), wk =   0.0034722
        k(  256) = (   0.4166667  -0.3750000   0.0000000), wk =   0.0034722
        k(  257) = (   0.4166667  -0.3333333   0.0000000), wk =   0.0034722
        k(  258) = (   0.4166667  -0.2916667   0.0000000), wk =   0.0034722
        k(  259) = (   0.4166667  -0.2500000   0.0000000), wk =   0.0034722
        k(  260) = (   0.4166667  -0.2083333   0.0000000), wk =   0.0034722
        k(  261) = (   0.4166667  -0.1666667   0.0000000), wk =   0.0034722
        k(  262) = (   0.4166667  -0.1250000   0.0000000), wk =   0.0034722
        k(  263) = (   0.4166667  -0.0833333   0.0000000), wk =   0.0034722
        k(  264) = (   0.4166667  -0.0416667   0.0000000), wk =   0.0034722
        k(  265) = (   0.4583333   0.0000000   0.0000000), wk =   0.0034722
        k(  266) = (   0.4583333   0.0416667   0.0000000), wk =   0.0034722
        k(  267) = (   0.4583333   0.0833333   0.0000000), wk =   0.0034722
        k(  268) = (   0.4583333   0.1250000   0.0000000), wk =   0.0034722
        k(  269) = (   0.4583333   0.1666667   0.0000000), wk =   0.0034722
        k(  270) = (   0.4583333   0.2083333   0.0000000), wk =   0.0034722
        k(  271) = (   0.4583333   0.2500000   0.0000000), wk =   0.0034722
        k(  272) = (   0.4583333   0.2916667   0.0000000), wk =   0.0034722
        k(  273) = (   0.4583333   0.3333333   0.0000000), wk =   0.0034722
        k(  274) = (   0.4583333   0.3750000   0.0000000), wk =   0.0034722
        k(  275) = (   0.4583333   0.4166667   0.0000000), wk =   0.0034722
        k(  276) = (   0.4583333   0.4583333   0.0000000), wk =   0.0034722
        k(  277) = (   0.4583333  -0.5000000   0.0000000), wk =   0.0034722
        k(  278) = (   0.4583333  -0.4583333   0.0000000), wk =   0.0034722
        k(  279) = (   0.4583333  -0.4166667   0.0000000), wk =   0.0034722
        k(  280) = (   0.4583333  -0.3750000   0.0000000), wk =   0.0034722
        k(  281) = (   0.4583333  -0.3333333   0.0000000), wk =   0.0034722
        k(  282) = (   0.4583333  -0.2916667   0.0000000), wk =   0.0034722
        k(  283) = (   0.4583333  -0.2500000   0.0000000), wk =   0.0034722
        k(  284) = (   0.4583333  -0.2083333   0.0000000), wk =   0.0034722
        k(  285) = (   0.4583333  -0.1666667   0.0000000), wk =   0.0034722
        k(  286) = (   0.4583333  -0.1250000   0.0000000), wk =   0.0034722
        k(  287) = (   0.4583333  -0.0833333   0.0000000), wk =   0.0034722
        k(  288) = (   0.4583333  -0.0416667   0.0000000), wk =   0.0034722
        k(  289) = (  -0.5000000   0.0000000   0.0000000), wk =   0.0034722
        k(  290) = (  -0.5000000   0.0416667   0.0000000), wk =   0.0034722
        k(  291) = (  -0.5000000   0.0833333   0.0000000), wk =   0.0034722
        k(  292) = (  -0.5000000   0.1250000   0.0000000), wk =   0.0034722
        k(  293) = (  -0.5000000   0.1666667   0.0000000), wk =   0.0034722
        k(  294) = (  -0.5000000   0.2083333   0.0000000), wk =   0.0034722
        k(  295) = (  -0.5000000   0.2500000   0.0000000), wk =   0.0034722
        k(  296) = (  -0.5000000   0.2916667   0.0000000), wk =   0.0034722
        k(  297) = (  -0.5000000   0.3333333   0.0000000), wk =   0.0034722
        k(  298) = (  -0.5000000   0.3750000   0.0000000), wk =   0.0034722
        k(  299) = (  -0.5000000   0.4166667   0.0000000), wk =   0.0034722
        k(  300) = (  -0.5000000   0.4583333   0.0000000), wk =   0.0034722
        k(  301) = (  -0.5000000  -0.5000000   0.0000000), wk =   0.0034722
        k(  302) = (  -0.5000000  -0.4583333   0.0000000), wk =   0.0034722
        k(  303) = (  -0.5000000  -0.4166667   0.0000000), wk =   0.0034722
        k(  304) = (  -0.5000000  -0.3750000   0.0000000), wk =   0.0034722
        k(  305) = (  -0.5000000  -0.3333333   0.0000000), wk =   0.0034722
        k(  306) = (  -0.5000000  -0.2916667   0.0000000), wk =   0.0034722
        k(  307) = (  -0.5000000  -0.2500000   0.0000000), wk =   0.0034722
        k(  308) = (  -0.5000000  -0.2083333   0.0000000), wk =   0.0034722
        k(  309) = (  -0.5000000  -0.1666667   0.0000000), wk =   0.0034722
        k(  310) = (  -0.5000000  -0.1250000   0.0000000), wk =   0.0034722
        k(  311) = (  -0.5000000  -0.0833333   0.0000000), wk =   0.0034722
        k(  312) = (  -0.5000000  -0.0416667   0.0000000), wk =   0.0034722
        k(  313) = (  -0.4583333   0.0000000   0.0000000), wk =   0.0034722
        k(  314) = (  -0.4583333   0.0416667   0.0000000), wk =   0.0034722
        k(  315) = (  -0.4583333   0.0833333   0.0000000), wk =   0.0034722
        k(  316) = (  -0.4583333   0.1250000   0.0000000), wk =   0.0034722
        k(  317) = (  -0.4583333   0.1666667   0.0000000), wk =   0.0034722
        k(  318) = (  -0.4583333   0.2083333   0.0000000), wk =   0.0034722
        k(  319) = (  -0.4583333   0.2500000   0.0000000), wk =   0.0034722
        k(  320) = (  -0.4583333   0.2916667   0.0000000), wk =   0.0034722
        k(  321) = (  -0.4583333   0.3333333   0.0000000), wk =   0.0034722
        k(  322) = (  -0.4583333   0.3750000   0.0000000), wk =   0.0034722
        k(  323) = (  -0.4583333   0.4166667   0.0000000), wk =   0.0034722
        k(  324) = (  -0.4583333   0.4583333   0.0000000), wk =   0.0034722
        k(  325) = (  -0.4583333  -0.5000000   0.0000000), wk =   0.0034722
        k(  326) = (  -0.4583333  -0.4583333   0.0000000), wk =   0.0034722
        k(  327) = (  -0.4583333  -0.4166667   0.0000000), wk =   0.0034722
        k(  328) = (  -0.4583333  -0.3750000   0.0000000), wk =   0.0034722
        k(  329) = (  -0.4583333  -0.3333333   0.0000000), wk =   0.0034722
        k(  330) = (  -0.4583333  -0.2916667   0.0000000), wk =   0.0034722
        k(  331) = (  -0.4583333  -0.2500000   0.0000000), wk =   0.0034722
        k(  332) = (  -0.4583333  -0.2083333   0.0000000), wk =   0.0034722
        k(  333) = (  -0.4583333  -0.1666667   0.0000000), wk =   0.0034722
        k(  334) = (  -0.4583333  -0.1250000   0.0000000), wk =   0.0034722
        k(  335) = (  -0.4583333  -0.0833333   0.0000000), wk =   0.0034722
        k(  336) = (  -0.4583333  -0.0416667   0.0000000), wk =   0.0034722
        k(  337) = (  -0.4166667  -0.0000000   0.0000000), wk =   0.0034722
        k(  338) = (  -0.4166667   0.0416667   0.0000000), wk =   0.0034722
        k(  339) = (  -0.4166667   0.0833333   0.0000000), wk =   0.0034722
        k(  340) = (  -0.4166667   0.1250000   0.0000000), wk =   0.0034722
        k(  341) = (  -0.4166667   0.1666667   0.0000000), wk =   0.0034722
        k(  342) = (  -0.4166667   0.2083333   0.0000000), wk =   0.0034722
        k(  343) = (  -0.4166667   0.2500000   0.0000000), wk =   0.0034722
        k(  344) = (  -0.4166667   0.2916667   0.0000000), wk =   0.0034722
        k(  345) = (  -0.4166667   0.3333333   0.0000000), wk =   0.0034722
        k(  346) = (  -0.4166667   0.3750000   0.0000000), wk =   0.0034722
        k(  347) = (  -0.4166667   0.4166667   0.0000000), wk =   0.0034722
        k(  348) = (  -0.4166667   0.4583333   0.0000000), wk =   0.0034722
        k(  349) = (  -0.4166667  -0.5000000   0.0000000), wk =   0.0034722
        k(  350) = (  -0.4166667  -0.4583333   0.0000000), wk =   0.0034722
        k(  351) = (  -0.4166667  -0.4166667   0.0000000), wk =   0.0034722
        k(  352) = (  -0.4166667  -0.3750000   0.0000000), wk =   0.0034722
        k(  353) = (  -0.4166667  -0.3333333   0.0000000), wk =   0.0034722
        k(  354) = (  -0.4166667  -0.2916667   0.0000000), wk =   0.0034722
        k(  355) = (  -0.4166667  -0.2500000   0.0000000), wk =   0.0034722
        k(  356) = (  -0.4166667  -0.2083333   0.0000000), wk =   0.0034722
        k(  357) = (  -0.4166667  -0.1666667   0.0000000), wk =   0.0034722
        k(  358) = (  -0.4166667  -0.1250000   0.0000000), wk =   0.0034722
        k(  359) = (  -0.4166667  -0.0833333   0.0000000), wk =   0.0034722
        k(  360) = (  -0.4166667  -0.0416667   0.0000000), wk =   0.0034722
        k(  361) = (  -0.3750000   0.0000000   0.0000000), wk =   0.0034722
        k(  362) = (  -0.3750000   0.0416667   0.0000000), wk =   0.0034722
        k(  363) = (  -0.3750000   0.0833333   0.0000000), wk =   0.0034722
        k(  364) = (  -0.3750000   0.1250000   0.0000000), wk =   0.0034722
        k(  365) = (  -0.3750000   0.1666667   0.0000000), wk =   0.0034722
        k(  366) = (  -0.3750000   0.2083333   0.0000000), wk =   0.0034722
        k(  367) = (  -0.3750000   0.2500000   0.0000000), wk =   0.0034722
        k(  368) = (  -0.3750000   0.2916667   0.0000000), wk =   0.0034722
        k(  369) = (  -0.3750000   0.3333333   0.0000000), wk =   0.0034722
        k(  370) = (  -0.3750000   0.3750000   0.0000000), wk =   0.0034722
        k(  371) = (  -0.3750000   0.4166667   0.0000000), wk =   0.0034722
        k(  372) = (  -0.3750000   0.4583333   0.0000000), wk =   0.0034722
        k(  373) = (  -0.3750000  -0.5000000   0.0000000), wk =   0.0034722
        k(  374) = (  -0.3750000  -0.4583333   0.0000000), wk =   0.0034722
        k(  375) = (  -0.3750000  -0.4166667   0.0000000), wk =   0.0034722
        k(  376) = (  -0.3750000  -0.3750000   0.0000000), wk =   0.0034722
        k(  377) = (  -0.3750000  -0.3333333   0.0000000), wk =   0.0034722
        k(  378) = (  -0.3750000  -0.2916667   0.0000000), wk =   0.0034722
        k(  379) = (  -0.3750000  -0.2500000   0.0000000), wk =   0.0034722
        k(  380) = (  -0.3750000  -0.2083333   0.0000000), wk =   0.0034722
        k(  381) = (  -0.3750000  -0.1666667   0.0000000), wk =   0.0034722
        k(  382) = (  -0.3750000  -0.1250000   0.0000000), wk =   0.0034722
        k(  383) = (  -0.3750000  -0.0833333   0.0000000), wk =   0.0034722
        k(  384) = (  -0.3750000  -0.0416667   0.0000000), wk =   0.0034722
        k(  385) = (  -0.3333333   0.0000000   0.0000000), wk =   0.0034722
        k(  386) = (  -0.3333333   0.0416667   0.0000000), wk =   0.0034722
        k(  387) = (  -0.3333333   0.0833333   0.0000000), wk =   0.0034722
        k(  388) = (  -0.3333333   0.1250000   0.0000000), wk =   0.0034722
        k(  389) = (  -0.3333333   0.1666667   0.0000000), wk =   0.0034722
        k(  390) = (  -0.3333333   0.2083333   0.0000000), wk =   0.0034722
        k(  391) = (  -0.3333333   0.2500000   0.0000000), wk =   0.0034722
        k(  392) = (  -0.3333333   0.2916667   0.0000000), wk =   0.0034722
        k(  393) = (  -0.3333333   0.3333333   0.0000000), wk =   0.0034722
        k(  394) = (  -0.3333333   0.3750000   0.0000000), wk =   0.0034722
        k(  395) = (  -0.3333333   0.4166667   0.0000000), wk =   0.0034722
        k(  396) = (  -0.3333333   0.4583333   0.0000000), wk =   0.0034722
        k(  397) = (  -0.3333333  -0.5000000   0.0000000), wk =   0.0034722
        k(  398) = (  -0.3333333  -0.4583333   0.0000000), wk =   0.0034722
        k(  399) = (  -0.3333333  -0.4166667   0.0000000), wk =   0.0034722
        k(  400) = (  -0.3333333  -0.3750000   0.0000000), wk =   0.0034722
        k(  401) = (  -0.3333333  -0.3333333   0.0000000), wk =   0.0034722
        k(  402) = (  -0.3333333  -0.2916667   0.0000000), wk =   0.0034722
        k(  403) = (  -0.3333333  -0.2500000   0.0000000), wk =   0.0034722
        k(  404) = (  -0.3333333  -0.2083333   0.0000000), wk =   0.0034722
        k(  405) = (  -0.3333333  -0.1666667   0.0000000), wk =   0.0034722
        k(  406) = (  -0.3333333  -0.1250000   0.0000000), wk =   0.0034722
        k(  407) = (  -0.3333333  -0.0833333   0.0000000), wk =   0.0034722
        k(  408) = (  -0.3333333  -0.0416667   0.0000000), wk =   0.0034722
        k(  409) = (  -0.2916667   0.0000000   0.0000000), wk =   0.0034722
        k(  410) = (  -0.2916667   0.0416667   0.0000000), wk =   0.0034722
        k(  411) = (  -0.2916667   0.0833333   0.0000000), wk =   0.0034722
        k(  412) = (  -0.2916667   0.1250000   0.0000000), wk =   0.0034722
        k(  413) = (  -0.2916667   0.1666667   0.0000000), wk =   0.0034722
        k(  414) = (  -0.2916667   0.2083333   0.0000000), wk =   0.0034722
        k(  415) = (  -0.2916667   0.2500000   0.0000000), wk =   0.0034722
        k(  416) = (  -0.2916667   0.2916667   0.0000000), wk =   0.0034722
        k(  417) = (  -0.2916667   0.3333333   0.0000000), wk =   0.0034722
        k(  418) = (  -0.2916667   0.3750000   0.0000000), wk =   0.0034722
        k(  419) = (  -0.2916667   0.4166667   0.0000000), wk =   0.0034722
        k(  420) = (  -0.2916667   0.4583333   0.0000000), wk =   0.0034722
        k(  421) = (  -0.2916667  -0.5000000   0.0000000), wk =   0.0034722
        k(  422) = (  -0.2916667  -0.4583333   0.0000000), wk =   0.0034722
        k(  423) = (  -0.2916667  -0.4166667   0.0000000), wk =   0.0034722
        k(  424) = (  -0.2916667  -0.3750000   0.0000000), wk =   0.0034722
        k(  425) = (  -0.2916667  -0.3333333   0.0000000), wk =   0.0034722
        k(  426) = (  -0.2916667  -0.2916667   0.0000000), wk =   0.0034722
        k(  427) = (  -0.2916667  -0.2500000   0.0000000), wk =   0.0034722
        k(  428) = (  -0.2916667  -0.2083333   0.0000000), wk =   0.0034722
        k(  429) = (  -0.2916667  -0.1666667   0.0000000), wk =   0.0034722
        k(  430) = (  -0.2916667  -0.1250000   0.0000000), wk =   0.0034722
        k(  431) = (  -0.2916667  -0.0833333   0.0000000), wk =   0.0034722
        k(  432) = (  -0.2916667  -0.0416667   0.0000000), wk =   0.0034722
        k(  433) = (  -0.2500000   0.0000000   0.0000000), wk =   0.0034722
        k(  434) = (  -0.2500000   0.0416667   0.0000000), wk =   0.0034722
        k(  435) = (  -0.2500000   0.0833333   0.0000000), wk =   0.0034722
        k(  436) = (  -0.2500000   0.1250000   0.0000000), wk =   0.0034722
        k(  437) = (  -0.2500000   0.1666667   0.0000000), wk =   0.0034722
        k(  438) = (  -0.2500000   0.2083333   0.0000000), wk =   0.0034722
        k(  439) = (  -0.2500000   0.2500000   0.0000000), wk =   0.0034722
        k(  440) = (  -0.2500000   0.2916667   0.0000000), wk =   0.0034722
        k(  441) = (  -0.2500000   0.3333333   0.0000000), wk =   0.0034722
        k(  442) = (  -0.2500000   0.3750000   0.0000000), wk =   0.0034722
        k(  443) = (  -0.2500000   0.4166667   0.0000000), wk =   0.0034722
        k(  444) = (  -0.2500000   0.4583333   0.0000000), wk =   0.0034722
        k(  445) = (  -0.2500000  -0.5000000   0.0000000), wk =   0.0034722
        k(  446) = (  -0.2500000  -0.4583333   0.0000000), wk =   0.0034722
        k(  447) = (  -0.2500000  -0.4166667   0.0000000), wk =   0.0034722
        k(  448) = (  -0.2500000  -0.3750000   0.0000000), wk =   0.0034722
        k(  449) = (  -0.2500000  -0.3333333   0.0000000), wk =   0.0034722
        k(  450) = (  -0.2500000  -0.2916667   0.0000000), wk =   0.0034722
        k(  451) = (  -0.2500000  -0.2500000   0.0000000), wk =   0.0034722
        k(  452) = (  -0.2500000  -0.2083333   0.0000000), wk =   0.0034722
        k(  453) = (  -0.2500000  -0.1666667   0.0000000), wk =   0.0034722
        k(  454) = (  -0.2500000  -0.1250000   0.0000000), wk =   0.0034722
        k(  455) = (  -0.2500000  -0.0833333   0.0000000), wk =   0.0034722
        k(  456) = (  -0.2500000  -0.0416667   0.0000000), wk =   0.0034722
        k(  457) = (  -0.2083333  -0.0000000   0.0000000), wk =   0.0034722
        k(  458) = (  -0.2083333   0.0416667   0.0000000), wk =   0.0034722
        k(  459) = (  -0.2083333   0.0833333   0.0000000), wk =   0.0034722
        k(  460) = (  -0.2083333   0.1250000   0.0000000), wk =   0.0034722
        k(  461) = (  -0.2083333   0.1666667   0.0000000), wk =   0.0034722
        k(  462) = (  -0.2083333   0.2083333   0.0000000), wk =   0.0034722
        k(  463) = (  -0.2083333   0.2500000   0.0000000), wk =   0.0034722
        k(  464) = (  -0.2083333   0.2916667   0.0000000), wk =   0.0034722
        k(  465) = (  -0.2083333   0.3333333   0.0000000), wk =   0.0034722
        k(  466) = (  -0.2083333   0.3750000   0.0000000), wk =   0.0034722
        k(  467) = (  -0.2083333   0.4166667   0.0000000), wk =   0.0034722
        k(  468) = (  -0.2083333   0.4583333   0.0000000), wk =   0.0034722
        k(  469) = (  -0.2083333  -0.5000000   0.0000000), wk =   0.0034722
        k(  470) = (  -0.2083333  -0.4583333   0.0000000), wk =   0.0034722
        k(  471) = (  -0.2083333  -0.4166667   0.0000000), wk =   0.0034722
        k(  472) = (  -0.2083333  -0.3750000   0.0000000), wk =   0.0034722
        k(  473) = (  -0.2083333  -0.3333333   0.0000000), wk =   0.0034722
        k(  474) = (  -0.2083333  -0.2916667   0.0000000), wk =   0.0034722
        k(  475) = (  -0.2083333  -0.2500000   0.0000000), wk =   0.0034722
        k(  476) = (  -0.2083333  -0.2083333   0.0000000), wk =   0.0034722
        k(  477) = (  -0.2083333  -0.1666667   0.0000000), wk =   0.0034722
        k(  478) = (  -0.2083333  -0.1250000   0.0000000), wk =   0.0034722
        k(  479) = (  -0.2083333  -0.0833333   0.0000000), wk =   0.0034722
        k(  480) = (  -0.2083333  -0.0416667   0.0000000), wk =   0.0034722
        k(  481) = (  -0.1666667   0.0000000   0.0000000), wk =   0.0034722
        k(  482) = (  -0.1666667   0.0416667   0.0000000), wk =   0.0034722
        k(  483) = (  -0.1666667   0.0833333   0.0000000), wk =   0.0034722
        k(  484) = (  -0.1666667   0.1250000   0.0000000), wk =   0.0034722
        k(  485) = (  -0.1666667   0.1666667   0.0000000), wk =   0.0034722
        k(  486) = (  -0.1666667   0.2083333   0.0000000), wk =   0.0034722
        k(  487) = (  -0.1666667   0.2500000   0.0000000), wk =   0.0034722
        k(  488) = (  -0.1666667   0.2916667   0.0000000), wk =   0.0034722
        k(  489) = (  -0.1666667   0.3333333   0.0000000), wk =   0.0034722
        k(  490) = (  -0.1666667   0.3750000   0.0000000), wk =   0.0034722
        k(  491) = (  -0.1666667   0.4166667   0.0000000), wk =   0.0034722
        k(  492) = (  -0.1666667   0.4583333   0.0000000), wk =   0.0034722
        k(  493) = (  -0.1666667  -0.5000000   0.0000000), wk =   0.0034722
        k(  494) = (  -0.1666667  -0.4583333   0.0000000), wk =   0.0034722
        k(  495) = (  -0.1666667  -0.4166667   0.0000000), wk =   0.0034722
        k(  496) = (  -0.1666667  -0.3750000   0.0000000), wk =   0.0034722
        k(  497) = (  -0.1666667  -0.3333333   0.0000000), wk =   0.0034722
        k(  498) = (  -0.1666667  -0.2916667   0.0000000), wk =   0.0034722
        k(  499) = (  -0.1666667  -0.2500000   0.0000000), wk =   0.0034722
        k(  500) = (  -0.1666667  -0.2083333   0.0000000), wk =   0.0034722
        k(  501) = (  -0.1666667  -0.1666667   0.0000000), wk =   0.0034722
        k(  502) = (  -0.1666667  -0.1250000   0.0000000), wk =   0.0034722
        k(  503) = (  -0.1666667  -0.0833333   0.0000000), wk =   0.0034722
        k(  504) = (  -0.1666667  -0.0416667   0.0000000), wk =   0.0034722
        k(  505) = (  -0.1250000   0.0000000   0.0000000), wk =   0.0034722
        k(  506) = (  -0.1250000   0.0416667   0.0000000), wk =   0.0034722
        k(  507) = (  -0.1250000   0.0833333   0.0000000), wk =   0.0034722
        k(  508) = (  -0.1250000   0.1250000   0.0000000), wk =   0.0034722
        k(  509) = (  -0.1250000   0.1666667   0.0000000), wk =   0.0034722
        k(  510) = (  -0.1250000   0.2083333   0.0000000), wk =   0.0034722
        k(  511) = (  -0.1250000   0.2500000   0.0000000), wk =   0.0034722
        k(  512) = (  -0.1250000   0.2916667   0.0000000), wk =   0.0034722
        k(  513) = (  -0.1250000   0.3333333   0.0000000), wk =   0.0034722
        k(  514) = (  -0.1250000   0.3750000   0.0000000), wk =   0.0034722
        k(  515) = (  -0.1250000   0.4166667   0.0000000), wk =   0.0034722
        k(  516) = (  -0.1250000   0.4583333   0.0000000), wk =   0.0034722
        k(  517) = (  -0.1250000  -0.5000000   0.0000000), wk =   0.0034722
        k(  518) = (  -0.1250000  -0.4583333   0.0000000), wk =   0.0034722
        k(  519) = (  -0.1250000  -0.4166667   0.0000000), wk =   0.0034722
        k(  520) = (  -0.1250000  -0.3750000   0.0000000), wk =   0.0034722
        k(  521) = (  -0.1250000  -0.3333333   0.0000000), wk =   0.0034722
        k(  522) = (  -0.1250000  -0.2916667   0.0000000), wk =   0.0034722
        k(  523) = (  -0.1250000  -0.2500000   0.0000000), wk =   0.0034722
        k(  524) = (  -0.1250000  -0.2083333   0.0000000), wk =   0.0034722
        k(  525) = (  -0.1250000  -0.1666667   0.0000000), wk =   0.0034722
        k(  526) = (  -0.1250000  -0.1250000   0.0000000), wk =   0.0034722
        k(  527) = (  -0.1250000  -0.0833333   0.0000000), wk =   0.0034722
        k(  528) = (  -0.1250000  -0.0416667   0.0000000), wk =   0.0034722
        k(  529) = (  -0.0833333   0.0000000   0.0000000), wk =   0.0034722
        k(  530) = (  -0.0833333   0.0416667   0.0000000), wk =   0.0034722
        k(  531) = (  -0.0833333   0.0833333   0.0000000), wk =   0.0034722
        k(  532) = (  -0.0833333   0.1250000   0.0000000), wk =   0.0034722
        k(  533) = (  -0.0833333   0.1666667   0.0000000), wk =   0.0034722
        k(  534) = (  -0.0833333   0.2083333   0.0000000), wk =   0.0034722
        k(  535) = (  -0.0833333   0.2500000   0.0000000), wk =   0.0034722
        k(  536) = (  -0.0833333   0.2916667   0.0000000), wk =   0.0034722
        k(  537) = (  -0.0833333   0.3333333   0.0000000), wk =   0.0034722
        k(  538) = (  -0.0833333   0.3750000   0.0000000), wk =   0.0034722
        k(  539) = (  -0.0833333   0.4166667   0.0000000), wk =   0.0034722
        k(  540) = (  -0.0833333   0.4583333   0.0000000), wk =   0.0034722
        k(  541) = (  -0.0833333  -0.5000000   0.0000000), wk =   0.0034722
        k(  542) = (  -0.0833333  -0.4583333   0.0000000), wk =   0.0034722
        k(  543) = (  -0.0833333  -0.4166667   0.0000000), wk =   0.0034722
        k(  544) = (  -0.0833333  -0.3750000   0.0000000), wk =   0.0034722
        k(  545) = (  -0.0833333  -0.3333333   0.0000000), wk =   0.0034722
        k(  546) = (  -0.0833333  -0.2916667   0.0000000), wk =   0.0034722
        k(  547) = (  -0.0833333  -0.2500000   0.0000000), wk =   0.0034722
        k(  548) = (  -0.0833333  -0.2083333   0.0000000), wk =   0.0034722
        k(  549) = (  -0.0833333  -0.1666667   0.0000000), wk =   0.0034722
        k(  550) = (  -0.0833333  -0.1250000   0.0000000), wk =   0.0034722
        k(  551) = (  -0.0833333  -0.0833333   0.0000000), wk =   0.0034722
        k(  552) = (  -0.0833333  -0.0416667   0.0000000), wk =   0.0034722
        k(  553) = (  -0.0416667  -0.0000000   0.0000000), wk =   0.0034722
        k(  554) = (  -0.0416667   0.0416667   0.0000000), wk =   0.0034722
        k(  555) = (  -0.0416667   0.0833333   0.0000000), wk =   0.0034722
        k(  556) = (  -0.0416667   0.1250000   0.0000000), wk =   0.0034722
        k(  557) = (  -0.0416667   0.1666667   0.0000000), wk =   0.0034722
        k(  558) = (  -0.0416667   0.2083333   0.0000000), wk =   0.0034722
        k(  559) = (  -0.0416667   0.2500000   0.0000000), wk =   0.0034722
        k(  560) = (  -0.0416667   0.2916667   0.0000000), wk =   0.0034722
        k(  561) = (  -0.0416667   0.3333333   0.0000000), wk =   0.0034722
        k(  562) = (  -0.0416667   0.3750000   0.0000000), wk =   0.0034722
        k(  563) = (  -0.0416667   0.4166667   0.0000000), wk =   0.0034722
        k(  564) = (  -0.0416667   0.4583333   0.0000000), wk =   0.0034722
        k(  565) = (  -0.0416667  -0.5000000   0.0000000), wk =   0.0034722
        k(  566) = (  -0.0416667  -0.4583333   0.0000000), wk =   0.0034722
        k(  567) = (  -0.0416667  -0.4166667   0.0000000), wk =   0.0034722
        k(  568) = (  -0.0416667  -0.3750000   0.0000000), wk =   0.0034722
        k(  569) = (  -0.0416667  -0.3333333   0.0000000), wk =   0.0034722
        k(  570) = (  -0.0416667  -0.2916667   0.0000000), wk =   0.0034722
        k(  571) = (  -0.0416667  -0.2500000   0.0000000), wk =   0.0034722
        k(  572) = (  -0.0416667  -0.2083333   0.0000000), wk =   0.0034722
        k(  573) = (  -0.0416667  -0.1666667   0.0000000), wk =   0.0034722
        k(  574) = (  -0.0416667  -0.1250000   0.0000000), wk =   0.0034722
        k(  575) = (  -0.0416667  -0.0833333   0.0000000), wk =   0.0034722
        k(  576) = (  -0.0416667  -0.0416667   0.0000000), wk =   0.0034722

     Dense  grid:    22213 G-vectors     FFT dimensions: (  24,  20, 120)

     Dynamical RAM for                 wfc:       0.34 MB

     Dynamical RAM for     wfc (w. buffer):      24.80 MB

     Dynamical RAM for           str. fact:       0.34 MB

     Dynamical RAM for           local pot:       0.00 MB

     Dynamical RAM for          nlocal pot:       0.68 MB

     Dynamical RAM for                qrad:       0.29 MB

     Dynamical RAM for          rho,v,vnew:       2.34 MB

     Dynamical RAM for               rhoin:       0.78 MB

     Dynamical RAM for            rho*nmix:       5.42 MB

     Dynamical RAM for           G-vectors:       1.44 MB

     Dynamical RAM for          h,s,v(r/c):       0.01 MB

     Dynamical RAM for          <psi|beta>:       0.00 MB

     Dynamical RAM for                 psi:       0.68 MB

     Dynamical RAM for                hpsi:       0.68 MB

     Dynamical RAM for                spsi:       0.68 MB

     Dynamical RAM for      wfcinit/wfcrot:       0.68 MB

     Dynamical RAM for           addusdens:       2.20 MB

     Dynamical RAM for          addusforce:       2.16 MB

     Estimated static dynamical RAM per process >      33.54 MB

     Estimated max dynamical RAM per process >      41.16 MB

     Estimated total dynamical RAM >     291.35 MB

     Check: negative core charge=   -0.000012

     Initial potential from superposition of free atoms

     starting charge       7.9999, renormalised to       8.0000

     negative rho (up, down):  1.129E-03 0.000E+00
     Starting wfcs are    8 randomized atomic wfcs
     Checking if some PAW data can be deallocated... 

     total cpu time spent up to now is        1.7 secs

     per-process dynamical memory:    41.1 Mb

     Self-consistent Calculation

     iteration #  1     ecut=    40.00 Ry     beta= 0.70
     Davidson diagonalization with overlap

---- Real-time Memory Report at c_bands before calling an iterative solver
            72 MiB given to the printing process from OS
            40 MiB allocation reported by mallinfo(arena+hblkhd)
         28652 MiB available memory on the node where the printing process lives
------------------
     ethr =  1.00E-02,  avg # of iterations =  5.7

     negative rho (up, down):  1.714E-03 0.000E+00

     total cpu time spent up to now is        3.7 secs

     total energy              =     -36.73152541 Ry
     estimated scf accuracy    <       0.11028800 Ry

     iteration #  2     ecut=    40.00 Ry     beta= 0.70
     Davidson diagonalization with overlap

---- Real-time Memory Report at c_bands before calling an iterative solver
            82 MiB given to the printing process from OS
            50 MiB allocation reported by mallinfo(arena+hblkhd)
         28582 MiB available memory on the node where the printing process lives
------------------
     ethr =  1.38E-03,  avg # of iterations =  3.2

     negative rho (up, down):  1.863E-03 0.000E+00

     total cpu time spent up to now is        5.3 secs

     total energy              =     -36.74722565 Ry
     estimated scf accuracy    <       0.00189138 Ry

     iteration #  3     ecut=    40.00 Ry     beta= 0.70
     Davidson diagonalization with overlap

---- Real-time Memory Report at c_bands before calling an iterative solver
            83 MiB given to the printing process from OS
            51 MiB allocation reported by mallinfo(arena+hblkhd)
         28567 MiB available memory on the node where the printing process lives
------------------
     c_bands:  1 eigenvalues not converged
     ethr =  2.36E-05,  avg # of iterations = 10.8

     negative rho (up, down):  1.929E-03 0.000E+00

     total cpu time spent up to now is        8.0 secs

     total energy              =     -36.74740119 Ry
     estimated scf accuracy    <       0.00017236 Ry

     iteration #  4     ecut=    40.00 Ry     beta= 0.70
     Davidson diagonalization with overlap

---- Real-time Memory Report at c_bands before calling an iterative solver
            83 MiB given to the printing process from OS
            51 MiB allocation reported by mallinfo(arena+hblkhd)
         28572 MiB available memory on the node where the printing process lives
------------------
     ethr =  2.15E-06,  avg # of iterations =  5.0

     negative rho (up, down):  1.932E-03 0.000E+00

     total cpu time spent up to now is        9.9 secs

     total energy              =     -36.74740363 Ry
     estimated scf accuracy    <       0.00004795 Ry

     iteration #  5     ecut=    40.00 Ry     beta= 0.70
     Davidson diagonalization with overlap

---- Real-time Memory Report at c_bands before calling an iterative solver
            84 MiB given to the printing process from OS
            52 MiB allocation reported by mallinfo(arena+hblkhd)
         28567 MiB available memory on the node where the printing process lives
------------------
     ethr =  5.99E-07,  avg # of iterations =  1.1

     negative rho (up, down):  1.933E-03 0.000E+00

     total cpu time spent up to now is       11.0 secs

     total energy              =     -36.74741313 Ry
     estimated scf accuracy    <       0.00000093 Ry

     iteration #  6     ecut=    40.00 Ry     beta= 0.70
     Davidson diagonalization with overlap

---- Real-time Memory Report at c_bands before calling an iterative solver
            85 MiB given to the printing process from OS
            53 MiB allocation reported by mallinfo(arena+hblkhd)
         28574 MiB available memory on the node where the printing process lives
------------------
     ethr =  1.17E-08,  avg # of iterations =  2.2

     negative rho (up, down):  1.933E-03 0.000E+00

     total cpu time spent up to now is       12.4 secs

     total energy              =     -36.74741344 Ry
     estimated scf accuracy    <       0.00000009 Ry

     iteration #  7     ecut=    40.00 Ry     beta= 0.70
     Davidson diagonalization with overlap

---- Real-time Memory Report at c_bands before calling an iterative solver
            86 MiB given to the printing process from OS
            53 MiB allocation reported by mallinfo(arena+hblkhd)
         28556 MiB available memory on the node where the printing process lives
------------------
     ethr =  1.18E-09,  avg # of iterations =  1.9

     negative rho (up, down):  1.933E-03 0.000E+00

     total cpu time spent up to now is       13.6 secs

     End of self-consistent calculation

          k = 0.0000 0.0000 0.0000 (  2729 PWs)   bands (ev):

   -20.0887  -8.5784  -6.1681  -5.1908   0.9959   1.1152   1.8428   1.9010

     occupation numbers 
     1.0000   1.0000   1.0000   1.0000   0.0000   0.0000   0.0000   0.0000

          k = 0.0000 0.0597 0.0000 (  2728 PWs)   bands (ev):

   -20.0476  -8.5308  -6.2669  -5.3440   0.9802   1.1737   1.8995   2.1347

     occupation numbers 
     1.0000   1.0000   1.0000   1.0000   0.0000   0.0000   0.0000   0.0000

          k = 0.0000 0.1193 0.0000 (  2758 PWs)   bands (ev):

   -19.9246  -8.3885  -6.5544  -5.7484   0.9205   1.3447   2.0678   2.3666

     occupation numbers 
     1.0000   1.0000   1.0000   1.0000   0.0000   0.0000   0.0000   0.0000

          k = 0.0000 0.1790 0.0000 (  2772 PWs)   bands (ev):

   -19.7203  -8.1524  -7.0071  -6.2943   0.7809   1.6281   2.3468   2.6522

     occupation numbers 
     1.0000   1.0000   1.0000   1.0000   0.0000   0.0000   0.0000   0.0000

          k = 0.0000 0.2386 0.0000 (  2772 PWs)   bands (ev):

   -19.4357  -7.8243  -7.5970  -6.8896   0.5360   2.0251   2.7281   3.0518

     occupation numbers 
     1.0000   1.0000   1.0000   1.0000   0.0000   0.0000   0.0000   0.0000

          k = 0.0000 0.2983 0.0000 (  2788 PWs)   bands (ev):

   -19.0724  -8.2968  -7.4760  -7.4069   0.1962   2.5362   3.0796   3.5058

     occupation numbers 
     1.0000   1.0000   1.0000   1.0000   0.0000   0.0000   0.0000   0.0000

          k = 0.0000 0.3580 0.0000 (  2812 PWs)   bands (ev):

   -18.6328  -9.0812  -8.0191  -6.9036  -0.1971   2.5721   3.1611   3.9298

     occupation numbers 
     1.0000   1.0000   1.0000   1.0000   0.0000   0.0000   0.0000   0.0000

          k = 0.0000 0.4176 0.0000 (  2808 PWs)   bands (ev):

   -18.1200  -9.9257  -8.4985  -6.3194  -0.5948   1.8312   3.8985   4.6394

     occupation numbers 
     1.0000   1.0000   1.0000   1.0000   0.0000   0.0000   0.0000   0.0000

          k = 0.0000 0.4773 0.0000 (  2802 PWs)   bands (ev):

   -17.5388 -10.8071  -8.9020  -5.6608  -0.9570   1.0350   4.7476   5.4653

     occupation numbers 
     1.0000   1.0000   1.0000   1.0000   0.0000   0.0000   0.0000   0.0000

          k = 0.0000 0.5369 0.0000 (  2816 PWs)   bands (ev):

   -16.8969 -11.7014  -9.2220  -4.9366  -1.2571   0.2017   5.7060   6.3878

     occupation numbers 
     1.0000   1.0000   1.0000   1.0000   0.0000   0.0000   0.0000   0.0000

          k = 0.0000 0.5966 0.0000 (  2808 PWs)   bands (ev):

   -16.2100 -12.5789  -9.4532  -4.1589  -1.4792  -0.6548   6.7695   7.3793

     occupation numbers 
     1.0000   1.0000   1.0000   1.0000   0.0000   0.0000   0.0000   0.0000

          k = 0.0000 0.6563 0.0000 (  2800 PWs)   bands (ev):

   -15.5273 -13.3802  -9.5931  -3.3513  -1.6150  -1.5104   7.9284   8.3511

     occupation numbers 
     1.0000   1.0000   1.0000   1.0010   0.0000   0.0000   0.0000   0.0000

          k = 0.0000-0.7159 0.0000 (  2794 PWs)   bands (ev):

   -15.1264 -13.8213  -9.6399  -2.7362  -2.1417  -1.6607   8.8899   9.0633

     occupation numbers 
     1.0000   1.0000   1.0000   0.9569   0.0071   0.0000   0.0000   0.0000

          k = 0.0000-0.6563 0.0000 (  2800 PWs)   bands (ev):

   -15.5273 -13.3802  -9.5931  -3.3513  -1.6150  -1.5104   7.9284   8.3511

     occupation numbers 
     1.0000   1.0000   1.0000   1.0010   0.0000   0.0000   0.0000   0.0000

          k = 0.0000-0.5966 0.0000 (  2808 PWs)   bands (ev):

   -16.2100 -12.5789  -9.4532  -4.1589  -1.4792  -0.6548   6.7695   7.8400

     occupation numbers 
     1.0000   1.0000   1.0000   1.0000   0.0000   0.0000   0.0000   0.0000

          k = 0.0000-0.5369 0.0000 (  2816 PWs)   bands (ev):

   -16.8969 -11.7014  -9.2220  -4.9366  -1.2571   0.2017   5.7060   6.3883

     occupation numbers 
     1.0000   1.0000   1.0000   1.0000   0.0000   0.0000   0.0000   0.0000

          k = 0.0000-0.4773 0.0000 (  2802 PWs)   bands (ev):

   -17.5388 -10.8071  -8.9020  -5.6608  -0.9570   1.0350   4.7476   5.7926

     occupation numbers 
     1.0000   1.0000   1.0000   1.0000   0.0000   0.0000   0.0000   0.0000

          k = 0.0000-0.4176 0.0000 (  2808 PWs)   bands (ev):

   -18.1200  -9.9257  -8.4985  -6.3194  -0.5948   1.8312   3.8985   4.6394

     occupation numbers 
     1.0000   1.0000   1.0000   1.0000   0.0000   0.0000   0.0000   0.0000

          k = 0.0000-0.3580 0.0000 (  2812 PWs)   bands (ev):

   -18.6328  -9.0812  -8.0191  -6.9036  -0.1971   2.5721   3.1610   3.9290

     occupation numbers 
     1.0000   1.0000   1.0000   1.0000   0.0000   0.0000   0.0000   0.0000

          k = 0.0000-0.2983 0.0000 (  2788 PWs)   bands (ev):

   -19.0724  -8.2968  -7.4760  -7.4069   0.1962   2.5362   3.0797   3.5060

     occupation numbers 
     1.0000   1.0000   1.0000   1.0000   0.0000   0.0000   0.0000   0.0000

          k = 0.0000-0.2386 0.0000 (  2772 PWs)   bands (ev):

   -19.4357  -7.8243  -7.5970  -6.8896   0.5360   2.0251   2.7282   3.0518

     occupation numbers 
     1.0000   1.0000   1.0000   1.0000   0.0000   0.0000   0.0000   0.0000

          k = 0.0000-0.1790 0.0000 (  2772 PWs)   bands (ev):

   -19.7203  -8.1524  -7.0071  -6.2943   0.7809   1.6281   2.3468   2.6522

     occupation numbers 
     1.0000   1.0000   1.0000   1.0000   0.0000   0.0000   0.0000   0.0000

          k = 0.0000-0.1193 0.0000 (  2758 PWs)   bands (ev):

   -19.9246  -8.3885  -6.5544  -5.7484   0.9205   1.3447   2.0678   2.3666

     occupation numbers 
     1.0000   1.0000   1.0000   1.0000   0.0000   0.0000   0.0000   0.0000

          k = 0.0000-0.0597 0.0000 (  2728 PWs)   bands (ev):

   -20.0476  -8.5308  -6.2669  -5.3440   0.9802   1.1737   1.8992   2.1347

     occupation numbers 
     1.0000   1.0000   1.0000   1.0000   0.0000   0.0000   0.0000   0.0000

          k = 0.0417-0.0298 0.0000 (  2731 PWs)   bands (ev):

   -20.0587  -8.5443  -6.2616  -5.3398   1.1301   1.1560   1.8846   2.0197

     occupation numbers 
     1.0000   1.0000   1.0000   1.0000   0.0000   0.0000   0.0000   0.0000

          k = 0.0417 0.0298 0.0000 (  2731 PWs)   bands (ev):

   -20.0587  -8.5443  -6.2622  -5.3390   1.1296   1.1559   1.8851   2.0210

     occupation numbers 
     1.0000   1.0000   1.0000   1.0000   0.0000   0.0000   0.0000   0.0000

          k = 0.0417 0.0895 0.0000 (  2745 PWs)   bands (ev):

   -19.9766  -8.4494  -6.4990  -5.5652   1.0649   1.2709   1.9970   2.2873

     occupation numbers 
     1.0000   1.0000   1.0000   1.0000   0.0000   0.0000   0.0000   0.0000

          k = 0.0417 0.1491 0.0000 (  2761 PWs)   bands (ev):

   -19.8130  -8.2604  -6.9285  -5.9684   0.9550   1.4989   2.2208   2.5216

     occupation numbers 
     1.0000   1.0000   1.0000   1.0000   0.0000   0.0000   0.0000   0.0000

          k = 0.0417 0.2088 0.0000 (  2774 PWs)   bands (ev):

   -19.5686  -7.9785  -7.4896  -6.4891   0.7640   1.8398   2.5520   2.8652

     occupation numbers 
     1.0000   1.0000   1.0000   1.0000   0.0000   0.0000   0.0000   0.0000

          k = 0.0417 0.2685 0.0000 (  2780 PWs)   bands (ev):

   -19.2447  -8.1339  -7.6060  -7.0748   0.4740   2.2941   2.9590   3.3223

     occupation numbers 
     1.0000   1.0000   1.0000   1.0000   0.0000   0.0000   0.0000   0.0000

          k = 0.0417 0.3281 0.0000 (  2794 PWs)   bands (ev):

   -18.8434  -8.8406  -7.6734  -7.1460   0.1084   2.8478   2.8621   3.6610

     occupation numbers 
     1.0000   1.0000   1.0000   1.0000   0.0000   0.0000   0.0000   0.0000

          k = 0.0417 0.3878 0.0000 (  2806 PWs)   bands (ev):

   -18.3674  -9.6068  -8.2339  -6.6028  -0.2866   2.1602   3.5434   4.2955

     occupation numbers 
     1.0000   1.0000   1.0000   1.0000   0.0000   0.0000   0.0000   0.0000

          k = 0.0417 0.4474 0.0000 (  2804 PWs)   bands (ev):

   -17.8207 -10.4281  -8.7196  -5.9819  -0.6654   1.3957   4.3368   5.0666

     occupation numbers 
     1.0000   1.0000   1.0000   1.0000   0.0000   0.0000   0.0000   0.0000

          k = 0.0417 0.5071 0.0000 (  2812 PWs)   bands (ev):

   -17.2095 -11.2871  -9.1130  -5.2912  -0.9950   0.5879   5.2408   5.9417

     occupation numbers 
     1.0000   1.0000   1.0000   1.0000   0.0000   0.0000   0.0000   0.0000

          k = 0.0417 0.5668 0.0000 (  2802 PWs)   bands (ev):

   -16.5446 -12.1560  -9.4088  -4.5405  -1.2543  -0.2505   6.2522   6.9001

     occupation numbers 
     1.0000   1.0000   1.0000   1.0000   0.0000   0.0000   0.0000   0.0000

          k = 0.0417 0.6264 0.0000 (  2801 PWs)   bands (ev):

   -15.8527 -12.9928  -9.6061  -3.7453  -1.4320  -1.1046   7.3646   7.8888

     occupation numbers 
     1.0000   1.0000   1.0000   1.0000   0.0000   0.0000   0.0000   0.0000

          k = 0.0417-0.7457 0.0000 (  2790 PWs)   bands (ev):

   -15.2476 -13.6731  -9.7048  -2.9511  -1.9284  -1.5219   8.5603   8.6953

     occupation numbers 
     1.0000   1.0000   1.0000   1.0758   0.0001   0.0000   0.0000   0.0000

          k = 0.0417-0.6861 0.0000 (  2790 PWs)   bands (ev):

   -15.2477 -13.6730  -9.7048  -2.9513  -1.9283  -1.5219   8.5603   8.6952

     occupation numbers 
     1.0000   1.0000   1.0000   1.0758   0.0001   0.0000   0.0000   0.0000

          k = 0.0417-0.6264 0.0000 (  2801 PWs)   bands (ev):

   -15.8528 -12.9926  -9.6064  -3.7454  -1.4319  -1.1044   7.3646   7.8887

     occupation numbers 
     1.0000   1.0000   1.0000   1.0000   0.0000   0.0000   0.0000   0.0000

          k = 0.0417-0.5668 0.0000 (  2802 PWs)   bands (ev):

   -16.5446 -12.1556  -9.4093  -4.5407  -1.2542  -0.2502   6.2522   6.9001

     occupation numbers 
     1.0000   1.0000   1.0000   1.0000   0.0000   0.0000   0.0000   0.0000

          k = 0.0417-0.5071 0.0000 (  2812 PWs)   bands (ev):

   -17.2095 -11.2865  -9.1137  -5.2913  -0.9948   0.5882   5.2408   5.9417

     occupation numbers 
     1.0000   1.0000   1.0000   1.0000   0.0000   0.0000   0.0000   0.0000

          k = 0.0417-0.4474 0.0000 (  2804 PWs)   bands (ev):

   -17.8207 -10.4271  -8.7207  -5.9820  -0.6652   1.3960   4.3368   5.3774

     occupation numbers 
     1.0000   1.0000   1.0000   1.0000   0.0000   0.0000   0.0000   0.0000

          k = 0.0417-0.3878 0.0000 (  2806 PWs)   bands (ev):

   -18.3674  -9.6054  -8.2356  -6.6028  -0.2863   2.1605   3.5434   4.2955

     occupation numbers 
     1.0000   1.0000   1.0000   1.0000   0.0000   0.0000   0.0000   0.0000

          k = 0.0417-0.3281 0.0000 (  2794 PWs)   bands (ev):

   -18.8434  -8.8386  -7.6756  -7.1460   0.1088   2.8480   2.8621   3.6611

     occupation numbers 
     1.0000   1.0000   1.0000   1.0000   0.0000   0.0000   0.0000   0.0000

          k = 0.0417-0.2685 0.0000 (  2780 PWs)   bands (ev):

   -19.2447  -8.1316  -7.6060  -7.0775   0.4746   2.2941   2.9590   3.3223

     occupation numbers 
     1.0000   1.0000   1.0000   1.0000   0.0000   0.0000   0.0000   0.0000

          k = 0.0417-0.2088 0.0000 (  2774 PWs)   bands (ev):

   -19.5686  -7.9785  -7.4871  -6.4920   0.7647   1.8398   2.5520   2.8652

     occupation numbers 
     1.0000   1.0000   1.0000   1.0000   0.0000   0.0000   0.0000   0.0000

          k = 0.0417-0.1491 0.0000 (  2761 PWs)   bands (ev):

   -19.8130  -8.2604  -6.9262  -5.9711   0.9559   1.4989   2.2208   2.5218

     occupation numbers 
     1.0000   1.0000   1.0000   1.0000   0.0000   0.0000   0.0000   0.0000

          k = 0.0417-0.0895 0.0000 (  2745 PWs)   bands (ev):

   -19.9766  -8.4494  -6.4973  -5.5673   1.0659   1.2709   1.9970   2.2872

     occupation numbers 
     1.0000   1.0000   1.0000   1.0000   0.0000   0.0000   0.0000   0.0000

          k = 0.0833-0.0597 0.0000 (  2732 PWs)   bands (ev):

   -19.9687  -8.4426  -6.5973  -5.6564   1.2765   1.4412   2.0094   2.2723

     occupation numbers 
     1.0000   1.0000   1.0000   1.0000   0.0000   0.0000   0.0000   0.0000

          k = 0.0833-0.0000 0.0000 (  2733 PWs)   bands (ev):

   -20.0097  -8.4898  -6.4133  -5.6345   1.2181   1.5476   1.9538   2.1127

     occupation numbers 
     1.0000   1.0000   1.0000   1.0000   0.0000   0.0000   0.0000   0.0000

          k = 0.0833 0.0597 0.0000 (  2732 PWs)   bands (ev):

   -19.9687  -8.4426  -6.5995  -5.6538   1.2765   1.4395   2.0094   2.2725

     occupation numbers 
     1.0000   1.0000   1.0000   1.0000   0.0000   0.0000   0.0000   0.0000

          k = 0.0833 0.1193 0.0000 (  2746 PWs)   bands (ev):

   -19.8461  -8.3011  -7.0442  -5.7978   1.2903   1.4503   2.1770   2.4699

     occupation numbers 
     1.0000   1.0000   1.0000   1.0000   0.0000   0.0000   0.0000   0.0000

          k = 0.0833 0.1790 0.0000 (  2769 PWs)   bands (ev):

   -19.6425  -8.0666  -7.6130  -6.1263   1.1297   1.7367   2.4532   2.7612

     occupation numbers 
     1.0000   1.0000   1.0000   1.0000   0.0000   0.0000   0.0000   0.0000

          k = 0.0833 0.2386 0.0000 (  2778 PWs)   bands (ev):

   -19.3590  -8.2370  -7.7408  -6.6147   0.9019   2.1354   2.8214   3.1625

     occupation numbers 
     1.0000   1.0000   1.0000   1.0000   0.0000   0.0000   0.0000   0.0000

          k = 0.0833 0.2983 0.0000 (  2781 PWs)   bands (ev):

   -18.9974  -8.8855  -7.3264  -7.2083   0.5899   2.6471   2.9620   3.5060

     occupation numbers 
     1.0000   1.0000   1.0000   1.0000   0.0000   0.0000   0.0000   0.0000

          k = 0.0833 0.3580 0.0000 (  2804 PWs)   bands (ev):

   -18.5601  -9.5536  -7.8442  -6.8274   0.2233   2.3639   3.2718   4.0376

     occupation numbers 
     1.0000   1.0000   1.0000   1.0000   0.0000   0.0000   0.0000   0.0000

          k = 0.0833 0.4176 0.0000 (  2806 PWs)   bands (ev):

   -18.0508 -10.2536  -8.4566  -6.2487  -0.1521   1.6466   4.0091   4.7502

     occupation numbers 
     1.0000   1.0000   1.0000   1.0000   0.0000   0.0000   0.0000   0.0000

          k = 0.0833 0.4773 0.0000 (  2804 PWs)   bands (ev):

   -17.4748 -11.0006  -8.9881  -5.5973  -0.4964   0.8826   4.8577   5.9036

     occupation numbers 
     1.0000   1.0000   1.0000   1.0000   0.0000   0.0000   0.0000   0.0000

          k = 0.0833 0.5369 0.0000 (  2800 PWs)   bands (ev):

   -16.8409 -11.7916  -9.4048  -4.8818  -0.7829   0.0836   5.8152   6.4861

     occupation numbers 
     1.0000   1.0000   1.0000   1.0000   0.0000   0.0000   0.0000   0.0000

          k = 0.0833 0.5966 0.0000 (  2802 PWs)   bands (ev):

   -16.1671 -12.5961  -9.6985  -4.1139  -0.9955  -0.7416   6.8770   7.4485

     occupation numbers 
     1.0000   1.0000   1.0000   1.0000   0.0000   0.0000   0.0000   0.0000

          k = 0.0833-0.7756 0.0000 (  2794 PWs)   bands (ev):

   -15.5082 -13.3417  -9.8719  -3.3117  -1.5773  -1.1257   8.0322   8.3113

     occupation numbers 
     1.0000   1.0000   1.0000   1.0020   0.0000   0.0000   0.0000   0.0000

          k = 0.0833-0.7159 0.0000 (  2798 PWs)   bands (ev):

   -15.1365 -13.7438  -9.9293  -2.6441  -2.2560  -1.1695   8.6744   9.1540

     occupation numbers 
     1.0000   1.0000   1.0000   0.7535   0.0357   0.0000   0.0000   0.0000

          k = 0.0833-0.6563 0.0000 (  2794 PWs)   bands (ev):

   -15.5084 -13.3413  -9.8722  -3.3120  -1.5769  -1.1257   8.0323   8.3111

     occupation numbers 
     1.0000   1.0000   1.0000   1.0020   0.0000   0.0000   0.0000   0.0000

          k = 0.0833-0.5966 0.0000 (  2802 PWs)   bands (ev):

   -16.1672 -12.5954  -9.6992  -4.1141  -0.9954  -0.7411   6.8770   7.4484

     occupation numbers 
     1.0000   1.0000   1.0000   1.0000   0.0000   0.0000   0.0000   0.0000

          k = 0.0833-0.5369 0.0000 (  2800 PWs)   bands (ev):

   -16.8410 -11.7905  -9.4061  -4.8820  -0.7826   0.0841   5.8152   6.4860

     occupation numbers 
     1.0000   1.0000   1.0000   1.0000   0.0000   0.0000   0.0000   0.0000

          k = 0.0833-0.4773 0.0000 (  2804 PWs)   bands (ev):

   -17.4749 -10.9991  -8.9898  -5.5975  -0.4960   0.8831   4.8577   5.5728

     occupation numbers 
     1.0000   1.0000   1.0000   1.0000   0.0000   0.0000   0.0000   0.0000

          k = 0.0833-0.4176 0.0000 (  2806 PWs)   bands (ev):

   -18.0509 -10.2516  -8.4590  -6.2489  -0.1516   1.6471   4.0091   4.7500

     occupation numbers 
     1.0000   1.0000   1.0000   1.0000   0.0000   0.0000   0.0000   0.0000

          k = 0.0833-0.3580 0.0000 (  2804 PWs)   bands (ev):

   -18.5601  -9.5512  -7.8470  -6.8275   0.2240   2.3644   3.2718   4.0376

     occupation numbers 
     1.0000   1.0000   1.0000   1.0000   0.0000   0.0000   0.0000   0.0000

          k = 0.0833-0.2983 0.0000 (  2781 PWs)   bands (ev):

   -18.9974  -8.8829  -7.3265  -7.2115   0.5909   2.6471   2.9623   3.5061

     occupation numbers 
     1.0000   1.0000   1.0000   1.0000   0.0000   0.0000   0.0000   0.0000

          k = 0.0833-0.2386 0.0000 (  2778 PWs)   bands (ev):

   -19.3590  -8.2342  -7.7409  -6.6181   0.9031   2.1354   2.8213   3.1625

     occupation numbers 
     1.0000   1.0000   1.0000   1.0000   0.0000   0.0000   0.0000   0.0000

          k = 0.0833-0.1790 0.0000 (  2769 PWs)   bands (ev):

   -19.6425  -8.0667  -7.6101  -6.1300   1.1312   1.7367   2.4532   2.7609

     occupation numbers 
     1.0000   1.0000   1.0000   1.0000   0.0000   0.0000   0.0000   0.0000

          k = 0.0833-0.1193 0.0000 (  2746 PWs)   bands (ev):

   -19.8461  -8.3012  -7.0413  -5.8014   1.2921   1.4503   2.1770   2.4705

     occupation numbers 
     1.0000   1.0000   1.0000   1.0000   0.0000   0.0000   0.0000   0.0000

          k = 0.1250-0.0895 0.0000 (  2750 PWs)   bands (ev):

   -19.8195  -8.2744  -7.2303  -5.9408   1.4807   1.7949   2.2162   2.5023

     occupation numbers 
     1.0000   1.0000   1.0000   1.0000   0.0000   0.0000   0.0000   0.0000

          k = 0.1250-0.0298 0.0000 (  2735 PWs)   bands (ev):

   -19.9010  -8.3680  -6.7780  -6.0610   1.3648   2.0524   2.1051   2.3582

     occupation numbers 
     1.0000   1.0000   1.0000   1.0000   0.0000   0.0000   0.0000   0.0000

          k = 0.1250 0.0298 0.0000 (  2735 PWs)   bands (ev):

   -19.9010  -8.3680  -6.7800  -6.0588   1.3647   2.0504   2.1051   2.3571

     occupation numbers 
     1.0000   1.0000   1.0000   1.0000   0.0000   0.0000   0.0000   0.0000

          k = 0.1250 0.0895 0.0000 (  2750 PWs)   bands (ev):

   -19.8195  -8.2743  -7.2332  -5.9373   1.4806   1.7926   2.2163   2.5025

     occupation numbers 
     1.0000   1.0000   1.0000   1.0000   0.0000   0.0000   0.0000   0.0000

          k = 0.1250 0.1491 0.0000 (  2752 PWs)   bands (ev):

   -19.6570  -8.0877  -7.8193  -5.9988   1.5952   1.7183   2.4358   2.7385

     occupation numbers 
     1.0000   1.0000   1.0000   1.0000   0.0000   0.0000   0.0000   0.0000

          k = 0.1250 0.2088 0.0000 (  2765 PWs)   bands (ev):

   -19.4144  -8.4461  -7.8097  -6.2902   1.4184   2.0594   2.7500   3.0854

     occupation numbers 
     1.0000   1.0000   1.0000   1.0000   0.0000   0.0000   0.0000   0.0000

          k = 0.1250 0.2685 0.0000 (  2771 PWs)   bands (ev):

   -19.0935  -9.0774  -7.4428  -6.7752   1.1814   2.5154   2.9467   3.4356

     occupation numbers 
     1.0000   1.0000   1.0000   1.0000   0.0000   0.0000   0.0000   0.0000

          k = 0.1250 0.3281 0.0000 (  2791 PWs)   bands (ev):

   -18.6964  -9.6987  -7.3909  -6.9905   0.8726   2.4402   3.0839   3.8641

     occupation numbers 
     1.0000   1.0000   1.0000   1.0000   0.0000   0.0000   0.0000   0.0000

          k = 0.1250 0.3878 0.0000 (  2798 PWs)   bands (ev):

   -18.2265 -10.3110  -8.0674  -6.4574   0.5257   1.7760   3.7649   4.5172

     occupation numbers 
     1.0000   1.0000   1.0000   1.0000   0.0000   0.0000   0.0000   0.0000

          k = 0.1250 0.4474 0.0000 (  2806 PWs)   bands (ev):

   -17.6888 -10.9310  -8.7326  -5.8501   0.1843   1.0668   4.5575   5.2857

     occupation numbers 
     1.0000   1.0000   1.0000   1.0000   0.0000   0.0000   0.0000   0.0000

          k = 0.1250 0.5071 0.0000 (  2797 PWs)   bands (ev):

   -17.0913 -11.5826  -9.3166  -5.1764  -0.1166   0.3244   5.4601   6.1498

     occupation numbers 
     1.0000   1.0000   1.0000   1.0000   0.0000   0.0000   0.0000   0.0000

          k = 0.1250 0.5668 0.0000 (  2794 PWs)   bands (ev):

   -16.4484 -12.2760  -9.7672  -4.4470  -0.4472  -0.3556   6.4690   7.0737

     occupation numbers 
     1.0000   1.0000   1.0000   1.0000   0.0000   0.0000   0.0000   0.0000

          k = 0.1250-0.8054 0.0000 (  2798 PWs)   bands (ev):

   -15.7944 -12.9773 -10.0642  -3.6746  -1.2431  -0.5201   7.5763   7.9314

     occupation numbers 
     1.0000   1.0000   1.0000   1.0000   0.0000   0.0000   0.0000   0.0000

          k = 0.1250-0.7457 0.0000 (  2793 PWs)   bands (ev):

   -15.2555 -13.5458 -10.2098  -2.8762  -2.0519  -0.6036   8.3913   8.7587

     occupation numbers 
     1.0000   1.0000   1.0000   1.0816   0.0016   0.0000   0.0000   0.0000

          k = 0.1250-0.6861 0.0000 (  2793 PWs)   bands (ev):

   -15.2556 -13.5454 -10.2101  -2.8768  -2.0513  -0.6036   8.3911   8.7587

     occupation numbers 
     1.0000   1.0000   1.0000   1.0817   0.0016   0.0000   0.0000   0.0000

          k = 0.1250-0.6264 0.0000 (  2798 PWs)   bands (ev):

   -15.7946 -12.9764 -10.0650  -3.6751  -1.2424  -0.5200   7.5764   7.9312

     occupation numbers 
     1.0000   1.0000   1.0000   1.0000   0.0000   0.0000   0.0000   0.0000

          k = 0.1250-0.5668 0.0000 (  2794 PWs)   bands (ev):

   -16.4486 -12.2746  -9.7686  -4.4474  -0.4464  -0.3553   6.4690   7.0737

     occupation numbers 
     1.0000   1.0000   1.0000   1.0000   0.0000   0.0000   0.0000   0.0000

          k = 0.1250-0.5071 0.0000 (  2797 PWs)   bands (ev):

   -17.0914 -11.5809  -9.3186  -5.1768  -0.1162   0.3252   5.4601   6.1498

     occupation numbers 
     1.0000   1.0000   1.0000   1.0000   0.0000   0.0000   0.0000   0.0000

          k = 0.1250-0.4474 0.0000 (  2806 PWs)   bands (ev):

   -17.6889 -10.9288  -8.7352  -5.8503   0.1850   1.0676   4.5575   5.2857

     occupation numbers 
     1.0000   1.0000   1.0000   1.0000   0.0000   0.0000   0.0000   0.0000

          k = 0.1250-0.3878 0.0000 (  2798 PWs)   bands (ev):

   -18.2265 -10.3087  -8.0703  -6.4577   0.5265   1.7767   3.7649   4.5170

     occupation numbers 
     1.0000   1.0000   1.0000   1.0000   0.0000   0.0000   0.0000   0.0000

          k = 0.1250-0.3281 0.0000 (  2791 PWs)   bands (ev):

   -18.6964  -9.6962  -7.3941  -6.9906   0.8738   2.4409   3.0839   3.8642

     occupation numbers 
     1.0000   1.0000   1.0000   1.0000   0.0000   0.0000   0.0000   0.0000

          k = 0.1250-0.2685 0.0000 (  2771 PWs)   bands (ev):

   -19.0935  -9.0749  -7.4429  -6.7787   1.1829   2.5154   2.9469   3.4359

     occupation numbers 
     1.0000   1.0000   1.0000   1.0000   0.0000   0.0000   0.0000   0.0000

          k = 0.1250-0.2088 0.0000 (  2765 PWs)   bands (ev):

   -19.4145  -8.4434  -7.8098  -6.2939   1.4203   2.0594   2.7499   3.0854

     occupation numbers 
     1.0000   1.0000   1.0000   1.0000   0.0000   0.0000   0.0000   0.0000

          k = 0.1250-0.1491 0.0000 (  2752 PWs)   bands (ev):

   -19.6570  -8.0877  -7.8164  -6.0026   1.5974   1.7183   2.4358   2.7384

     occupation numbers 
     1.0000   1.0000   1.0000   1.0000   0.0000   0.0000   0.0000   0.0000

          k = 0.1667-0.1193 0.0000 (  2756 PWs)   bands (ev):

   -19.6121  -8.0555  -8.0417  -6.1744   1.7675   2.1539   2.5010   2.8063

     occupation numbers 
     1.0000   1.0000   1.0000   1.0000   0.0000   0.0000   0.0000   0.0000

          k = 0.1667-0.0597 0.0000 (  2758 PWs)   bands (ev):

   -19.7334  -8.1802  -7.4486  -6.3854   1.5957   2.3388   2.4094   2.6580

     occupation numbers 
     1.0000   1.0000   1.0000   1.0000   0.0000   0.0000   0.0000   0.0000

          k = 0.1667-0.0000 0.0000 (  2763 PWs)   bands (ev):

   -19.7739  -8.2265  -7.0545  -6.6499   1.5380   2.2839   2.5137   2.8742

     occupation numbers 
     1.0000   1.0000   1.0000   1.0000   0.0000   0.0000   0.0000   0.0000

          k = 0.1667 0.0597 0.0000 (  2758 PWs)   bands (ev):

   -19.7334  -8.1802  -7.4513  -6.3821   1.5957   2.3388   2.4073   2.6580

     occupation numbers 
     1.0000   1.0000   1.0000   1.0000   0.0000   0.0000   0.0000   0.0000

          k = 0.1667 0.1193 0.0000 (  2756 PWs)   bands (ev):

   -19.6121  -8.0582  -8.0416  -6.1708   1.7674   2.1515   2.5010   2.8064

     occupation numbers 
     1.0000   1.0000   1.0000   1.0000   0.0000   0.0000   0.0000   0.0000

          k = 0.1667 0.1790 0.0000 (  2750 PWs)   bands (ev):

   -19.4109  -8.6986  -7.8121  -6.1993   1.9439   2.0783   2.7543   3.0921

     occupation numbers 
     1.0000   1.0000   1.0000   1.0000   0.0000   0.0000   0.0000   0.0000

          k = 0.1667 0.2386 0.0000 (  2763 PWs)   bands (ev):

   -19.1312  -9.3335  -7.4938  -6.4826   1.7922   2.4671   2.8814   3.3876

     occupation numbers 
     1.0000   1.0000   1.0000   1.0000   0.0000   0.0000   0.0000   0.0000

          k = 0.1667 0.2983 0.0000 (  2774 PWs)   bands (ev):

   -18.7752  -9.9433  -7.0901  -6.9796   1.5762   2.4059   2.9794   3.7700

     occupation numbers 
     1.0000   1.0000   1.0000   1.0000   0.0000   0.0000   0.0000   0.0000

          k = 0.1667 0.3580 0.0000 (  2783 PWs)   bands (ev):

   -18.3462 -10.5199  -7.6221  -6.6055   1.2936   1.7893   3.6041   4.3667

     occupation numbers 
     1.0000   1.0000   1.0000   1.0000   0.0000   0.0000   0.0000   0.0000

          k = 0.1667 0.4176 0.0000 (  2798 PWs)   bands (ev):

   -17.8492 -11.0660  -8.3364  -6.0461   0.9816   1.1358   4.3406   5.3803

     occupation numbers 
     1.0000   1.0000   1.0000   1.0000   0.0000   0.0000   0.0000   0.0000

          k = 0.1667 0.4773 0.0000 (  2798 PWs)   bands (ev):

   -17.2919 -11.5964  -9.0476  -5.4203   0.4581   0.6832   5.1875   5.8958

     occupation numbers 
     1.0000   1.0000   1.0000   1.0000   0.0000   0.0000   0.0000   0.0000

          k = 0.1667 0.5369 0.0000 (  2806 PWs)   bands (ev):

   -16.6874 -12.1358  -9.6794  -4.7382  -0.2429   0.4292   6.1421   6.7788

     occupation numbers 
     1.0000   1.0000   1.0000   1.0000   0.0000   0.0000   0.0000   0.0000

          k = 0.1667-0.8352 0.0000 (  2800 PWs)   bands (ev):

   -16.0625 -12.6996 -10.1628  -4.0131  -0.9678   0.2382   7.1983   7.6213

     occupation numbers 
     1.0000   1.0000   1.0000   1.0000   0.0000   0.0000   0.0000   0.0000

          k = 0.1667-0.7756 0.0000 (  2795 PWs)   bands (ev):

   -15.4894 -13.2380 -10.4574  -3.2622  -1.7126   0.1204   8.0941   8.3404

     occupation numbers 
     1.0000   1.0000   1.0000   1.0042   0.0000   0.0000   0.0000   0.0000

          k = 0.1667-0.7159 0.0000 (  2786 PWs)   bands (ev):

   -15.2058 -13.5116 -10.5552  -2.6025  -2.3694   0.0808   8.1742   9.4174

     occupation numbers 
     1.0000   1.0000   1.0000   0.6414   0.1268   0.0000   0.0000   0.0000

          k = 0.1667-0.6563 0.0000 (  2795 PWs)   bands (ev):

   -15.4897 -13.2371 -10.4582  -3.2629  -1.7118   0.1206   8.0937   8.3406

     occupation numbers 
     1.0000   1.0000   1.0000   1.0041   0.0000   0.0000   0.0000   0.0000

          k = 0.1667-0.5966 0.0000 (  2800 PWs)   bands (ev):

   -16.0627 -12.6980 -10.1643  -4.0137  -0.9669   0.2385   7.1983   7.6209

     occupation numbers 
     1.0000   1.0000   1.0000   1.0000   0.0000   0.0000   0.0000   0.0000

          k = 0.1667-0.5369 0.0000 (  2806 PWs)   bands (ev):

   -16.6875 -12.1338  -9.6815  -4.7387  -0.2419   0.4297   6.1421   6.7787

     occupation numbers 
     1.0000   1.0000   1.0000   1.0000   0.0000   0.0000   0.0000   0.0000

          k = 0.1667-0.4773 0.0000 (  2798 PWs)   bands (ev):

   -17.2920 -11.5942  -9.0501  -5.4207   0.4591   0.6839   5.1875   5.8958

     occupation numbers 
     1.0000   1.0000   1.0000   1.0000   0.0000   0.0000   0.0000   0.0000

          k = 0.1667-0.4176 0.0000 (  2798 PWs)   bands (ev):

   -17.8493 -11.0637  -8.3392  -6.0465   0.9826   1.1367   4.3406   5.3815

     occupation numbers 
     1.0000   1.0000   1.0000   1.0000   0.0000   0.0000   0.0000   0.0000

          k = 0.1667-0.3580 0.0000 (  2783 PWs)   bands (ev):

   -18.3463 -10.5176  -7.6251  -6.6057   1.2949   1.7901   3.6042   4.3668

     occupation numbers 
     1.0000   1.0000   1.0000   1.0000   0.0000   0.0000   0.0000   0.0000

          k = 0.1667-0.2983 0.0000 (  2774 PWs)   bands (ev):

   -18.7752  -9.9409  -7.0903  -6.9829   1.5779   2.4066   2.9794   3.7700

     occupation numbers 
     1.0000   1.0000   1.0000   1.0000   0.0000   0.0000   0.0000   0.0000

          k = 0.1667-0.2386 0.0000 (  2763 PWs)   bands (ev):

   -19.1312  -9.3310  -7.4940  -6.4861   1.7944   2.4671   2.8816   3.3880

     occupation numbers 
     1.0000   1.0000   1.0000   1.0000   0.0000   0.0000   0.0000   0.0000

          k = 0.1667-0.1790 0.0000 (  2750 PWs)   bands (ev):

   -19.4109  -8.6960  -7.8122  -6.2029   1.9462   2.0784   2.7539   3.0920

     occupation numbers 
     1.0000   1.0000   1.0000   1.0000   0.0000   0.0000   0.0000   0.0000

          k = 0.2083-0.1491 0.0000 (  2748 PWs)   bands (ev):

   -19.3485  -8.9594  -7.7480  -6.3876   2.1340   2.5063   2.8289   3.1927

     occupation numbers 
     1.0000   1.0000   1.0000   1.0000   0.0000   0.0000   0.0000   0.0000

          k = 0.2083-0.0895 0.0000 (  2750 PWs)   bands (ev):

   -19.5083  -8.3000  -7.9289  -6.6249   1.9099   2.6485   2.7234   3.0089

     occupation numbers 
     1.0000   1.0000   1.0000   1.0000   0.0000   0.0000   0.0000   0.0000

          k = 0.2083-0.0298 0.0000 (  2757 PWs)   bands (ev):

   -19.5886  -8.0198  -7.6716  -7.0552   1.7958   2.5445   2.7757   3.1872

     occupation numbers 
     1.0000   1.0000   1.0000   1.0000   0.0000   0.0000   0.0000   0.0000

          k = 0.2083 0.0298 0.0000 (  2757 PWs)   bands (ev):

   -19.5886  -8.0198  -7.6743  -7.0524   1.7958   2.5446   2.7755   3.1859

     occupation numbers 
     1.0000   1.0000   1.0000   1.0000   0.0000   0.0000   0.0000   0.0000

          k = 0.2083 0.0895 0.0000 (  2750 PWs)   bands (ev):

   -19.5083  -8.3026  -7.9288  -6.6217   1.9098   2.6485   2.7216   3.0085

     occupation numbers 
     1.0000   1.0000   1.0000   1.0000   0.0000   0.0000   0.0000   0.0000

          k = 0.2083 0.1491 0.0000 (  2748 PWs)   bands (ev):

   -19.3485  -8.9618  -7.7479  -6.3842   2.1338   2.5041   2.8290   3.1928

     occupation numbers 
     1.0000   1.0000   1.0000   1.0000   0.0000   0.0000   0.0000   0.0000

          k = 0.2083 0.2088 0.0000 (  2756 PWs)   bands (ev):

   -19.1105  -9.6107  -7.4790  -6.4058   2.3126   2.5186   2.7805   3.3701

     occupation numbers 
     1.0000   1.0000   1.0000   1.0000   0.0000   0.0000   0.0000   0.0000

          k = 0.2083 0.2685 0.0000 (  2766 PWs)   bands (ev):

   -18.7963 -10.2271  -7.1253  -6.6965   2.2141   2.2870   2.9590   3.7504

     occupation numbers 
     1.0000   1.0000   1.0000   1.0000   0.0000   0.0000   0.0000   0.0000

          k = 0.2083 0.3281 0.0000 (  2776 PWs)   bands (ev):

   -18.4095 -10.7982  -7.2123  -6.6914   1.7058   2.0494   3.5268   4.2969

     occupation numbers 
     1.0000   1.0000   1.0000   1.0000   0.0000   0.0000   0.0000   0.0000

          k = 0.2083 0.3878 0.0000 (  2785 PWs)   bands (ev):

   -17.9549 -11.3180  -7.8813  -6.1835   1.1009   1.8143   4.2070   5.2458

     occupation numbers 
     1.0000   1.0000   1.0000   1.0000   0.0000   0.0000   0.0000   0.0000

          k = 0.2083 0.4474 0.0000 (  2796 PWs)   bands (ev):

   -17.4407 -11.7870  -8.6270  -5.6102   0.4861   1.5495   4.9979   5.7241

     occupation numbers 
     1.0000   1.0000   1.0000   1.0000   0.0000   0.0000   0.0000   0.0000

          k = 0.2083 0.5071 0.0000 (  2806 PWs)   bands (ev):

   -16.8799 -12.2142  -9.3743  -4.9831  -0.1375   1.2995   5.8973   6.5666

     occupation numbers 
     1.0000   1.0000   1.0000   1.0000   0.0000   0.0000   0.0000   0.0000

          k = 0.2083-0.8651 0.0000 (  2802 PWs)   bands (ev):

   -16.2971 -12.6159 -10.0441  -4.3173  -0.7727   1.0939   6.9004   7.3977

     occupation numbers 
     1.0000   1.0000   1.0000   1.0000   0.0000   0.0000   0.0000   0.0000

          k = 0.2083-0.8054 0.0000 (  2804 PWs)   bands (ev):

   -15.7453 -12.9994 -10.5512  -3.6366  -1.4170   0.9497   7.8849   7.9954

     occupation numbers 
     1.0000   1.0000   1.0000   1.0000   0.0000   0.0000   0.0000   0.0000

          k = 0.2083-0.7457 0.0000 (  2791 PWs)   bands (ev):

   -15.3551 -13.2912 -10.8226  -3.0112  -2.0189   0.8759   7.9326   9.1425

     occupation numbers 
     1.0000   1.0000   1.0000   1.0569   0.0009   0.0000   0.0000   0.0000

          k = 0.2083-0.6861 0.0000 (  2791 PWs)   bands (ev):

   -15.3553 -13.2906 -10.8231  -3.0118  -2.0181   0.8760   7.9324   9.1427

     occupation numbers 
     1.0000   1.0000   1.0000   1.0567   0.0008   0.0000   0.0000   0.0000

          k = 0.2083-0.6264 0.0000 (  2804 PWs)   bands (ev):

   -15.7457 -12.9978 -10.5526  -3.6374  -1.4159   0.9500   7.8843   7.9955

     occupation numbers 
     1.0000   1.0000   1.0000   1.0000   0.0000   0.0000   0.0000   0.0000

          k = 0.2083-0.5668 0.0000 (  2802 PWs)   bands (ev):

   -16.2974 -12.6138 -10.0462  -4.3180  -0.7715   1.0944   6.9005   7.3973

     occupation numbers 
     1.0000   1.0000   1.0000   1.0000   0.0000   0.0000   0.0000   0.0000

          k = 0.2083-0.5071 0.0000 (  2806 PWs)   bands (ev):

   -16.8801 -12.2119  -9.3768  -4.9837  -0.1363   1.3002   5.8973   6.5667

     occupation numbers 
     1.0000   1.0000   1.0000   1.0000   0.0000   0.0000   0.0000   0.0000

          k = 0.2083-0.4474 0.0000 (  2796 PWs)   bands (ev):

   -17.4408 -11.7848  -8.6297  -5.6107   0.4873   1.5506   4.9979   5.7241

     occupation numbers 
     1.0000   1.0000   1.0000   1.0000   0.0000   0.0000   0.0000   0.0000

          k = 0.2083-0.3878 0.0000 (  2785 PWs)   bands (ev):

   -17.9550 -11.3158  -7.8842  -6.1839   1.1020   1.8158   4.2070   5.2461

     occupation numbers 
     1.0000   1.0000   1.0000   1.0000   0.0000   0.0000   0.0000   0.0000

          k = 0.2083-0.3281 0.0000 (  2776 PWs)   bands (ev):

   -18.4095 -10.7960  -7.2154  -6.6917   1.7067   2.0513   3.5268   4.2970

     occupation numbers 
     1.0000   1.0000   1.0000   1.0000   0.0000   0.0000   0.0000   0.0000

          k = 0.2083-0.2685 0.0000 (  2766 PWs)   bands (ev):

   -18.7964 -10.2248  -7.1255  -6.6998   2.2164   2.2878   2.9590   3.7505

     occupation numbers 
     1.0000   1.0000   1.0000   1.0000   0.0000   0.0000   0.0000   0.0000

          k = 0.2083-0.2088 0.0000 (  2756 PWs)   bands (ev):

   -19.1105  -9.6083  -7.4792  -6.4092   2.3150   2.5187   2.7809   3.3698

     occupation numbers 
     1.0000   1.0000   1.0000   1.0000   0.0000   0.0000   0.0000   0.0000

          k = 0.2500-0.1790 0.0000 (  2755 PWs)   bands (ev):

   -19.0318  -9.8809  -7.3987  -6.5863   2.5648   2.6129   2.8429   3.4325

     occupation numbers 
     1.0000   1.0000   1.0000   1.0000   0.0000   0.0000   0.0000   0.0000

          k = 0.2500-0.1193 0.0000 (  2747 PWs)   bands (ev):

   -19.2280  -9.2130  -7.6179  -6.8285   2.3039   2.9258   3.0300   3.2880

     occupation numbers 
     1.0000   1.0000   1.0000   1.0000   0.0000   0.0000   0.0000   0.0000

          k = 0.2500-0.0597 0.0000 (  2761 PWs)   bands (ev):

   -19.3465  -8.5325  -7.7506  -7.2824   2.1364   2.8762   3.1051   3.4838

     occupation numbers 
     1.0000   1.0000   1.0000   1.0000   0.0000   0.0000   0.0000   0.0000

          k = 0.2500-0.0000 0.0000 (  2772 PWs)   bands (ev):

   -19.3861  -7.9084  -7.8368  -7.7950   2.0801   2.8328   3.0732   3.5868

     occupation numbers 
     1.0000   1.0000   1.0000   1.0000   0.0000   0.0000   0.0000   0.0000

          k = 0.2500 0.0597 0.0000 (  2761 PWs)   bands (ev):

   -19.3465  -8.5350  -7.7505  -7.2795   2.1364   2.8763   3.1048   3.4841

     occupation numbers 
     1.0000   1.0000   1.0000   1.0000   0.0000   0.0000   0.0000   0.0000

          k = 0.2500 0.1193 0.0000 (  2747 PWs)   bands (ev):

   -19.2280  -9.2153  -7.6178  -6.8254   2.3037   2.9257   3.0281   3.2874

     occupation numbers 
     1.0000   1.0000   1.0000   1.0000   0.0000   0.0000   0.0000   0.0000

          k = 0.2500 0.1790 0.0000 (  2755 PWs)   bands (ev):

   -19.0318  -9.8832  -7.3985  -6.5832   2.5642   2.6123   2.8411   3.4324

     occupation numbers 
     1.0000   1.0000   1.0000   1.0000   0.0000   0.0000   0.0000   0.0000

          k = 0.2500 0.2386 0.0000 (  2760 PWs)   bands (ev):

   -18.7600 -10.5153  -7.0959  -6.6112   2.1067   2.6653   3.0345   3.8061

     occupation numbers 
     1.0000   1.0000   1.0000   1.0000   0.0000   0.0000   0.0000   0.0000

          k = 0.2500 0.2983 0.0000 (  2775 PWs)   bands (ev):

   -18.4162 -11.0963  -6.9176  -6.7144   1.5515   2.6389   3.5338   4.3060

     occupation numbers 
     1.0000   1.0000   1.0000   1.0000   0.0000   0.0000   0.0000   0.0000

          k = 0.2500 0.3580 0.0000 (  2773 PWs)   bands (ev):

   -18.0057 -11.6151  -7.4544  -6.2608   0.9853   2.5566   4.1566   4.9177

     occupation numbers 
     1.0000   1.0000   1.0000   1.0000   0.0000   0.0000   0.0000   0.0000

          k = 0.2500 0.4176 0.0000 (  2797 PWs)   bands (ev):

   -17.5371 -12.0643  -8.1466  -5.7448   0.4245   2.3914   4.8913   5.6334

     occupation numbers 
     1.0000   1.0000   1.0000   1.0000   0.0000   0.0000   0.0000   0.0000

          k = 0.2500 0.4773 0.0000 (  2809 PWs)   bands (ev):

   -17.0247 -12.4386  -8.9161  -5.1792  -0.1249   2.1859   5.7350   6.4349

     occupation numbers 
     1.0000   1.0000   1.0000   1.0000   0.0000   0.0000   0.0000   0.0000

          k = 0.2500-0.8949 0.0000 (  2804 PWs)   bands (ev):

   -16.4933 -12.7344  -9.6885  -4.5825  -0.6635   1.9891   6.6838   7.2564

     occupation numbers 
     1.0000   1.0000   1.0000   1.0000   0.0000   0.0000   0.0000   0.0000

          k = 0.2500-0.8352 0.0000 (  2802 PWs)   bands (ev):

   -15.9894 -12.9493 -10.3836  -3.9839  -1.1892   1.8326   7.7283   7.7888

     occupation numbers 
     1.0000   1.0000   1.0000   1.0000   0.0000   0.0000   0.0000   0.0000

          k = 0.2500-0.7756 0.0000 (  2791 PWs)   bands (ev):

   -15.5984 -13.0811 -10.8950  -3.4453  -1.6684   1.7333   7.7841   8.8403

     occupation numbers 
     1.0000   1.0000   1.0000   1.0002   0.0000   0.0000   0.0000   0.0000

          k = 0.2500-0.7159 0.0000 (  2788 PWs)   bands (ev):

   -15.4442 -13.1256 -11.0901  -3.1750  -1.9160   1.6995   7.7248   9.8108

     occupation numbers 
     1.0000   1.0000   1.0000   1.0130   0.0001   0.0000   0.0000   0.0000

          k = 0.2500-0.6563 0.0000 (  2791 PWs)   bands (ev):

   -15.5987 -13.0796 -10.8963  -3.4461  -1.6674   1.7335   7.7837   8.8405

     occupation numbers 
     1.0000   1.0000   1.0000   1.0002   0.0000   0.0000   0.0000   0.0000

          k = 0.2500-0.5966 0.0000 (  2802 PWs)   bands (ev):

   -15.9898 -12.9471 -10.3856  -3.9848  -1.1878   1.8331   7.7285   7.7881

     occupation numbers 
     1.0000   1.0000   1.0000   1.0000   0.0000   0.0000   0.0000   0.0000

          k = 0.2500-0.5369 0.0000 (  2804 PWs)   bands (ev):

   -16.4937 -12.7321  -9.6908  -4.5833  -0.6621   1.9899   6.6839   7.2561

     occupation numbers 
     1.0000   1.0000   1.0000   1.0000   0.0000   0.0000   0.0000   0.0000

          k = 0.2500-0.4773 0.0000 (  2809 PWs)   bands (ev):

   -17.0249 -12.4364  -8.9186  -5.1799  -0.1235   2.1871   5.7351   6.4349

     occupation numbers 
     1.0000   1.0000   1.0000   1.0000   0.0000   0.0000   0.0000   0.0000

          k = 0.2500-0.4176 0.0000 (  2797 PWs)   bands (ev):

   -17.5373 -12.0621  -8.1494  -5.7453   0.4258   2.3930   4.8914   5.6332

     occupation numbers 
     1.0000   1.0000   1.0000   1.0000   0.0000   0.0000   0.0000   0.0000

          k = 0.2500-0.3580 0.0000 (  2773 PWs)   bands (ev):

   -18.0058 -11.6130  -7.4573  -6.2613   0.9865   2.5587   4.1566   5.1958

     occupation numbers 
     1.0000   1.0000   1.0000   1.0000   0.0000   0.0000   0.0000   0.0000

          k = 0.2500-0.2983 0.0000 (  2775 PWs)   bands (ev):

   -18.4163 -11.0941  -6.9206  -6.7148   1.5526   2.6414   3.5338   4.3060

     occupation numbers 
     1.0000   1.0000   1.0000   1.0000   0.0000   0.0000   0.0000   0.0000

          k = 0.2500-0.2386 0.0000 (  2760 PWs)   bands (ev):

   -18.7601 -10.5131  -7.0961  -6.6144   2.1076   2.6678   3.0346   3.8062

     occupation numbers 
     1.0000   1.0000   1.0000   1.0000   0.0000   0.0000   0.0000   0.0000

          k = 0.2917-0.2088 0.0000 (  2758 PWs)   bands (ev):

   -18.6670 -10.7847  -7.0024  -6.7668   1.8827   2.9570   3.2412   3.9400

     occupation numbers 
     1.0000   1.0000   1.0000   1.0000   0.0000   0.0000   0.0000   0.0000

          k = 0.2917-0.1491 0.0000 (  2759 PWs)   bands (ev):

   -18.8960 -10.1323  -7.2536  -7.0044   2.3715   2.7667   3.3052   3.5964

     occupation numbers 
     1.0000   1.0000   1.0000   1.0000   0.0000   0.0000   0.0000   0.0000

          k = 0.2917-0.0895 0.0000 (  2760 PWs)   bands (ev):

   -19.0504  -9.4435  -7.4632  -7.4235   2.5561   2.7675   3.3595   3.4768

     occupation numbers 
     1.0000   1.0000   1.0000   1.0000   0.0000   0.0000   0.0000   0.0000

          k = 0.2917-0.0298 0.0000 (  2760 PWs)   bands (ev):

   -19.1281  -8.7434  -8.0651  -7.5091   2.4462   3.0167   3.2170   3.4375

     occupation numbers 
     1.0000   1.0000   1.0000   1.0000   0.0000   0.0000   0.0000   0.0000

          k = 0.2917 0.0298 0.0000 (  2760 PWs)   bands (ev):

   -19.1281  -8.7458  -8.0626  -7.5091   2.4461   3.0166   3.2169   3.4374

     occupation numbers 
     1.0000   1.0000   1.0000   1.0000   0.0000   0.0000   0.0000   0.0000

          k = 0.2917 0.0895 0.0000 (  2760 PWs)   bands (ev):

   -19.0504  -9.4457  -7.4605  -7.4234   2.5560   2.7672   3.3594   3.4764

     occupation numbers 
     1.0000   1.0000   1.0000   1.0000   0.0000   0.0000   0.0000   0.0000

          k = 0.2917 0.1491 0.0000 (  2759 PWs)   bands (ev):

   -18.8960 -10.1344  -7.2534  -7.0015   2.3708   2.7665   3.3039   3.5965

     occupation numbers 
     1.0000   1.0000   1.0000   1.0000   0.0000   0.0000   0.0000   0.0000

          k = 0.2917 0.2088 0.0000 (  2758 PWs)   bands (ev):

   -18.6669 -10.7867  -7.0021  -6.7638   1.8819   2.9553   3.2407   3.9400

     occupation numbers 
     1.0000   1.0000   1.0000   1.0000   0.0000   0.0000   0.0000   0.0000

          k = 0.2917 0.2685 0.0000 (  2777 PWs)   bands (ev):

   -18.3670 -11.3849  -6.8060  -6.6746   1.3512   2.9614   3.6311   4.3932

     occupation numbers 
     1.0000   1.0000   1.0000   1.0000   0.0000   0.0000   0.0000   0.0000

          k = 0.2917 0.3281 0.0000 (  2779 PWs)   bands (ev):

   -18.0021 -11.9150  -7.1321  -6.2780   0.8160   3.0204   4.1900   4.9551

     occupation numbers 
     1.0000   1.0000   1.0000   1.0000   0.0000   0.0000   0.0000   0.0000

          k = 0.2917 0.3878 0.0000 (  2779 PWs)   bands (ev):

   -17.5818 -12.3647  -7.6895  -5.8232   0.2996   3.0476   4.8675   5.6217

     occupation numbers 
     1.0000   1.0000   1.0000   1.0000   0.0000   0.0000   0.0000   0.0000

          k = 0.2917 0.4474 0.0000 (  2793 PWs)   bands (ev):

   -17.1221 -12.7203  -8.4001  -5.3254  -0.1847   2.9775   5.6553   6.3805

     occupation numbers 
     1.0000   1.0000   1.0000   1.0000   0.0000   0.0000   0.0000   0.0000

          k = 0.2917-0.9247 0.0000 (  2809 PWs)   bands (ev):

   -16.6503 -12.9638  -9.1853  -4.8064  -0.6305   2.8450   6.5491   7.1875

     occupation numbers 
     1.0000   1.0000   1.0000   1.0000   0.0000   0.0000   0.0000   0.0000

          k = 0.2917-0.8651 0.0000 (  2806 PWs)   bands (ev):

   -16.2115 -13.0713  -9.9723  -4.2989  -1.0325   2.7071   7.5410   7.7901

     occupation numbers 
     1.0000   1.0000   1.0000   1.0000   0.0000   0.0000   0.0000   0.0000

          k = 0.2917-0.8054 0.0000 (  2807 PWs)   bands (ev):

   -15.8698 -13.0286 -10.6774  -3.8564  -1.3733   2.6000   7.7523   8.6075

     occupation numbers 
     1.0000   1.0000   1.0000   1.0000   0.0000   0.0000   0.0000   0.0000

          k = 0.2917-0.7457 0.0000 (  2801 PWs)   bands (ev):

   -15.6854 -12.9026 -11.1529  -3.5740  -1.5933   2.5427   7.5881   9.2971

     occupation numbers 
     1.0000   1.0000   1.0000   1.0000   0.0000   0.0000   0.0000   0.0000

          k = 0.2917-0.6861 0.0000 (  2801 PWs)   bands (ev):

   -15.6856 -12.9016 -11.1537  -3.5744  -1.5928   2.5429   7.5879   9.2972

     occupation numbers 
     1.0000   1.0000   1.0000   1.0000   0.0000   0.0000   0.0000   0.0000

          k = 0.2917-0.6264 0.0000 (  2807 PWs)   bands (ev):

   -15.8702 -13.0265 -10.6793  -3.8573  -1.3721   2.6005   7.7517   8.6077

     occupation numbers 
     1.0000   1.0000   1.0000   1.0000   0.0000   0.0000   0.0000   0.0000

          k = 0.2917-0.5668 0.0000 (  2806 PWs)   bands (ev):

   -16.2120 -13.0689  -9.9745  -4.2999  -1.0310   2.7079   7.5411   7.7895

     occupation numbers 
     1.0000   1.0000   1.0000   1.0000   0.0000   0.0000   0.0000   0.0000

          k = 0.2917-0.5071 0.0000 (  2809 PWs)   bands (ev):

   -16.6507 -12.9615  -9.1877  -4.8073  -0.6289   2.8463   6.5491   7.1873

     occupation numbers 
     1.0000   1.0000   1.0000   1.0000   0.0000   0.0000   0.0000   0.0000

          k = 0.2917-0.4474 0.0000 (  2793 PWs)   bands (ev):

   -17.1224 -12.7182  -8.4026  -5.3261  -0.1831   2.9792   5.6554   6.3804

     occupation numbers 
     1.0000   1.0000   1.0000   1.0000   0.0000   0.0000   0.0000   0.0000

          k = 0.2917-0.3878 0.0000 (  2779 PWs)   bands (ev):

   -17.5820 -12.3627  -7.6922  -5.8238   0.3010   3.0499   4.8675   5.6216

     occupation numbers 
     1.0000   1.0000   1.0000   1.0000   0.0000   0.0000   0.0000   0.0000

          k = 0.2917-0.3281 0.0000 (  2779 PWs)   bands (ev):

   -18.0022 -11.9130  -7.1349  -6.2785   0.8172   3.0228   4.1900   4.9551

     occupation numbers 
     1.0000   1.0000   1.0000   1.0000   0.0000   0.0000   0.0000   0.0000

          k = 0.2917-0.2685 0.0000 (  2777 PWs)   bands (ev):

   -18.3671 -11.3829  -6.8090  -6.6750   1.3523   2.9638   3.6311   4.3932

     occupation numbers 
     1.0000   1.0000   1.0000   1.0000   0.0000   0.0000   0.0000   0.0000

          k = 0.3333-0.2386 0.0000 (  2770 PWs)   bands (ev):

   -18.2631 -11.6447  -6.9231  -6.5731   1.1245   3.1782   3.8222   4.5598

     occupation numbers 
     1.0000   1.0000   1.0000   1.0000   0.0000   0.0000   0.0000   0.0000

          k = 0.3333-0.1790 0.0000 (  2758 PWs)   bands (ev):

   -18.5184 -11.0259  -7.1501  -6.8456   1.6250   3.2295   3.5918   4.1537

     occupation numbers 
     1.0000   1.0000   1.0000   1.0000   0.0000   0.0000   0.0000   0.0000

          k = 0.3333-0.1193 0.0000 (  2759 PWs)   bands (ev):

   -18.7045 -10.3519  -7.6087  -7.0454   2.0707   3.0444   3.8055   3.8550

     occupation numbers 
     1.0000   1.0000   1.0000   1.0000   0.0000   0.0000   0.0000   0.0000

          k = 0.3333-0.0597 0.0000 (  2763 PWs)   bands (ev):

   -18.8176  -9.6436  -8.2184  -7.1671   2.3952   2.8895   3.6639   3.8601

     occupation numbers 
     1.0000   1.0000   1.0000   1.0000   0.0000   0.0000   0.0000   0.0000

          k = 0.3333-0.0000 0.0000 (  2774 PWs)   bands (ev):

   -18.8555  -9.0111  -8.8233  -7.2080   2.5183   2.8358   3.5951   3.8299

     occupation numbers 
     1.0000   1.0000   1.0000   1.0000   0.0000   0.0000   0.0000   0.0000

          k = 0.3333 0.0597 0.0000 (  2763 PWs)   bands (ev):

   -18.8176  -9.6457  -8.2160  -7.1670   2.3948   2.8895   3.6639   3.8599

     occupation numbers 
     1.0000   1.0000   1.0000   1.0000   0.0000   0.0000   0.0000   0.0000

          k = 0.3333 0.1193 0.0000 (  2759 PWs)   bands (ev):

   -18.7045 -10.3539  -7.6061  -7.0452   2.0701   3.0443   3.8044   3.8549

     occupation numbers 
     1.0000   1.0000   1.0000   1.0000   0.0000   0.0000   0.0000   0.0000

          k = 0.3333 0.1790 0.0000 (  2758 PWs)   bands (ev):

   -18.5183 -11.0279  -7.1473  -6.8453   1.6241   3.2286   3.5910   4.1537

     occupation numbers 
     1.0000   1.0000   1.0000   1.0000   0.0000   0.0000   0.0000   0.0000

          k = 0.3333 0.2386 0.0000 (  2770 PWs)   bands (ev):

   -18.2630 -11.6466  -6.9202  -6.5727   1.1234   3.1764   3.8222   4.8366

     occupation numbers 
     1.0000   1.0000   1.0000   1.0000   0.0000   0.0000   0.0000   0.0000

          k = 0.3333 0.2983 0.0000 (  2773 PWs)   bands (ev):

   -17.9451 -12.1936  -6.9811  -6.2354   0.6167   3.1827   4.3097   5.0709

     occupation numbers 
     1.0000   1.0000   1.0000   1.0000   0.0000   0.0000   0.0000   0.0000

          k = 0.3333 0.3580 0.0000 (  2786 PWs)   bands (ev):

   -17.5759 -12.6525  -7.3285  -5.8459   0.1378   3.3269   4.9261   5.6879

     occupation numbers 
     1.0000   1.0000   1.0000   1.0000   0.0000   0.0000   0.0000   0.0000

          k = 0.3333 0.4176 0.0000 (  2792 PWs)   bands (ev):

   -17.1739 -13.0039  -7.9045  -5.4218  -0.2902   3.4765   5.6569   6.4025

     occupation numbers 
     1.0000   1.0000   1.0000   1.0000   0.0000   0.0000   0.0000   0.0000

          k = 0.3333-0.9546 0.0000 (  2795 PWs)   bands (ev):

   -16.7699 -13.2201  -8.6283  -4.9882  -0.6517   3.5226   6.4955   7.3569

     occupation numbers 
     1.0000   1.0000   1.0000   1.0000   0.0000   0.0000   0.0000   0.0000

          k = 0.3333-0.8949 0.0000 (  2812 PWs)   bands (ev):

   -16.4100 -13.2651  -9.4218  -4.5796  -0.9359   3.4779   7.4333   8.1680

     occupation numbers 
     1.0000   1.0000   1.0000   1.0000   0.0000   0.0000   0.0000   0.0000

          k = 0.3333-0.8352 0.0000 (  2802 PWs)   bands (ev):

   -16.1437 -13.1121 -10.2133  -4.2383  -1.1369   3.4047   7.7975   8.4235

     occupation numbers 
     1.0000   1.0000   1.0000   1.0000   0.0000   0.0000   0.0000   0.0000

          k = 0.3333-0.7756 0.0000 (  2811 PWs)   bands (ev):

   -15.9934 -12.8028 -10.9077  -4.0100  -1.2545   3.3464   7.5212   8.4365

     occupation numbers 
     1.0000   1.0000   1.0000   1.0000   0.0000   0.0000   0.0000   0.0000

          k = 0.3333-0.7159 0.0000 (  2806 PWs)   bands (ev):

   -15.9472 -12.5873 -11.2494  -3.9295  -1.2924   3.3250   7.4095   8.3890

     occupation numbers 
     1.0000   1.0000   1.0000   1.0000   0.0000   0.0000   0.0000   0.0000

          k = 0.3333-0.6563 0.0000 (  2811 PWs)   bands (ev):

   -15.9937 -12.8010 -10.9093  -4.0105  -1.2537   3.3468   7.5209   8.4366

     occupation numbers 
     1.0000   1.0000   1.0000   1.0000   0.0000   0.0000   0.0000   0.0000

          k = 0.3333-0.5966 0.0000 (  2802 PWs)   bands (ev):

   -16.1442 -13.1099 -10.2154  -4.2392  -1.1355   3.4055   7.7968   8.4241

     occupation numbers 
     1.0000   1.0000   1.0000   1.0000   0.0000   0.0000   0.0000   0.0000

          k = 0.3333-0.5369 0.0000 (  2812 PWs)   bands (ev):

   -16.4106 -13.2628  -9.4241  -4.5806  -0.9341   3.4793   7.4334   8.1655

     occupation numbers 
     1.0000   1.0000   1.0000   1.0000   0.0000   0.0000   0.0000   0.0000

          k = 0.3333-0.4773 0.0000 (  2795 PWs)   bands (ev):

   -16.7704 -13.2179  -8.6307  -4.9892  -0.6499   3.5244   6.4956   7.3539

     occupation numbers 
     1.0000   1.0000   1.0000   1.0000   0.0000   0.0000   0.0000   0.0000

          k = 0.3333-0.4176 0.0000 (  2792 PWs)   bands (ev):

   -17.1742 -13.0017  -7.9071  -5.4226  -0.2886   3.4788   5.6569   6.4026

     occupation numbers 
     1.0000   1.0000   1.0000   1.0000   0.0000   0.0000   0.0000   0.0000

          k = 0.3333-0.3580 0.0000 (  2786 PWs)   bands (ev):

   -17.5761 -12.6505  -7.3313  -5.8465   0.1393   3.3292   4.9261   5.6879

     occupation numbers 
     1.0000   1.0000   1.0000   1.0000   0.0000   0.0000   0.0000   0.0000

          k = 0.3333-0.2983 0.0000 (  2773 PWs)   bands (ev):

   -17.9453 -12.1916  -6.9839  -6.2359   0.6181   3.1848   4.3097   5.0710

     occupation numbers 
     1.0000   1.0000   1.0000   1.0000   0.0000   0.0000   0.0000   0.0000

          k = 0.3750-0.2685 0.0000 (  2777 PWs)   bands (ev):

   -17.8368 -12.4336  -7.0499  -6.1346   0.4067   3.3022   4.5160   5.5470

     occupation numbers 
     1.0000   1.0000   1.0000   1.0000   0.0000   0.0000   0.0000   0.0000

          k = 0.3750-0.2088 0.0000 (  2779 PWs)   bands (ev):

   -18.1060 -11.8682  -7.2623  -6.4104   0.8812   3.4690   4.1108   5.1017

     occupation numbers 
     1.0000   1.0000   1.0000   1.0000   0.0000   0.0000   0.0000   0.0000

          k = 0.3750-0.1491 0.0000 (  2761 PWs)   bands (ev):

   -18.3161 -11.2282  -7.7168  -6.6275   1.3404   3.5504   4.0658   4.4468

     occupation numbers 
     1.0000   1.0000   1.0000   1.0000   0.0000   0.0000   0.0000   0.0000

          k = 0.3750-0.0895 0.0000 (  2758 PWs)   bands (ev):

   -18.4596 -10.5337  -8.3326  -6.7768   1.7205   3.3981   4.1997   4.2804

     occupation numbers 
     1.0000   1.0000   1.0000   1.0000   0.0000   0.0000   0.0000   0.0000

          k = 0.3750-0.0298 0.0000 (  2768 PWs)   bands (ev):

   -18.5323  -9.8188  -9.0221  -6.8528   1.9429   3.2989   4.0697   4.2788

     occupation numbers 
     1.0000   1.0000   1.0000   1.0000   0.0000   0.0000   0.0000   0.0000

          k = 0.3750 0.0298 0.0000 (  2768 PWs)   bands (ev):

   -18.5323  -9.8208  -9.0200  -6.8527   1.9428   3.2988   4.0697   4.2787

     occupation numbers 
     1.0000   1.0000   1.0000   1.0000   0.0000   0.0000   0.0000   0.0000

          k = 0.3750 0.0895 0.0000 (  2758 PWs)   bands (ev):

   -18.4596 -10.5357  -8.3302  -6.7767   1.7199   3.3980   4.2000   4.2800

     occupation numbers 
     1.0000   1.0000   1.0000   1.0000   0.0000   0.0000   0.0000   0.0000

          k = 0.3750 0.1491 0.0000 (  2761 PWs)   bands (ev):

   -18.3160 -11.2302  -7.7143  -6.6272   1.3395   3.5499   4.0650   4.4468

     occupation numbers 
     1.0000   1.0000   1.0000   1.0000   0.0000   0.0000   0.0000   0.0000

          k = 0.3750 0.2088 0.0000 (  2779 PWs)   bands (ev):

   -18.1058 -11.8702  -7.2596  -6.4100   0.8800   3.4675   4.1108   4.8024

     occupation numbers 
     1.0000   1.0000   1.0000   1.0000   0.0000   0.0000   0.0000   0.0000

          k = 0.3750 0.2685 0.0000 (  2777 PWs)   bands (ev):

   -17.8367 -12.4356  -7.0472  -6.1340   0.4053   3.3004   4.5160   5.2646

     occupation numbers 
     1.0000   1.0000   1.0000   1.0000   0.0000   0.0000   0.0000   0.0000

          k = 0.3750 0.3281 0.0000 (  2780 PWs)   bands (ev):

   -17.5216 -12.9064  -7.1295  -5.8135  -0.0380   3.3350   5.0683   5.8318

     occupation numbers 
     1.0000   1.0000   1.0000   1.0000   0.0000   0.0000   0.0000   0.0000

          k = 0.3750 0.3878 0.0000 (  2790 PWs)   bands (ev):

   -17.1829 -13.2576  -7.4983  -5.4691  -0.4156   3.5534   5.7386   6.4993

     occupation numbers 
     1.0000   1.0000   1.0000   1.0000   0.0000   0.0000   0.0000   0.0000

          k = 0.3750-0.9844 0.0000 (  2804 PWs)   bands (ev):

   -16.8558 -13.4541  -8.0899  -5.1285  -0.7011   3.8157   6.5181   7.1634

     occupation numbers 
     1.0000   1.0000   1.0000   1.0000   0.0000   0.0000   0.0000   0.0000

          k = 0.3750-0.9247 0.0000 (  2801 PWs)   bands (ev):

   -16.5865 -13.4542  -8.8219  -4.8246  -0.8786   3.9827   7.3847   7.5857

     occupation numbers 
     1.0000   1.0000   1.0000   1.0000   0.0000   0.0000   0.0000   0.0000

          k = 0.3750-0.8651 0.0000 (  2804 PWs)   bands (ev):

   -16.4098 -13.2339  -9.6170  -4.5876  -0.9505   4.0332   7.7673   7.7822

     occupation numbers 
     1.0000   1.0000   1.0000   1.0000   0.0000   0.0000   0.0000   0.0000

          k = 0.3750-0.8054 0.0000 (  2809 PWs)   bands (ev):

   -16.3217 -12.8246 -10.4027  -4.4333  -0.9480   4.0252   7.4239   7.6498

     occupation numbers 
     1.0000   1.0000   1.0000   1.0000   0.0000   0.0000   0.0000   0.0000

          k = 0.3750-0.7457 0.0000 (  2805 PWs)   bands (ev):

   -16.2900 -12.3633 -11.0461  -4.3598  -0.9247   4.0097   7.2110   7.5604

     occupation numbers 
     1.0000   1.0000   1.0000   1.0000   0.0000   0.0000   0.0000   0.0000

          k = 0.3750-0.6861 0.0000 (  2805 PWs)   bands (ev):

   -16.2901 -12.3621 -11.0473  -4.3601  -0.9244   4.0100   7.2109   7.5604

     occupation numbers 
     1.0000   1.0000   1.0000   1.0000   0.0000   0.0000   0.0000   0.0000

          k = 0.3750-0.6264 0.0000 (  2809 PWs)   bands (ev):

   -16.3220 -12.8225 -10.4046  -4.4339  -0.9469   4.0260   7.4236   7.6499

     occupation numbers 
     1.0000   1.0000   1.0000   1.0000   0.0000   0.0000   0.0000   0.0000

          k = 0.3750-0.5668 0.0000 (  2804 PWs)   bands (ev):

   -16.4103 -13.2316  -9.6192  -4.5885  -0.9489   4.0345   7.7672   7.7817

     occupation numbers 
     1.0000   1.0000   1.0000   1.0000   0.0000   0.0000   0.0000   0.0000

          k = 0.3750-0.5071 0.0000 (  2801 PWs)   bands (ev):

   -16.5870 -13.4519  -8.8242  -4.8256  -0.8768   3.9846   7.3846   7.5837

     occupation numbers 
     1.0000   1.0000   1.0000   1.0000   0.0000   0.0000   0.0000   0.0000

          k = 0.3750-0.4474 0.0000 (  2804 PWs)   bands (ev):

   -16.8562 -13.4519  -8.0924  -5.1295  -0.6993   3.8179   6.5181   7.1607

     occupation numbers 
     1.0000   1.0000   1.0000   1.0000   0.0000   0.0000   0.0000   0.0000

          k = 0.3750-0.3878 0.0000 (  2790 PWs)   bands (ev):

   -17.1832 -13.2555  -7.5009  -5.4700  -0.4138   3.5555   5.7387   6.5000

     occupation numbers 
     1.0000   1.0000   1.0000   1.0000   0.0000   0.0000   0.0000   0.0000

          k = 0.3750-0.3281 0.0000 (  2780 PWs)   bands (ev):

   -17.5219 -12.9044  -7.1323  -5.8143  -0.0365   3.3369   5.0683   6.1127

     occupation numbers 
     1.0000   1.0000   1.0000   1.0000   0.0000   0.0000   0.0000   0.0000

          k = 0.4167-0.2983 0.0000 (  2781 PWs)   bands (ev):

   -17.4223 -13.1111  -7.1432  -5.7287  -0.2103   3.3701   5.2935   6.0521

     occupation numbers 
     1.0000   1.0000   1.0000   1.0000   0.0000   0.0000   0.0000   0.0000

          k = 0.4167-0.2386 0.0000 (  2781 PWs)   bands (ev):

   -17.6794 -12.6295  -7.3377  -5.9761   0.1938   3.5479   4.8105   5.5344

     occupation numbers 
     1.0000   1.0000   1.0000   1.0000   0.0000   0.0000   0.0000   0.0000

          k = 0.4167-0.1790 0.0000 (  2770 PWs)   bands (ev):

   -17.8982 -12.0464  -7.7849  -6.1890   0.6274   3.8545   4.5090   5.1216

     occupation numbers 
     1.0000   1.0000   1.0000   1.0000   0.0000   0.0000   0.0000   0.0000

          k = 0.4167-0.1193 0.0000 (  2767 PWs)   bands (ev):

   -18.0628 -11.3868  -8.4043  -6.3511   1.0296   3.9213   4.5966   4.8166

     occupation numbers 
     1.0000   1.0000   1.0000   1.0000   0.0000   0.0000   0.0000   0.0000

          k = 0.4167-0.0597 0.0000 (  2772 PWs)   bands (ev):

   -18.1646 -10.6781  -9.1126  -6.4521   1.3241   3.8166   4.6247   4.7342

     occupation numbers 
     1.0000   1.0000   1.0000   1.0000   0.0000   0.0000   0.0000   0.0000

          k = 0.4167-0.0000 0.0000 (  2764 PWs)   bands (ev):

   -18.1989 -10.0988  -9.6956  -6.4863   1.4339   3.7716   4.5583   4.7363

     occupation numbers 
     1.0000   1.0000   1.0000   1.0000   0.0000   0.0000   0.0000   0.0000

          k = 0.4167 0.0597 0.0000 (  2772 PWs)   bands (ev):

   -18.1646 -10.6800  -9.1105  -6.4520   1.3237   3.8165   4.6246   4.7339

     occupation numbers 
     1.0000   1.0000   1.0000   1.0000   0.0000   0.0000   0.0000   0.0000

          k = 0.4167 0.1193 0.0000 (  2767 PWs)   bands (ev):

   -18.0628 -11.3887  -8.4020  -6.3508   1.0288   3.9209   4.5959   4.8163

     occupation numbers 
     1.0000   1.0000   1.0000   1.0000   0.0000   0.0000   0.0000   0.0000

          k = 0.4167 0.1790 0.0000 (  2770 PWs)   bands (ev):

   -17.8980 -12.0483  -7.7824  -6.1885   0.6263   3.8532   4.5088   5.1217

     occupation numbers 
     1.0000   1.0000   1.0000   1.0000   0.0000   0.0000   0.0000   0.0000

          k = 0.4167 0.2386 0.0000 (  2781 PWs)   bands (ev):

   -17.6792 -12.6314  -7.3351  -5.9755   0.1924   3.5464   4.8105   5.5345

     occupation numbers 
     1.0000   1.0000   1.0000   1.0000   0.0000   0.0000   0.0000   0.0000

          k = 0.4167 0.2983 0.0000 (  2781 PWs)   bands (ev):

   -17.4220 -13.1131  -7.1405  -5.7279  -0.2119   3.3684   5.2935   6.0521

     occupation numbers 
     1.0000   1.0000   1.0000   1.0000   0.0000   0.0000   0.0000   0.0000

          k = 0.4167 0.3580 0.0000 (  2782 PWs)   bands (ev):

   -17.1530 -13.4623  -7.2460  -5.4689  -0.5395   3.4365   5.9006   6.6721

     occupation numbers 
     1.0000   1.0000   1.0000   1.0000   0.0000   0.0000   0.0000   0.0000

          k = 0.4167-1.0142 0.0000 (  2796 PWs)   bands (ev):

   -16.9122 -13.6376  -7.6350  -5.2277  -0.7548   3.7144   6.6136   7.3056

     occupation numbers 
     1.0000   1.0000   1.0000   1.0000   0.0000   0.0000   0.0000   0.0000

          k = 0.4167-0.9546 0.0000 (  2802 PWs)   bands (ev):

   -16.7428 -13.5974  -8.2388  -5.0328  -0.8379   4.0634   7.1382   7.4926

     occupation numbers 
     1.0000   1.0000   1.0000   1.0000   0.0000   0.0000   0.0000   0.0000

          k = 0.4167-0.8949 0.0000 (  2801 PWs)   bands (ev):

   -16.6622 -13.3302  -8.9742  -4.9007  -0.7976   4.3294   7.0680   7.5252

     occupation numbers 
     1.0000   1.0000   1.0000   1.0000   0.0000   0.0000   0.0000   0.0000

          k = 0.4167-0.8352 0.0000 (  2803 PWs)   bands (ev):

   -16.6463 -12.8729  -9.7649  -4.8275  -0.6806   4.4597   6.9335   7.1479

     occupation numbers 
     1.0000   1.0000   1.0000   1.0000   0.0000   0.0000   0.0000   0.0000

          k = 0.4167-0.7756 0.0000 (  2803 PWs)   bands (ev):

   -16.6555 -12.3028 -10.5316  -4.7955  -0.5612   4.5016   6.8234   6.8890

     occupation numbers 
     1.0000   1.0000   1.0000   1.0000   0.0000   0.0000   0.0000   0.0000

          k = 0.4167-0.7159 0.0000 (  2802 PWs)   bands (ev):

   -16.6618 -11.8995 -10.9997  -4.7873  -0.5111   4.5094   6.7831   6.7947

     occupation numbers 
     1.0000   1.0000   1.0000   1.0000   0.0000   0.0000   0.0000   0.0000

          k = 0.4167-0.6563 0.0000 (  2803 PWs)   bands (ev):

   -16.6557 -12.3010 -10.5334  -4.7959  -0.5605   4.5022   6.8234   6.8888

     occupation numbers 
     1.0000   1.0000   1.0000   1.0000   0.0000   0.0000   0.0000   0.0000

          k = 0.4167-0.5966 0.0000 (  2803 PWs)   bands (ev):

   -16.6466 -12.8708  -9.7670  -4.8282  -0.6794   4.4609   6.9336   7.1477

     occupation numbers 
     1.0000   1.0000   1.0000   1.0000   0.0000   0.0000   0.0000   0.0000

          k = 0.4167-0.5369 0.0000 (  2801 PWs)   bands (ev):

   -16.6627 -13.3280  -8.9764  -4.9016  -0.7960   4.3311   7.0678   7.5251

     occupation numbers 
     1.0000   1.0000   1.0000   1.0000   0.0000   0.0000   0.0000   0.0000

          k = 0.4167-0.4773 0.0000 (  2802 PWs)   bands (ev):

   -16.7434 -13.5951  -8.2412  -5.0339  -0.8360   4.0654   7.1372   7.4925

     occupation numbers 
     1.0000   1.0000   1.0000   1.0000   0.0000   0.0000   0.0000   0.0000

          k = 0.4167-0.4176 0.0000 (  2796 PWs)   bands (ev):

   -16.9127 -13.6354  -7.6376  -5.2288  -0.7529   3.7163   6.6136   7.3040

     occupation numbers 
     1.0000   1.0000   1.0000   1.0000   0.0000   0.0000   0.0000   0.0000

          k = 0.4167-0.3580 0.0000 (  2782 PWs)   bands (ev):

   -17.1535 -13.4602  -7.2486  -5.4699  -0.5377   3.4383   5.9006   6.6719

     occupation numbers 
     1.0000   1.0000   1.0000   1.0000   0.0000   0.0000   0.0000   0.0000

          k = 0.4583-0.3281 0.0000 (  2783 PWs)   bands (ev):

   -17.0897 -13.6029  -7.2003  -5.4241  -0.6459   3.4026   6.1390   6.9179

     occupation numbers 
     1.0000   1.0000   1.0000   1.0000   0.0000   0.0000   0.0000   0.0000

          k = 0.4583-0.2685 0.0000 (  2775 PWs)   bands (ev):

   -17.2814 -13.2612  -7.3745  -5.5918  -0.3725   3.5652   5.6012   6.3460

     occupation numbers 
     1.0000   1.0000   1.0000   1.0000   0.0000   0.0000   0.0000   0.0000

          k = 0.4583-0.2088 0.0000 (  2785 PWs)   bands (ev):

   -17.4765 -12.7726  -7.8112  -5.7629  -0.0165   3.9208   5.1991   5.8761

     occupation numbers 
     1.0000   1.0000   1.0000   1.0000   0.0000   0.0000   0.0000   0.0000

          k = 0.4583-0.1491 0.0000 (  2784 PWs)   bands (ev):

   -17.6433 -12.1751  -8.4314  -5.9119   0.3625   4.2577   5.0132   5.5113

     occupation numbers 
     1.0000   1.0000   1.0000   1.0000   0.0000   0.0000   0.0000   0.0000

          k = 0.4583-0.0895 0.0000 (  2778 PWs)   bands (ev):

   -17.7627 -11.5009  -9.1523  -6.0205   0.6903   4.3159   5.1087   5.2563

     occupation numbers 
     1.0000   1.0000   1.0000   1.0000   0.0000   0.0000   0.0000   0.0000

          k = 0.4583-0.0298 0.0000 (  2782 PWs)   bands (ev):

   -17.8246 -10.8058  -9.8801  -6.0775   0.8842   4.2680   5.1227   5.1786

     occupation numbers 
     1.0000   1.0000   1.0000   1.0000   0.0000   0.0000   0.0000   0.0000

          k = 0.4583 0.0298 0.0000 (  2782 PWs)   bands (ev):

   -17.8246 -10.8075  -9.8783  -6.0774   0.8840   4.2679   5.1227   5.1783

     occupation numbers 
     1.0000   1.0000   1.0000   1.0000   0.0000   0.0000   0.0000   0.0000

          k = 0.4583 0.0895 0.0000 (  2778 PWs)   bands (ev):

   -17.7626 -11.5028  -9.1501  -6.0202   0.6896   4.3156   5.1082   5.2563

     occupation numbers 
     1.0000   1.0000   1.0000   1.0000   0.0000   0.0000   0.0000   0.0000

          k = 0.4583 0.1491 0.0000 (  2784 PWs)   bands (ev):

   -17.6431 -12.1771  -8.4292  -5.9115   0.3615   4.2566   5.0129   5.5113

     occupation numbers 
     1.0000   1.0000   1.0000   1.0000   0.0000   0.0000   0.0000   0.0000

          k = 0.4583 0.2088 0.0000 (  2785 PWs)   bands (ev):

   -17.4763 -12.7745  -7.8088  -5.7623  -0.0179   3.9194   5.1992   5.8762

     occupation numbers 
     1.0000   1.0000   1.0000   1.0000   0.0000   0.0000   0.0000   0.0000

          k = 0.4583 0.2685 0.0000 (  2775 PWs)   bands (ev):

   -17.2811 -13.2632  -7.3719  -5.5910  -0.3742   3.5637   5.6012   6.3461

     occupation numbers 
     1.0000   1.0000   1.0000   1.0000   0.0000   0.0000   0.0000   0.0000

          k = 0.4583 0.3281 0.0000 (  2783 PWs)   bands (ev):

   -17.0892 -13.6050  -7.1977  -5.4231  -0.6477   3.4010   6.1390   6.9179

     occupation numbers 
     1.0000   1.0000   1.0000   1.0000   0.0000   0.0000   0.0000   0.0000

          k = 0.4583-1.0440 0.0000 (  2788 PWs)   bands (ev):

   -16.9437 -13.7539  -7.3266  -5.2868  -0.7945   3.5038   6.7744   7.2898

     occupation numbers 
     1.0000   1.0000   1.0000   1.0000   0.0000   0.0000   0.0000   0.0000

          k = 0.4583-0.9844 0.0000 (  2796 PWs)   bands (ev):

   -16.8800 -13.6746  -7.7340  -5.2030  -0.7938   3.8263   6.7949   7.5725

     occupation numbers 
     1.0000   1.0000   1.0000   1.0000   0.0000   0.0000   0.0000   0.0000

          k = 0.4583-0.9247 0.0000 (  2795 PWs)   bands (ev):

   -16.8954 -13.3726  -8.3468  -5.1743  -0.6601   4.2286   6.4765   7.1176

     occupation numbers 
     1.0000   1.0000   1.0000   1.0000   0.0000   0.0000   0.0000   0.0000

          k = 0.4583-0.8651 0.0000 (  2801 PWs)   bands (ev):

   -16.9532 -12.8922  -9.0812  -5.1842  -0.4446   4.5441   6.2765   6.7253

     occupation numbers 
     1.0000   1.0000   1.0000   1.0000   0.0000   0.0000   0.0000   0.0000

          k = 0.4583-0.8054 0.0000 (  2792 PWs)   bands (ev):

   -17.0131 -12.2903  -9.8614  -5.2078  -0.2252   4.6985   6.1722   6.4402

     occupation numbers 
     1.0000   1.0000   1.0000   1.0000   0.0000   0.0000   0.0000   0.0000

          k = 0.4583-0.7457 0.0000 (  2795 PWs)   bands (ev):

   -17.0491 -11.6625 -10.5809  -5.2252  -0.0862   4.7442   6.1257   6.2854

     occupation numbers 
     1.0000   1.0000   1.0000   1.0000   0.0000   0.0000   0.0000   0.0000

          k = 0.4583-0.6861 0.0000 (  2795 PWs)   bands (ev):

   -17.0492 -11.6611 -10.5824  -5.2253  -0.0859   4.7445   6.1257   6.2853

     occupation numbers 
     1.0000   1.0000   1.0000   1.0000   0.0000   0.0000   0.0000   0.0000

          k = 0.4583-0.6264 0.0000 (  2792 PWs)   bands (ev):

   -17.0133 -12.2883  -9.8634  -5.2083  -0.2244   4.6994   6.1724   6.4401

     occupation numbers 
     1.0000   1.0000   1.0000   1.0000   0.0000   0.0000   0.0000   0.0000

          k = 0.4583-0.5668 0.0000 (  2801 PWs)   bands (ev):

   -16.9535 -12.8902  -9.0834  -5.1848  -0.4433   4.5456   6.2766   6.7253

     occupation numbers 
     1.0000   1.0000   1.0000   1.0000   0.0000   0.0000   0.0000   0.0000

          k = 0.4583-0.5071 0.0000 (  2795 PWs)   bands (ev):

   -16.8959 -13.3704  -8.3491  -5.1753  -0.6584   4.2304   6.4764   7.1177

     occupation numbers 
     1.0000   1.0000   1.0000   1.0000   0.0000   0.0000   0.0000   0.0000

          k = 0.4583-0.4474 0.0000 (  2796 PWs)   bands (ev):

   -16.8805 -13.6724  -7.7365  -5.2041  -0.7919   3.8280   6.7946   7.5726

     occupation numbers 
     1.0000   1.0000   1.0000   1.0000   0.0000   0.0000   0.0000   0.0000

          k = 0.4583-0.3878 0.0000 (  2788 PWs)   bands (ev):

   -16.9443 -13.7517  -7.3292  -5.2879  -0.7925   3.5054   6.7744   7.2895

     occupation numbers 
     1.0000   1.0000   1.0000   1.0000   0.0000   0.0000   0.0000   0.0000

          k =-0.5000 0.3580 0.0000 (  2788 PWs)   bands (ev):

   -16.9544 -13.7915  -7.2196  -5.3075  -0.8070   3.4122   6.9110   7.1589

     occupation numbers 
     1.0000   1.0000   1.0000   1.0000   0.0000   0.0000   0.0000   0.0000

          k =-0.5000 0.4176 0.0000 (  2781 PWs)   bands (ev):

   -16.9971 -13.6752  -7.3716  -5.3348  -0.7307   3.5477   6.4447   7.2338

     occupation numbers 
     1.0000   1.0000   1.0000   1.0000   0.0000   0.0000   0.0000   0.0000

          k =-0.5000 0.4773 0.0000 (  2788 PWs)   bands (ev):

   -17.1041 -13.3487  -7.7949  -5.4064  -0.5206   3.8985   5.9929   6.7069

     occupation numbers 
     1.0000   1.0000   1.0000   1.0000   0.0000   0.0000   0.0000   0.0000

          k =-0.5000 0.5369 0.0000 (  2791 PWs)   bands (ev):

   -17.2326 -12.8596  -8.4129  -5.4979  -0.2262   4.3112   5.6897   6.2808

     occupation numbers 
     1.0000   1.0000   1.0000   1.0000   0.0000   0.0000   0.0000   0.0000

          k =-0.5000 0.5966 0.0000 (  2788 PWs)   bands (ev):

   -17.3460 -12.2539  -9.1424  -5.5831   0.0814   4.5815   5.5781   5.9598

     occupation numbers 
     1.0000   1.0000   1.0000   1.0000   0.0000   0.0000   0.0000   0.0000

          k =-0.5000 0.6563 0.0000 (  2784 PWs)   bands (ev):

   -17.4216 -11.5789  -9.9044  -5.6420   0.3183   4.6479   5.5923   5.7547

     occupation numbers 
     1.0000   1.0000   1.0000   1.0000   0.0000   0.0000   0.0000   0.0000

          k =-0.5000 0.7159 0.0000 (  2790 PWs)   bands (ev):

   -17.4479 -11.0671 -10.4474  -5.6629   0.4080   4.6476   5.6037   5.6831

     occupation numbers 
     1.0000   1.0000   1.0000   1.0000   0.0000   0.0000   0.0000   0.0000

          k =-0.5000 0.7756 0.0000 (  2784 PWs)   bands (ev):

   -17.4215 -11.5807  -9.9025  -5.6418   0.3178   4.6474   5.5920   5.7547

     occupation numbers 
     1.0000   1.0000   1.0000   1.0000   0.0000   0.0000   0.0000   0.0000

          k =-0.5000 0.8352 0.0000 (  2788 PWs)   bands (ev):

   -17.3458 -12.2558  -9.1402  -5.5826   0.0804   4.5805   5.5778   5.9598

     occupation numbers 
     1.0000   1.0000   1.0000   1.0000   0.0000   0.0000   0.0000   0.0000

          k =-0.5000 0.8949 0.0000 (  2791 PWs)   bands (ev):

   -17.2323 -12.8615  -8.4106  -5.4972  -0.2276   4.3097   5.6897   6.2808

     occupation numbers 
     1.0000   1.0000   1.0000   1.0000   0.0000   0.0000   0.0000   0.0000

          k =-0.5000 0.9546 0.0000 (  2788 PWs)   bands (ev):

   -17.1037 -13.3508  -7.7925  -5.4055  -0.5223   3.8969   5.9930   6.7072

     occupation numbers 
     1.0000   1.0000   1.0000   1.0000   0.0000   0.0000   0.0000   0.0000

          k =-0.5000 1.0142 0.0000 (  2781 PWs)   bands (ev):

   -16.9966 -13.6773  -7.3690  -5.3338  -0.7326   3.5462   6.4447   7.2336

     occupation numbers 
     1.0000   1.0000   1.0000   1.0000   0.0000   0.0000   0.0000   0.0000

          k =-0.5000-0.3580 0.0000 (  2788 PWs)   bands (ev):

   -16.9538 -13.7937  -7.2170  -5.3064  -0.8090   3.4106   6.9109   7.1590

     occupation numbers 
     1.0000   1.0000   1.0000   1.0000   0.0000   0.0000   0.0000   0.0000

          k =-0.5000-0.2983 0.0000 (  2781 PWs)   bands (ev):

   -16.9966 -13.6773  -7.3690  -5.3338  -0.7326   3.5462   6.4448   7.2338

     occupation numbers 
     1.0000   1.0000   1.0000   1.0000   0.0000   0.0000   0.0000   0.0000

          k =-0.5000-0.2386 0.0000 (  2788 PWs)   bands (ev):

   -17.1037 -13.3508  -7.7925  -5.4055  -0.5223   3.8969   5.9930   6.7071

     occupation numbers 
     1.0000   1.0000   1.0000   1.0000   0.0000   0.0000   0.0000   0.0000

          k =-0.5000-0.1790 0.0000 (  2791 PWs)   bands (ev):

   -17.2323 -12.8615  -8.4106  -5.4972  -0.2276   4.3097   5.6897   6.2808

     occupation numbers 
     1.0000   1.0000   1.0000   1.0000   0.0000   0.0000   0.0000   0.0000

          k =-0.5000-0.1193 0.0000 (  2788 PWs)   bands (ev):

   -17.3458 -12.2558  -9.1402  -5.5826   0.0804   4.5805   5.5778   5.9598

     occupation numbers 
     1.0000   1.0000   1.0000   1.0000   0.0000   0.0000   0.0000   0.0000

          k =-0.5000-0.0597 0.0000 (  2784 PWs)   bands (ev):

   -17.4215 -11.5807  -9.9025  -5.6418   0.3178   4.6474   5.5921   5.7547

     occupation numbers 
     1.0000   1.0000   1.0000   1.0000   0.0000   0.0000   0.0000   0.0000

          k =-0.5000 0.0000 0.0000 (  2790 PWs)   bands (ev):

   -17.4479 -11.0671 -10.4474  -5.6629   0.4080   4.6476   5.6037   5.6831

     occupation numbers 
     1.0000   1.0000   1.0000   1.0000   0.0000   0.0000   0.0000   0.0000

          k =-0.5000 0.0597 0.0000 (  2784 PWs)   bands (ev):

   -17.4216 -11.5789  -9.9044  -5.6420   0.3183   4.6479   5.5923   5.7547

     occupation numbers 
     1.0000   1.0000   1.0000   1.0000   0.0000   0.0000   0.0000   0.0000

          k =-0.5000 0.1193 0.0000 (  2788 PWs)   bands (ev):

   -17.3460 -12.2539  -9.1424  -5.5831   0.0814   4.5815   5.5781   5.9598

     occupation numbers 
     1.0000   1.0000   1.0000   1.0000   0.0000   0.0000   0.0000   0.0000

          k =-0.5000 0.1790 0.0000 (  2791 PWs)   bands (ev):

   -17.2326 -12.8596  -8.4129  -5.4979  -0.2262   4.3112   5.6897   6.2808

     occupation numbers 
     1.0000   1.0000   1.0000   1.0000   0.0000   0.0000   0.0000   0.0000

          k =-0.5000 0.2386 0.0000 (  2788 PWs)   bands (ev):

   -17.1041 -13.3487  -7.7949  -5.4064  -0.5206   3.8985   5.9930   6.7070

     occupation numbers 
     1.0000   1.0000   1.0000   1.0000   0.0000   0.0000   0.0000   0.0000

          k =-0.5000 0.2983 0.0000 (  2781 PWs)   bands (ev):

   -16.9971 -13.6752  -7.3716  -5.3348  -0.7307   3.5477   6.4447   7.2338

     occupation numbers 
     1.0000   1.0000   1.0000   1.0000   0.0000   0.0000   0.0000   0.0000

          k =-0.4583 0.3281 0.0000 (  2783 PWs)   bands (ev):

   -17.0897 -13.6029  -7.2003  -5.4241  -0.6459   3.4026   6.1390   6.9181

     occupation numbers 
     1.0000   1.0000   1.0000   1.0000   0.0000   0.0000   0.0000   0.0000

          k =-0.4583 0.3878 0.0000 (  2788 PWs)   bands (ev):

   -16.9443 -13.7517  -7.3292  -5.2879  -0.7925   3.5054   6.7744   7.2895

     occupation numbers 
     1.0000   1.0000   1.0000   1.0000   0.0000   0.0000   0.0000   0.0000

          k =-0.4583 0.4474 0.0000 (  2796 PWs)   bands (ev):

   -16.8805 -13.6724  -7.7365  -5.2041  -0.7919   3.8280   6.7946   7.5726

     occupation numbers 
     1.0000   1.0000   1.0000   1.0000   0.0000   0.0000   0.0000   0.0000

          k =-0.4583 0.5071 0.0000 (  2795 PWs)   bands (ev):

   -16.8959 -13.3704  -8.3491  -5.1753  -0.6584   4.2304   6.4764   7.1175

     occupation numbers 
     1.0000   1.0000   1.0000   1.0000   0.0000   0.0000   0.0000   0.0000

          k =-0.4583 0.5668 0.0000 (  2801 PWs)   bands (ev):

   -16.9535 -12.8902  -9.0834  -5.1848  -0.4433   4.5456   6.2766   6.7253

     occupation numbers 
     1.0000   1.0000   1.0000   1.0000   0.0000   0.0000   0.0000   0.0000

          k =-0.4583 0.6264 0.0000 (  2792 PWs)   bands (ev):

   -17.0133 -12.2883  -9.8634  -5.2083  -0.2244   4.6994   6.1723   6.4401

     occupation numbers 
     1.0000   1.0000   1.0000   1.0000   0.0000   0.0000   0.0000   0.0000

          k =-0.4583 0.6861 0.0000 (  2795 PWs)   bands (ev):

   -17.0492 -11.6611 -10.5824  -5.2253  -0.0859   4.7445   6.1257   6.2853

     occupation numbers 
     1.0000   1.0000   1.0000   1.0000   0.0000   0.0000   0.0000   0.0000

          k =-0.4583 0.7457 0.0000 (  2795 PWs)   bands (ev):

   -17.0491 -11.6625 -10.5809  -5.2252  -0.0862   4.7442   6.1256   6.2853

     occupation numbers 
     1.0000   1.0000   1.0000   1.0000   0.0000   0.0000   0.0000   0.0000

          k =-0.4583 0.8054 0.0000 (  2792 PWs)   bands (ev):

   -17.0131 -12.2903  -9.8614  -5.2078  -0.2252   4.6985   6.1722   6.4402

     occupation numbers 
     1.0000   1.0000   1.0000   1.0000   0.0000   0.0000   0.0000   0.0000

          k =-0.4583 0.8651 0.0000 (  2801 PWs)   bands (ev):

   -16.9532 -12.8922  -9.0812  -5.1842  -0.4446   4.5441   6.2765   6.7253

     occupation numbers 
     1.0000   1.0000   1.0000   1.0000   0.0000   0.0000   0.0000   0.0000

          k =-0.4583 0.9247 0.0000 (  2795 PWs)   bands (ev):

   -16.8954 -13.3726  -8.3468  -5.1743  -0.6601   4.2286   6.4765   7.1175

     occupation numbers 
     1.0000   1.0000   1.0000   1.0000   0.0000   0.0000   0.0000   0.0000

          k =-0.4583 0.9844 0.0000 (  2796 PWs)   bands (ev):

   -16.8800 -13.6746  -7.7340  -5.2030  -0.7938   3.8263   6.7949   7.5725

     occupation numbers 
     1.0000   1.0000   1.0000   1.0000   0.0000   0.0000   0.0000   0.0000

          k =-0.4583-0.3878 0.0000 (  2788 PWs)   bands (ev):

   -16.9437 -13.7539  -7.3266  -5.2868  -0.7945   3.5038   6.7744   7.2898

     occupation numbers 
     1.0000   1.0000   1.0000   1.0000   0.0000   0.0000   0.0000   0.0000

          k =-0.4583-0.3281 0.0000 (  2783 PWs)   bands (ev):

   -17.0892 -13.6050  -7.1977  -5.4231  -0.6477   3.4010   6.1390   6.9179

     occupation numbers 
     1.0000   1.0000   1.0000   1.0000   0.0000   0.0000   0.0000   0.0000

          k =-0.4583-0.2685 0.0000 (  2775 PWs)   bands (ev):

   -17.2811 -13.2632  -7.3719  -5.5910  -0.3742   3.5637   5.6012   6.3463

     occupation numbers 
     1.0000   1.0000   1.0000   1.0000   0.0000   0.0000   0.0000   0.0000

          k =-0.4583-0.2088 0.0000 (  2785 PWs)   bands (ev):

   -17.4763 -12.7745  -7.8088  -5.7623  -0.0179   3.9194   5.1992   5.8761

     occupation numbers 
     1.0000   1.0000   1.0000   1.0000   0.0000   0.0000   0.0000   0.0000

          k =-0.4583-0.1491 0.0000 (  2784 PWs)   bands (ev):

   -17.6431 -12.1771  -8.4292  -5.9115   0.3615   4.2566   5.0129   5.5112

     occupation numbers 
     1.0000   1.0000   1.0000   1.0000   0.0000   0.0000   0.0000   0.0000

          k =-0.4583-0.0895 0.0000 (  2778 PWs)   bands (ev):

   -17.7626 -11.5028  -9.1501  -6.0202   0.6896   4.3156   5.1082   5.2563

     occupation numbers 
     1.0000   1.0000   1.0000   1.0000   0.0000   0.0000   0.0000   0.0000

          k =-0.4583-0.0298 0.0000 (  2782 PWs)   bands (ev):

   -17.8246 -10.8075  -9.8783  -6.0774   0.8840   4.2679   5.1227   5.1783

     occupation numbers 
     1.0000   1.0000   1.0000   1.0000   0.0000   0.0000   0.0000   0.0000

          k =-0.4583 0.0298 0.0000 (  2782 PWs)   bands (ev):

   -17.8246 -10.8058  -9.8801  -6.0775   0.8842   4.2680   5.1227   5.1785

     occupation numbers 
     1.0000   1.0000   1.0000   1.0000   0.0000   0.0000   0.0000   0.0000

          k =-0.4583 0.0895 0.0000 (  2778 PWs)   bands (ev):

   -17.7627 -11.5009  -9.1523  -6.0205   0.6903   4.3159   5.1087   5.2563

     occupation numbers 
     1.0000   1.0000   1.0000   1.0000   0.0000   0.0000   0.0000   0.0000

          k =-0.4583 0.1491 0.0000 (  2784 PWs)   bands (ev):

   -17.6433 -12.1751  -8.4314  -5.9119   0.3625   4.2577   5.0132   5.5114

     occupation numbers 
     1.0000   1.0000   1.0000   1.0000   0.0000   0.0000   0.0000   0.0000

          k =-0.4583 0.2088 0.0000 (  2785 PWs)   bands (ev):

   -17.4765 -12.7726  -7.8112  -5.7629  -0.0165   3.9208   5.1992   5.8761

     occupation numbers 
     1.0000   1.0000   1.0000   1.0000   0.0000   0.0000   0.0000   0.0000

          k =-0.4583 0.2685 0.0000 (  2775 PWs)   bands (ev):

   -17.2814 -13.2612  -7.3745  -5.5918  -0.3725   3.5652   5.6012   6.3460

     occupation numbers 
     1.0000   1.0000   1.0000   1.0000   0.0000   0.0000   0.0000   0.0000

          k =-0.4167 0.2983 0.0000 (  2781 PWs)   bands (ev):

   -17.4223 -13.1111  -7.1432  -5.7287  -0.2103   3.3701   5.2935   6.0521

     occupation numbers 
     1.0000   1.0000   1.0000   1.0000   0.0000   0.0000   0.0000   0.0000

          k =-0.4167 0.3580 0.0000 (  2782 PWs)   bands (ev):

   -17.1535 -13.4602  -7.2486  -5.4699  -0.5377   3.4383   5.9006   6.6717

     occupation numbers 
     1.0000   1.0000   1.0000   1.0000   0.0000   0.0000   0.0000   0.0000

          k =-0.4167 0.4176 0.0000 (  2796 PWs)   bands (ev):

   -16.9127 -13.6354  -7.6376  -5.2288  -0.7529   3.7163   6.6136   7.3040

     occupation numbers 
     1.0000   1.0000   1.0000   1.0000   0.0000   0.0000   0.0000   0.0000

          k =-0.4167 0.4773 0.0000 (  2802 PWs)   bands (ev):

   -16.7434 -13.5951  -8.2412  -5.0339  -0.8360   4.0654   7.1372   7.4923

     occupation numbers 
     1.0000   1.0000   1.0000   1.0000   0.0000   0.0000   0.0000   0.0000

          k =-0.4167 0.5369 0.0000 (  2801 PWs)   bands (ev):

   -16.6627 -13.3280  -8.9764  -4.9016  -0.7960   4.3311   7.0678   7.5252

     occupation numbers 
     1.0000   1.0000   1.0000   1.0000   0.0000   0.0000   0.0000   0.0000

          k =-0.4167 0.5966 0.0000 (  2803 PWs)   bands (ev):

   -16.6466 -12.8708  -9.7670  -4.8282  -0.6794   4.4609   6.9336   7.1477

     occupation numbers 
     1.0000   1.0000   1.0000   1.0000   0.0000   0.0000   0.0000   0.0000

          k =-0.4167 0.6563 0.0000 (  2803 PWs)   bands (ev):

   -16.6557 -12.3010 -10.5334  -4.7959  -0.5605   4.5022   6.8234   6.8889

     occupation numbers 
     1.0000   1.0000   1.0000   1.0000   0.0000   0.0000   0.0000   0.0000

          k =-0.4167 0.7159 0.0000 (  2802 PWs)   bands (ev):

   -16.6618 -11.8995 -10.9997  -4.7873  -0.5111   4.5095   6.7831   6.7947

     occupation numbers 
     1.0000   1.0000   1.0000   1.0000   0.0000   0.0000   0.0000   0.0000

          k =-0.4167 0.7756 0.0000 (  2803 PWs)   bands (ev):

   -16.6555 -12.3028 -10.5316  -4.7955  -0.5612   4.5016   6.8234   6.8890

     occupation numbers 
     1.0000   1.0000   1.0000   1.0000   0.0000   0.0000   0.0000   0.0000

          k =-0.4167 0.8352 0.0000 (  2803 PWs)   bands (ev):

   -16.6463 -12.8729  -9.7649  -4.8275  -0.6806   4.4597   6.9335   7.1479

     occupation numbers 
     1.0000   1.0000   1.0000   1.0000   0.0000   0.0000   0.0000   0.0000

          k =-0.4167 0.8949 0.0000 (  2801 PWs)   bands (ev):

   -16.6622 -13.3302  -8.9742  -4.9007  -0.7976   4.3294   7.0680   7.5253

     occupation numbers 
     1.0000   1.0000   1.0000   1.0000   0.0000   0.0000   0.0000   0.0000

          k =-0.4167 0.9546 0.0000 (  2802 PWs)   bands (ev):

   -16.7428 -13.5974  -8.2388  -5.0328  -0.8379   4.0634   7.1382   7.4926

     occupation numbers 
     1.0000   1.0000   1.0000   1.0000   0.0000   0.0000   0.0000   0.0000

          k =-0.4167-0.4176 0.0000 (  2796 PWs)   bands (ev):

   -16.9122 -13.6376  -7.6350  -5.2277  -0.7548   3.7144   6.6136   7.3056

     occupation numbers 
     1.0000   1.0000   1.0000   1.0000   0.0000   0.0000   0.0000   0.0000

          k =-0.4167-0.3580 0.0000 (  2782 PWs)   bands (ev):

   -17.1530 -13.4623  -7.2460  -5.4689  -0.5395   3.4365   5.9006   6.6718

     occupation numbers 
     1.0000   1.0000   1.0000   1.0000   0.0000   0.0000   0.0000   0.0000

          k =-0.4167-0.2983 0.0000 (  2781 PWs)   bands (ev):

   -17.4220 -13.1131  -7.1405  -5.7279  -0.2119   3.3684   5.2935   6.0521

     occupation numbers 
     1.0000   1.0000   1.0000   1.0000   0.0000   0.0000   0.0000   0.0000

          k =-0.4167-0.2386 0.0000 (  2781 PWs)   bands (ev):

   -17.6792 -12.6314  -7.3351  -5.9755   0.1924   3.5464   4.8105   5.5349

     occupation numbers 
     1.0000   1.0000   1.0000   1.0000   0.0000   0.0000   0.0000   0.0000

          k =-0.4167-0.1790 0.0000 (  2770 PWs)   bands (ev):

   -17.8980 -12.0483  -7.7824  -6.1885   0.6263   3.8532   4.5088   5.1217

     occupation numbers 
     1.0000   1.0000   1.0000   1.0000   0.0000   0.0000   0.0000   0.0000

          k =-0.4167-0.1193 0.0000 (  2767 PWs)   bands (ev):

   -18.0628 -11.3887  -8.4020  -6.3508   1.0288   3.9209   4.5959   4.8164

     occupation numbers 
     1.0000   1.0000   1.0000   1.0000   0.0000   0.0000   0.0000   0.0000

          k =-0.4167-0.0597 0.0000 (  2772 PWs)   bands (ev):

   -18.1646 -10.6800  -9.1105  -6.4520   1.3237   3.8165   4.6247   4.7340

     occupation numbers 
     1.0000   1.0000   1.0000   1.0000   0.0000   0.0000   0.0000   0.0000

          k =-0.4167 0.0000 0.0000 (  2764 PWs)   bands (ev):

   -18.1989 -10.0988  -9.6956  -6.4863   1.4339   3.7716   4.5583   4.7363

     occupation numbers 
     1.0000   1.0000   1.0000   1.0000   0.0000   0.0000   0.0000   0.0000

          k =-0.4167 0.0597 0.0000 (  2772 PWs)   bands (ev):

   -18.1646 -10.6781  -9.1126  -6.4521   1.3241   3.8166   4.6247   4.7342

     occupation numbers 
     1.0000   1.0000   1.0000   1.0000   0.0000   0.0000   0.0000   0.0000

          k =-0.4167 0.1193 0.0000 (  2767 PWs)   bands (ev):

   -18.0628 -11.3868  -8.4043  -6.3511   1.0296   3.9213   4.5966   4.8164

     occupation numbers 
     1.0000   1.0000   1.0000   1.0000   0.0000   0.0000   0.0000   0.0000

          k =-0.4167 0.1790 0.0000 (  2770 PWs)   bands (ev):

   -17.8982 -12.0464  -7.7849  -6.1890   0.6274   3.8545   4.5090   5.1216

     occupation numbers 
     1.0000   1.0000   1.0000   1.0000   0.0000   0.0000   0.0000   0.0000

          k =-0.4167 0.2386 0.0000 (  2781 PWs)   bands (ev):

   -17.6794 -12.6295  -7.3377  -5.9761   0.1938   3.5479   4.8105   5.5343

     occupation numbers 
     1.0000   1.0000   1.0000   1.0000   0.0000   0.0000   0.0000   0.0000

          k =-0.3750 0.2685 0.0000 (  2777 PWs)   bands (ev):

   -17.8368 -12.4336  -7.0499  -6.1346   0.4067   3.3022   4.5160   5.5472

     occupation numbers 
     1.0000   1.0000   1.0000   1.0000   0.0000   0.0000   0.0000   0.0000

          k =-0.3750 0.3281 0.0000 (  2780 PWs)   bands (ev):

   -17.5219 -12.9044  -7.1323  -5.8143  -0.0365   3.3369   5.0683   5.8318

     occupation numbers 
     1.0000   1.0000   1.0000   1.0000   0.0000   0.0000   0.0000   0.0000

          k =-0.3750 0.3878 0.0000 (  2790 PWs)   bands (ev):

   -17.1832 -13.2555  -7.5009  -5.4700  -0.4138   3.5555   5.7387   6.4994

     occupation numbers 
     1.0000   1.0000   1.0000   1.0000   0.0000   0.0000   0.0000   0.0000

          k =-0.3750 0.4474 0.0000 (  2804 PWs)   bands (ev):

   -16.8562 -13.4519  -8.0924  -5.1295  -0.6993   3.8179   6.5181   7.1607

     occupation numbers 
     1.0000   1.0000   1.0000   1.0000   0.0000   0.0000   0.0000   0.0000

          k =-0.3750 0.5071 0.0000 (  2801 PWs)   bands (ev):

   -16.5870 -13.4519  -8.8242  -4.8256  -0.8768   3.9846   7.3846   7.5837

     occupation numbers 
     1.0000   1.0000   1.0000   1.0000   0.0000   0.0000   0.0000   0.0000

          k =-0.3750 0.5668 0.0000 (  2804 PWs)   bands (ev):

   -16.4103 -13.2316  -9.6192  -4.5885  -0.9489   4.0345   7.7672   7.7817

     occupation numbers 
     1.0000   1.0000   1.0000   1.0000   0.0000   0.0000   0.0000   0.0000

          k =-0.3750 0.6264 0.0000 (  2809 PWs)   bands (ev):

   -16.3220 -12.8225 -10.4046  -4.4339  -0.9469   4.0260   7.4235   7.6499

     occupation numbers 
     1.0000   1.0000   1.0000   1.0000   0.0000   0.0000   0.0000   0.0000

          k =-0.3750 0.6861 0.0000 (  2805 PWs)   bands (ev):

   -16.2901 -12.3621 -11.0473  -4.3601  -0.9244   4.0100   7.2110   7.5606

     occupation numbers 
     1.0000   1.0000   1.0000   1.0000   0.0000   0.0000   0.0000   0.0000

          k =-0.3750 0.7457 0.0000 (  2805 PWs)   bands (ev):

   -16.2900 -12.3633 -11.0461  -4.3598  -0.9247   4.0097   7.2110   7.5606

     occupation numbers 
     1.0000   1.0000   1.0000   1.0000   0.0000   0.0000   0.0000   0.0000

          k =-0.3750 0.8054 0.0000 (  2809 PWs)   bands (ev):

   -16.3217 -12.8246 -10.4027  -4.4333  -0.9480   4.0252   7.4239   7.6498

     occupation numbers 
     1.0000   1.0000   1.0000   1.0000   0.0000   0.0000   0.0000   0.0000

          k =-0.3750 0.8651 0.0000 (  2804 PWs)   bands (ev):

   -16.4098 -13.2339  -9.6170  -4.5876  -0.9505   4.0332   7.7673   7.7822

     occupation numbers 
     1.0000   1.0000   1.0000   1.0000   0.0000   0.0000   0.0000   0.0000

          k =-0.3750 0.9247 0.0000 (  2801 PWs)   bands (ev):

   -16.5865 -13.4542  -8.8219  -4.8246  -0.8786   3.9827   7.3847   7.5858

     occupation numbers 
     1.0000   1.0000   1.0000   1.0000   0.0000   0.0000   0.0000   0.0000

          k =-0.3750-0.4474 0.0000 (  2804 PWs)   bands (ev):

   -16.8558 -13.4541  -8.0899  -5.1285  -0.7011   3.8157   6.5181   7.1634

     occupation numbers 
     1.0000   1.0000   1.0000   1.0000   0.0000   0.0000   0.0000   0.0000

          k =-0.3750-0.3878 0.0000 (  2790 PWs)   bands (ev):

   -17.1829 -13.2576  -7.4983  -5.4691  -0.4156   3.5534   5.7386   6.4995

     occupation numbers 
     1.0000   1.0000   1.0000   1.0000   0.0000   0.0000   0.0000   0.0000

          k =-0.3750-0.3281 0.0000 (  2780 PWs)   bands (ev):

   -17.5216 -12.9064  -7.1295  -5.8135  -0.0380   3.3350   5.0683   5.8319

     occupation numbers 
     1.0000   1.0000   1.0000   1.0000   0.0000   0.0000   0.0000   0.0000

          k =-0.3750-0.2685 0.0000 (  2777 PWs)   bands (ev):

   -17.8367 -12.4356  -7.0472  -6.1340   0.4053   3.3004   4.5160   5.2646

     occupation numbers 
     1.0000   1.0000   1.0000   1.0000   0.0000   0.0000   0.0000   0.0000

          k =-0.3750-0.2088 0.0000 (  2779 PWs)   bands (ev):

   -18.1058 -11.8702  -7.2596  -6.4100   0.8800   3.4675   4.1108   4.8024

     occupation numbers 
     1.0000   1.0000   1.0000   1.0000   0.0000   0.0000   0.0000   0.0000

          k =-0.3750-0.1491 0.0000 (  2761 PWs)   bands (ev):

   -18.3160 -11.2302  -7.7143  -6.6272   1.3395   3.5499   4.0650   4.4467

     occupation numbers 
     1.0000   1.0000   1.0000   1.0000   0.0000   0.0000   0.0000   0.0000

          k =-0.3750-0.0895 0.0000 (  2758 PWs)   bands (ev):

   -18.4596 -10.5357  -8.3302  -6.7767   1.7199   3.3980   4.1997   4.2799

     occupation numbers 
     1.0000   1.0000   1.0000   1.0000   0.0000   0.0000   0.0000   0.0000

          k =-0.3750-0.0298 0.0000 (  2768 PWs)   bands (ev):

   -18.5323  -9.8208  -9.0200  -6.8527   1.9428   3.2988   4.0697   4.2788

     occupation numbers 
     1.0000   1.0000   1.0000   1.0000   0.0000   0.0000   0.0000   0.0000

          k =-0.3750 0.0298 0.0000 (  2768 PWs)   bands (ev):

   -18.5323  -9.8188  -9.0221  -6.8528   1.9429   3.2989   4.0697   4.2789

     occupation numbers 
     1.0000   1.0000   1.0000   1.0000   0.0000   0.0000   0.0000   0.0000

          k =-0.3750 0.0895 0.0000 (  2758 PWs)   bands (ev):

   -18.4596 -10.5337  -8.3326  -6.7768   1.7205   3.3981   4.1998   4.2804

     occupation numbers 
     1.0000   1.0000   1.0000   1.0000   0.0000   0.0000   0.0000   0.0000

          k =-0.3750 0.1491 0.0000 (  2761 PWs)   bands (ev):

   -18.3161 -11.2282  -7.7168  -6.6275   1.3404   3.5504   4.0659   4.4468

     occupation numbers 
     1.0000   1.0000   1.0000   1.0000   0.0000   0.0000   0.0000   0.0000

          k =-0.3750 0.2088 0.0000 (  2779 PWs)   bands (ev):

   -18.1060 -11.8682  -7.2623  -6.4104   0.8812   3.4690   4.1108   4.8036

     occupation numbers 
     1.0000   1.0000   1.0000   1.0000   0.0000   0.0000   0.0000   0.0000

          k =-0.3333 0.2386 0.0000 (  2770 PWs)   bands (ev):

   -18.2631 -11.6447  -6.9231  -6.5731   1.1245   3.1782   3.8222   4.5590

     occupation numbers 
     1.0000   1.0000   1.0000   1.0000   0.0000   0.0000   0.0000   0.0000

          k =-0.3333 0.2983 0.0000 (  2773 PWs)   bands (ev):

   -17.9453 -12.1916  -6.9839  -6.2359   0.6181   3.1848   4.3097   5.0710

     occupation numbers 
     1.0000   1.0000   1.0000   1.0000   0.0000   0.0000   0.0000   0.0000

          k =-0.3333 0.3580 0.0000 (  2786 PWs)   bands (ev):

   -17.5761 -12.6505  -7.3313  -5.8465   0.1393   3.3292   4.9261   5.6879

     occupation numbers 
     1.0000   1.0000   1.0000   1.0000   0.0000   0.0000   0.0000   0.0000

          k =-0.3333 0.4176 0.0000 (  2792 PWs)   bands (ev):

   -17.1742 -13.0017  -7.9071  -5.4226  -0.2886   3.4788   5.6569   6.4025

     occupation numbers 
     1.0000   1.0000   1.0000   1.0000   0.0000   0.0000   0.0000   0.0000

          k =-0.3333 0.4773 0.0000 (  2795 PWs)   bands (ev):

   -16.7704 -13.2179  -8.6307  -4.9892  -0.6499   3.5244   6.4956   7.3538

     occupation numbers 
     1.0000   1.0000   1.0000   1.0000   0.0000   0.0000   0.0000   0.0000

          k =-0.3333 0.5369 0.0000 (  2812 PWs)   bands (ev):

   -16.4106 -13.2628  -9.4241  -4.5806  -0.9341   3.4793   7.4335   8.1655

     occupation numbers 
     1.0000   1.0000   1.0000   1.0000   0.0000   0.0000   0.0000   0.0000

          k =-0.3333 0.5966 0.0000 (  2802 PWs)   bands (ev):

   -16.1442 -13.1099 -10.2154  -4.2392  -1.1355   3.4055   7.7967   8.4240

     occupation numbers 
     1.0000   1.0000   1.0000   1.0000   0.0000   0.0000   0.0000   0.0000

          k =-0.3333 0.6563 0.0000 (  2811 PWs)   bands (ev):

   -15.9937 -12.8010 -10.9093  -4.0105  -1.2537   3.3468   7.5209   8.4366

     occupation numbers 
     1.0000   1.0000   1.0000   1.0000   0.0000   0.0000   0.0000   0.0000

          k =-0.3333 0.7159 0.0000 (  2806 PWs)   bands (ev):

   -15.9472 -12.5873 -11.2494  -3.9295  -1.2924   3.3250   7.4095   8.3890

     occupation numbers 
     1.0000   1.0000   1.0000   1.0000   0.0000   0.0000   0.0000   0.0000

          k =-0.3333 0.7756 0.0000 (  2811 PWs)   bands (ev):

   -15.9934 -12.8028 -10.9077  -4.0100  -1.2545   3.3464   7.5212   8.4365

     occupation numbers 
     1.0000   1.0000   1.0000   1.0000   0.0000   0.0000   0.0000   0.0000

          k =-0.3333 0.8352 0.0000 (  2802 PWs)   bands (ev):

   -16.1437 -13.1121 -10.2133  -4.2383  -1.1369   3.4047   7.7974   8.4237

     occupation numbers 
     1.0000   1.0000   1.0000   1.0000   0.0000   0.0000   0.0000   0.0000

          k =-0.3333 0.8949 0.0000 (  2812 PWs)   bands (ev):

   -16.4100 -13.2651  -9.4218  -4.5796  -0.9359   3.4779   7.4332   8.1682

     occupation numbers 
     1.0000   1.0000   1.0000   1.0000   0.0000   0.0000   0.0000   0.0000

          k =-0.3333-0.4773 0.0000 (  2795 PWs)   bands (ev):

   -16.7699 -13.2201  -8.6283  -4.9882  -0.6517   3.5226   6.4955   7.3569

     occupation numbers 
     1.0000   1.0000   1.0000   1.0000   0.0000   0.0000   0.0000   0.0000

          k =-0.3333-0.4176 0.0000 (  2792 PWs)   bands (ev):

   -17.1739 -13.0039  -7.9045  -5.4218  -0.2902   3.4765   5.6569   6.4027

     occupation numbers 
     1.0000   1.0000   1.0000   1.0000   0.0000   0.0000   0.0000   0.0000

          k =-0.3333-0.3580 0.0000 (  2786 PWs)   bands (ev):

   -17.5759 -12.6525  -7.3285  -5.8459   0.1378   3.3269   4.9261   5.6879

     occupation numbers 
     1.0000   1.0000   1.0000   1.0000   0.0000   0.0000   0.0000   0.0000

          k =-0.3333-0.2983 0.0000 (  2773 PWs)   bands (ev):

   -17.9451 -12.1936  -6.9811  -6.2354   0.6167   3.1827   4.3097   5.0709

     occupation numbers 
     1.0000   1.0000   1.0000   1.0000   0.0000   0.0000   0.0000   0.0000

          k =-0.3333-0.2386 0.0000 (  2770 PWs)   bands (ev):

   -18.2630 -11.6466  -6.9202  -6.5727   1.1234   3.1764   3.8221   4.5589

     occupation numbers 
     1.0000   1.0000   1.0000   1.0000   0.0000   0.0000   0.0000   0.0000

          k =-0.3333-0.1790 0.0000 (  2758 PWs)   bands (ev):

   -18.5183 -11.0279  -7.1473  -6.8453   1.6241   3.2286   3.5910   4.1536

     occupation numbers 
     1.0000   1.0000   1.0000   1.0000   0.0000   0.0000   0.0000   0.0000

          k =-0.3333-0.1193 0.0000 (  2759 PWs)   bands (ev):

   -18.7045 -10.3539  -7.6061  -7.0452   2.0701   3.0443   3.8044   3.8548

     occupation numbers 
     1.0000   1.0000   1.0000   1.0000   0.0000   0.0000   0.0000   0.0000

          k =-0.3333-0.0597 0.0000 (  2763 PWs)   bands (ev):

   -18.8176  -9.6457  -8.2160  -7.1670   2.3948   2.8895   3.6639   3.8600

     occupation numbers 
     1.0000   1.0000   1.0000   1.0000   0.0000   0.0000   0.0000   0.0000

          k =-0.3333 0.0000 0.0000 (  2774 PWs)   bands (ev):

   -18.8555  -9.0111  -8.8233  -7.2080   2.5183   2.8358   3.5951   3.8300

     occupation numbers 
     1.0000   1.0000   1.0000   1.0000   0.0000   0.0000   0.0000   0.0000

          k =-0.3333 0.0597 0.0000 (  2763 PWs)   bands (ev):

   -18.8176  -9.6436  -8.2184  -7.1671   2.3952   2.8895   3.6640   3.8601

     occupation numbers 
     1.0000   1.0000   1.0000   1.0000   0.0000   0.0000   0.0000   0.0000

          k =-0.3333 0.1193 0.0000 (  2759 PWs)   bands (ev):

   -18.7045 -10.3519  -7.6087  -7.0454   2.0707   3.0444   3.8054   3.8549

     occupation numbers 
     1.0000   1.0000   1.0000   1.0000   0.0000   0.0000   0.0000   0.0000

          k =-0.3333 0.1790 0.0000 (  2758 PWs)   bands (ev):

   -18.5184 -11.0259  -7.1501  -6.8456   1.6250   3.2295   3.5918   4.1537

     occupation numbers 
     1.0000   1.0000   1.0000   1.0000   0.0000   0.0000   0.0000   0.0000

          k =-0.2917 0.2088 0.0000 (  2758 PWs)   bands (ev):

   -18.6670 -10.7847  -7.0024  -6.7668   1.8827   2.9570   3.2412   3.9401

     occupation numbers 
     1.0000   1.0000   1.0000   1.0000   0.0000   0.0000   0.0000   0.0000

          k =-0.2917 0.2685 0.0000 (  2777 PWs)   bands (ev):

   -18.3671 -11.3829  -6.8090  -6.6750   1.3523   2.9638   3.6311   4.3933

     occupation numbers 
     1.0000   1.0000   1.0000   1.0000   0.0000   0.0000   0.0000   0.0000

          k =-0.2917 0.3281 0.0000 (  2779 PWs)   bands (ev):

   -18.0022 -11.9130  -7.1349  -6.2785   0.8172   3.0228   4.1900   4.9552

     occupation numbers 
     1.0000   1.0000   1.0000   1.0000   0.0000   0.0000   0.0000   0.0000

          k =-0.2917 0.3878 0.0000 (  2779 PWs)   bands (ev):

   -17.5820 -12.3627  -7.6922  -5.8238   0.3010   3.0499   4.8675   5.6216

     occupation numbers 
     1.0000   1.0000   1.0000   1.0000   0.0000   0.0000   0.0000   0.0000

          k =-0.2917 0.4474 0.0000 (  2793 PWs)   bands (ev):

   -17.1224 -12.7182  -8.4026  -5.3261  -0.1831   2.9792   5.6554   6.3806

     occupation numbers 
     1.0000   1.0000   1.0000   1.0000   0.0000   0.0000   0.0000   0.0000

          k =-0.2917 0.5071 0.0000 (  2809 PWs)   bands (ev):

   -16.6507 -12.9615  -9.1877  -4.8073  -0.6289   2.8463   6.5491   7.1873

     occupation numbers 
     1.0000   1.0000   1.0000   1.0000   0.0000   0.0000   0.0000   0.0000

          k =-0.2917 0.5668 0.0000 (  2806 PWs)   bands (ev):

   -16.2120 -13.0689  -9.9745  -4.2999  -1.0310   2.7079   7.5411   7.7895

     occupation numbers 
     1.0000   1.0000   1.0000   1.0000   0.0000   0.0000   0.0000   0.0000

          k =-0.2917 0.6264 0.0000 (  2807 PWs)   bands (ev):

   -15.8702 -13.0265 -10.6793  -3.8573  -1.3721   2.6005   7.7518   8.6077

     occupation numbers 
     1.0000   1.0000   1.0000   1.0000   0.0000   0.0000   0.0000   0.0000

          k =-0.2917 0.6861 0.0000 (  2801 PWs)   bands (ev):

   -15.6856 -12.9016 -11.1537  -3.5744  -1.5928   2.5429   7.5879   9.2973

     occupation numbers 
     1.0000   1.0000   1.0000   1.0000   0.0000   0.0000   0.0000   0.0000

          k =-0.2917 0.7457 0.0000 (  2801 PWs)   bands (ev):

   -15.6854 -12.9026 -11.1529  -3.5740  -1.5933   2.5427   7.5881   9.2971

     occupation numbers 
     1.0000   1.0000   1.0000   1.0000   0.0000   0.0000   0.0000   0.0000

          k =-0.2917 0.8054 0.0000 (  2807 PWs)   bands (ev):

   -15.8698 -13.0286 -10.6774  -3.8564  -1.3733   2.6000   7.7523   8.6075

     occupation numbers 
     1.0000   1.0000   1.0000   1.0000   0.0000   0.0000   0.0000   0.0000

          k =-0.2917 0.8651 0.0000 (  2806 PWs)   bands (ev):

   -16.2115 -13.0713  -9.9723  -4.2989  -1.0325   2.7071   7.5411   7.7902

     occupation numbers 
     1.0000   1.0000   1.0000   1.0000   0.0000   0.0000   0.0000   0.0000

          k =-0.2917-0.5071 0.0000 (  2809 PWs)   bands (ev):

   -16.6503 -12.9638  -9.1853  -4.8064  -0.6305   2.8450   6.5491   7.1878

     occupation numbers 
     1.0000   1.0000   1.0000   1.0000   0.0000   0.0000   0.0000   0.0000

          k =-0.2917-0.4474 0.0000 (  2793 PWs)   bands (ev):

   -17.1221 -12.7203  -8.4001  -5.3254  -0.1847   2.9775   5.6553   6.3808

     occupation numbers 
     1.0000   1.0000   1.0000   1.0000   0.0000   0.0000   0.0000   0.0000

          k =-0.2917-0.3878 0.0000 (  2779 PWs)   bands (ev):

   -17.5818 -12.3647  -7.6895  -5.8232   0.2996   3.0476   4.8674   5.9126

     occupation numbers 
     1.0000   1.0000   1.0000   1.0000   0.0000   0.0000   0.0000   0.0000

          k =-0.2917-0.3281 0.0000 (  2779 PWs)   bands (ev):

   -18.0021 -11.9150  -7.1321  -6.2780   0.8160   3.0204   4.1900   4.9551

     occupation numbers 
     1.0000   1.0000   1.0000   1.0000   0.0000   0.0000   0.0000   0.0000

          k =-0.2917-0.2685 0.0000 (  2777 PWs)   bands (ev):

   -18.3670 -11.3849  -6.8060  -6.6746   1.3512   2.9614   3.6311   4.3932

     occupation numbers 
     1.0000   1.0000   1.0000   1.0000   0.0000   0.0000   0.0000   0.0000

          k =-0.2917-0.2088 0.0000 (  2758 PWs)   bands (ev):

   -18.6669 -10.7867  -7.0021  -6.7638   1.8819   2.9553   3.2407   3.9399

     occupation numbers 
     1.0000   1.0000   1.0000   1.0000   0.0000   0.0000   0.0000   0.0000

          k =-0.2917-0.1491 0.0000 (  2759 PWs)   bands (ev):

   -18.8960 -10.1344  -7.2534  -7.0015   2.3708   2.7665   3.3037   3.5964

     occupation numbers 
     1.0000   1.0000   1.0000   1.0000   0.0000   0.0000   0.0000   0.0000

          k =-0.2917-0.0895 0.0000 (  2760 PWs)   bands (ev):

   -19.0504  -9.4457  -7.4605  -7.4234   2.5560   2.7672   3.3594   3.4761

     occupation numbers 
     1.0000   1.0000   1.0000   1.0000   0.0000   0.0000   0.0000   0.0000

          k =-0.2917-0.0298 0.0000 (  2760 PWs)   bands (ev):

   -19.1281  -8.7458  -8.0626  -7.5091   2.4461   3.0166   3.2169   3.4374

     occupation numbers 
     1.0000   1.0000   1.0000   1.0000   0.0000   0.0000   0.0000   0.0000

          k =-0.2917 0.0298 0.0000 (  2760 PWs)   bands (ev):

   -19.1281  -8.7434  -8.0651  -7.5091   2.4462   3.0167   3.2170   3.4376

     occupation numbers 
     1.0000   1.0000   1.0000   1.0000   0.0000   0.0000   0.0000   0.0000

          k =-0.2917 0.0895 0.0000 (  2760 PWs)   bands (ev):

   -19.0504  -9.4435  -7.4632  -7.4235   2.5561   2.7675   3.3595   3.4767

     occupation numbers 
     1.0000   1.0000   1.0000   1.0000   0.0000   0.0000   0.0000   0.0000

          k =-0.2917 0.1491 0.0000 (  2759 PWs)   bands (ev):

   -18.8960 -10.1323  -7.2536  -7.0044   2.3715   2.7667   3.3055   3.5965

     occupation numbers 
     1.0000   1.0000   1.0000   1.0000   0.0000   0.0000   0.0000   0.0000

          k =-0.2500 0.1790 0.0000 (  2755 PWs)   bands (ev):

   -19.0318  -9.8809  -7.3987  -6.5863   2.5647   2.6129   2.8428   3.4326

     occupation numbers 
     1.0000   1.0000   1.0000   1.0000   0.0000   0.0000   0.0000   0.0000

          k =-0.2500 0.2386 0.0000 (  2760 PWs)   bands (ev):

   -18.7601 -10.5131  -7.0961  -6.6144   2.1076   2.6678   3.0347   3.8064

     occupation numbers 
     1.0000   1.0000   1.0000   1.0000   0.0000   0.0000   0.0000   0.0000

          k =-0.2500 0.2983 0.0000 (  2775 PWs)   bands (ev):

   -18.4163 -11.0941  -6.9206  -6.7148   1.5526   2.6414   3.5338   4.3059

     occupation numbers 
     1.0000   1.0000   1.0000   1.0000   0.0000   0.0000   0.0000   0.0000

          k =-0.2500 0.3580 0.0000 (  2773 PWs)   bands (ev):

   -18.0058 -11.6130  -7.4573  -6.2613   0.9865   2.5587   4.1567   4.9179

     occupation numbers 
     1.0000   1.0000   1.0000   1.0000   0.0000   0.0000   0.0000   0.0000

          k =-0.2500 0.4176 0.0000 (  2797 PWs)   bands (ev):

   -17.5373 -12.0621  -8.1494  -5.7453   0.4258   2.3930   4.8914   5.6333

     occupation numbers 
     1.0000   1.0000   1.0000   1.0000   0.0000   0.0000   0.0000   0.0000

          k =-0.2500 0.4773 0.0000 (  2809 PWs)   bands (ev):

   -17.0249 -12.4364  -8.9186  -5.1799  -0.1235   2.1871   5.7351   6.7904

     occupation numbers 
     1.0000   1.0000   1.0000   1.0000   0.0000   0.0000   0.0000   0.0000

          k =-0.2500 0.5369 0.0000 (  2804 PWs)   bands (ev):

   -16.4937 -12.7321  -9.6908  -4.5833  -0.6621   1.9899   6.6839   7.2562

     occupation numbers 
     1.0000   1.0000   1.0000   1.0000   0.0000   0.0000   0.0000   0.0000

          k =-0.2500 0.5966 0.0000 (  2802 PWs)   bands (ev):

   -15.9898 -12.9471 -10.3856  -3.9848  -1.1878   1.8331   7.7285   7.7881

     occupation numbers 
     1.0000   1.0000   1.0000   1.0000   0.0000   0.0000   0.0000   0.0000

          k =-0.2500 0.6563 0.0000 (  2791 PWs)   bands (ev):

   -15.5987 -13.0796 -10.8963  -3.4461  -1.6674   1.7335   7.7837   8.8405

     occupation numbers 
     1.0000   1.0000   1.0000   1.0002   0.0000   0.0000   0.0000   0.0000

          k =-0.2500 0.7159 0.0000 (  2788 PWs)   bands (ev):

   -15.4442 -13.1256 -11.0901  -3.1750  -1.9160   1.6995   7.7248   9.8107

     occupation numbers 
     1.0000   1.0000   1.0000   1.0130   0.0001   0.0000   0.0000   0.0000

          k =-0.2500 0.7756 0.0000 (  2791 PWs)   bands (ev):

   -15.5984 -13.0811 -10.8950  -3.4453  -1.6684   1.7333   7.7841   8.8403

     occupation numbers 
     1.0000   1.0000   1.0000   1.0002   0.0000   0.0000   0.0000   0.0000

          k =-0.2500 0.8352 0.0000 (  2802 PWs)   bands (ev):

   -15.9894 -12.9493 -10.3836  -3.9839  -1.1892   1.8326   7.7283   7.7888

     occupation numbers 
     1.0000   1.0000   1.0000   1.0000   0.0000   0.0000   0.0000   0.0000

          k =-0.2500-0.5369 0.0000 (  2804 PWs)   bands (ev):

   -16.4933 -12.7344  -9.6885  -4.5825  -0.6635   1.9891   6.6838   7.2564

     occupation numbers 
     1.0000   1.0000   1.0000   1.0000   0.0000   0.0000   0.0000   0.0000

          k =-0.2500-0.4773 0.0000 (  2809 PWs)   bands (ev):

   -17.0247 -12.4386  -8.9161  -5.1792  -0.1249   2.1859   5.7350   6.4349

     occupation numbers 
     1.0000   1.0000   1.0000   1.0000   0.0000   0.0000   0.0000   0.0000

          k =-0.2500-0.4176 0.0000 (  2797 PWs)   bands (ev):

   -17.5371 -12.0643  -8.1466  -5.7448   0.4245   2.3914   4.8913   5.6334

     occupation numbers 
     1.0000   1.0000   1.0000   1.0000   0.0000   0.0000   0.0000   0.0000

          k =-0.2500-0.3580 0.0000 (  2773 PWs)   bands (ev):

   -18.0057 -11.6151  -7.4544  -6.2608   0.9853   2.5566   4.1566   4.9177

     occupation numbers 
     1.0000   1.0000   1.0000   1.0000   0.0000   0.0000   0.0000   0.0000

          k =-0.2500-0.2983 0.0000 (  2775 PWs)   bands (ev):

   -18.4162 -11.0963  -6.9176  -6.7144   1.5515   2.6389   3.5338   4.3060

     occupation numbers 
     1.0000   1.0000   1.0000   1.0000   0.0000   0.0000   0.0000   0.0000

          k =-0.2500-0.2386 0.0000 (  2760 PWs)   bands (ev):

   -18.7600 -10.5153  -7.0959  -6.6112   2.1067   2.6653   3.0345   3.8061

     occupation numbers 
     1.0000   1.0000   1.0000   1.0000   0.0000   0.0000   0.0000   0.0000

          k =-0.2500-0.1790 0.0000 (  2755 PWs)   bands (ev):

   -19.0318  -9.8832  -7.3985  -6.5832   2.5642   2.6123   2.8411   3.4326

     occupation numbers 
     1.0000   1.0000   1.0000   1.0000   0.0000   0.0000   0.0000   0.0000

          k =-0.2500-0.1193 0.0000 (  2747 PWs)   bands (ev):

   -19.2280  -9.2153  -7.6178  -6.8254   2.3038   2.9257   3.0289   3.2870

     occupation numbers 
     1.0000   1.0000   1.0000   1.0000   0.0000   0.0000   0.0000   0.0000

          k =-0.2500-0.0597 0.0000 (  2761 PWs)   bands (ev):

   -19.3465  -8.5350  -7.7505  -7.2795   2.1364   2.8763   3.1048   3.4837

     occupation numbers 
     1.0000   1.0000   1.0000   1.0000   0.0000   0.0000   0.0000   0.0000

          k =-0.2500 0.0000 0.0000 (  2772 PWs)   bands (ev):

   -19.3861  -7.9084  -7.8368  -7.7950   2.0801   2.8329   3.0732   3.5868

     occupation numbers 
     1.0000   1.0000   1.0000   1.0000   0.0000   0.0000   0.0000   0.0000

          k =-0.2500 0.0597 0.0000 (  2761 PWs)   bands (ev):

   -19.3465  -8.5325  -7.7506  -7.2824   2.1364   2.8763   3.1052   3.4842

     occupation numbers 
     1.0000   1.0000   1.0000   1.0000   0.0000   0.0000   0.0000   0.0000

          k =-0.2500 0.1193 0.0000 (  2747 PWs)   bands (ev):

   -19.2280  -9.2130  -7.6179  -6.8285   2.3039   2.9258   3.0300   3.2878

     occupation numbers 
     1.0000   1.0000   1.0000   1.0000   0.0000   0.0000   0.0000   0.0000

          k =-0.2083 0.1491 0.0000 (  2748 PWs)   bands (ev):

   -19.3485  -8.9594  -7.7480  -6.3876   2.1340   2.5063   2.8289   3.1928

     occupation numbers 
     1.0000   1.0000   1.0000   1.0000   0.0000   0.0000   0.0000   0.0000

          k =-0.2083 0.2088 0.0000 (  2756 PWs)   bands (ev):

   -19.1105  -9.6083  -7.4792  -6.4092   2.3150   2.5189   2.7809   3.3704

     occupation numbers 
     1.0000   1.0000   1.0000   1.0000   0.0000   0.0000   0.0000   0.0000

          k =-0.2083 0.2685 0.0000 (  2766 PWs)   bands (ev):

   -18.7964 -10.2248  -7.1255  -6.6998   2.2164   2.2878   2.9590   3.7505

     occupation numbers 
     1.0000   1.0000   1.0000   1.0000   0.0000   0.0000   0.0000   0.0000

          k =-0.2083 0.3281 0.0000 (  2776 PWs)   bands (ev):

   -18.4095 -10.7960  -7.2154  -6.6917   1.7067   2.0513   3.5268   4.2969

     occupation numbers 
     1.0000   1.0000   1.0000   1.0000   0.0000   0.0000   0.0000   0.0000

          k =-0.2083 0.3878 0.0000 (  2785 PWs)   bands (ev):

   -17.9550 -11.3158  -7.8842  -6.1839   1.1020   1.8158   4.2070   4.9596

     occupation numbers 
     1.0000   1.0000   1.0000   1.0000   0.0000   0.0000   0.0000   0.0000

          k =-0.2083 0.4474 0.0000 (  2796 PWs)   bands (ev):

   -17.4408 -11.7848  -8.6297  -5.6107   0.4873   1.5506   4.9979   5.7241

     occupation numbers 
     1.0000   1.0000   1.0000   1.0000   0.0000   0.0000   0.0000   0.0000

          k =-0.2083 0.5071 0.0000 (  2806 PWs)   bands (ev):

   -16.8801 -12.2119  -9.3768  -4.9837  -0.1363   1.3002   5.8973   6.5665

     occupation numbers 
     1.0000   1.0000   1.0000   1.0000   0.0000   0.0000   0.0000   0.0000

          k =-0.2083 0.5668 0.0000 (  2802 PWs)   bands (ev):

   -16.2974 -12.6138 -10.0462  -4.3180  -0.7715   1.0944   6.9005   7.3973

     occupation numbers 
     1.0000   1.0000   1.0000   1.0000   0.0000   0.0000   0.0000   0.0000

          k =-0.2083 0.6264 0.0000 (  2804 PWs)   bands (ev):

   -15.7457 -12.9978 -10.5526  -3.6374  -1.4159   0.9500   7.8843   7.9955

     occupation numbers 
     1.0000   1.0000   1.0000   1.0000   0.0000   0.0000   0.0000   0.0000

          k =-0.2083 0.6861 0.0000 (  2791 PWs)   bands (ev):

   -15.3553 -13.2906 -10.8231  -3.0118  -2.0181   0.8760   7.9323   9.1428

     occupation numbers 
     1.0000   1.0000   1.0000   1.0567   0.0008   0.0000   0.0000   0.0000

          k =-0.2083 0.7457 0.0000 (  2791 PWs)   bands (ev):

   -15.3551 -13.2912 -10.8226  -3.0112  -2.0189   0.8759   7.9326   9.1426

     occupation numbers 
     1.0000   1.0000   1.0000   1.0569   0.0009   0.0000   0.0000   0.0000

          k =-0.2083 0.8054 0.0000 (  2804 PWs)   bands (ev):

   -15.7453 -12.9994 -10.5512  -3.6366  -1.4170   0.9497   7.8848   7.9954

     occupation numbers 
     1.0000   1.0000   1.0000   1.0000   0.0000   0.0000   0.0000   0.0000

          k =-0.2083-0.5668 0.0000 (  2802 PWs)   bands (ev):

   -16.2971 -12.6159 -10.0441  -4.3173  -0.7727   1.0939   6.9004   7.3978

     occupation numbers 
     1.0000   1.0000   1.0000   1.0000   0.0000   0.0000   0.0000   0.0000

          k =-0.2083-0.5071 0.0000 (  2806 PWs)   bands (ev):

   -16.8799 -12.2142  -9.3743  -4.9831  -0.1375   1.2995   5.8973   6.5665

     occupation numbers 
     1.0000   1.0000   1.0000   1.0000   0.0000   0.0000   0.0000   0.0000

          k =-0.2083-0.4474 0.0000 (  2796 PWs)   bands (ev):

   -17.4407 -11.7870  -8.6270  -5.6102   0.4861   1.5495   4.9979   6.0434

     occupation numbers 
     1.0000   1.0000   1.0000   1.0000   0.0000   0.0000   0.0000   0.0000

          k =-0.2083-0.3878 0.0000 (  2785 PWs)   bands (ev):

   -17.9549 -11.3180  -7.8813  -6.1835   1.1009   1.8143   4.2070   4.9596

     occupation numbers 
     1.0000   1.0000   1.0000   1.0000   0.0000   0.0000   0.0000   0.0000

          k =-0.2083-0.3281 0.0000 (  2776 PWs)   bands (ev):

   -18.4095 -10.7982  -7.2123  -6.6914   1.7058   2.0494   3.5268   4.2968

     occupation numbers 
     1.0000   1.0000   1.0000   1.0000   0.0000   0.0000   0.0000   0.0000

          k =-0.2083-0.2685 0.0000 (  2766 PWs)   bands (ev):

   -18.7963 -10.2271  -7.1253  -6.6965   2.2141   2.2870   2.9590   3.7504

     occupation numbers 
     1.0000   1.0000   1.0000   1.0000   0.0000   0.0000   0.0000   0.0000

          k =-0.2083-0.2088 0.0000 (  2756 PWs)   bands (ev):

   -19.1105  -9.6107  -7.4790  -6.4058   2.3126   2.5186   2.7805   3.3694

     occupation numbers 
     1.0000   1.0000   1.0000   1.0000   0.0000   0.0000   0.0000   0.0000

          k =-0.2083-0.1491 0.0000 (  2748 PWs)   bands (ev):

   -19.3485  -8.9618  -7.7479  -6.3842   2.1338   2.5041   2.8290   3.1928

     occupation numbers 
     1.0000   1.0000   1.0000   1.0000   0.0000   0.0000   0.0000   0.0000

          k =-0.2083-0.0895 0.0000 (  2750 PWs)   bands (ev):

   -19.5083  -8.3026  -7.9288  -6.6217   1.9098   2.6485   2.7216   3.0086

     occupation numbers 
     1.0000   1.0000   1.0000   1.0000   0.0000   0.0000   0.0000   0.0000

          k =-0.2083-0.0298 0.0000 (  2757 PWs)   bands (ev):

   -19.5886  -8.0198  -7.6743  -7.0524   1.7958   2.5446   2.7755   3.1860

     occupation numbers 
     1.0000   1.0000   1.0000   1.0000   0.0000   0.0000   0.0000   0.0000

          k =-0.2083 0.0298 0.0000 (  2757 PWs)   bands (ev):

   -19.5886  -8.0198  -7.6716  -7.0552   1.7958   2.5445   2.7757   3.1872

     occupation numbers 
     1.0000   1.0000   1.0000   1.0000   0.0000   0.0000   0.0000   0.0000

          k =-0.2083 0.0895 0.0000 (  2750 PWs)   bands (ev):

   -19.5083  -8.3000  -7.9289  -6.6249   1.9099   2.6485   2.7234   3.0089

     occupation numbers 
     1.0000   1.0000   1.0000   1.0000   0.0000   0.0000   0.0000   0.0000

          k =-0.1667 0.1193 0.0000 (  2756 PWs)   bands (ev):

   -19.6121  -8.0555  -8.0417  -6.1744   1.7675   2.1539   2.5009   2.8064

     occupation numbers 
     1.0000   1.0000   1.0000   1.0000   0.0000   0.0000   0.0000   0.0000

          k =-0.1667 0.1790 0.0000 (  2750 PWs)   bands (ev):

   -19.4109  -8.6960  -7.8122  -6.2029   1.9462   2.0784   2.7541   3.0922

     occupation numbers 
     1.0000   1.0000   1.0000   1.0000   0.0000   0.0000   0.0000   0.0000

          k =-0.1667 0.2386 0.0000 (  2763 PWs)   bands (ev):

   -19.1312  -9.3310  -7.4940  -6.4861   1.7944   2.4671   2.8816   3.3881

     occupation numbers 
     1.0000   1.0000   1.0000   1.0000   0.0000   0.0000   0.0000   0.0000

          k =-0.1667 0.2983 0.0000 (  2774 PWs)   bands (ev):

   -18.7752  -9.9409  -7.0903  -6.9829   1.5779   2.4066   2.9794   3.7700

     occupation numbers 
     1.0000   1.0000   1.0000   1.0000   0.0000   0.0000   0.0000   0.0000

          k =-0.1667 0.3580 0.0000 (  2783 PWs)   bands (ev):

   -18.3463 -10.5176  -7.6251  -6.6057   1.2949   1.7901   3.6042   4.3667

     occupation numbers 
     1.0000   1.0000   1.0000   1.0000   0.0000   0.0000   0.0000   0.0000

          k =-0.1667 0.4176 0.0000 (  2798 PWs)   bands (ev):

   -17.8493 -11.0637  -8.3392  -6.0465   0.9826   1.1367   4.3406   5.0816

     occupation numbers 
     1.0000   1.0000   1.0000   1.0000   0.0000   0.0000   0.0000   0.0000

          k =-0.1667 0.4773 0.0000 (  2798 PWs)   bands (ev):

   -17.2920 -11.5942  -9.0501  -5.4207   0.4591   0.6839   5.1876   5.8964

     occupation numbers 
     1.0000   1.0000   1.0000   1.0000   0.0000   0.0000   0.0000   0.0000

          k =-0.1667 0.5369 0.0000 (  2806 PWs)   bands (ev):

   -16.6875 -12.1338  -9.6815  -4.7387  -0.2419   0.4297   6.1421   6.7787

     occupation numbers 
     1.0000   1.0000   1.0000   1.0000   0.0000   0.0000   0.0000   0.0000

          k =-0.1667 0.5966 0.0000 (  2800 PWs)   bands (ev):

   -16.0627 -12.6980 -10.1643  -4.0137  -0.9669   0.2385   7.1983   7.6209

     occupation numbers 
     1.0000   1.0000   1.0000   1.0000   0.0000   0.0000   0.0000   0.0000

          k =-0.1667 0.6563 0.0000 (  2795 PWs)   bands (ev):

   -15.4897 -13.2371 -10.4582  -3.2629  -1.7118   0.1206   8.0937   8.3406

     occupation numbers 
     1.0000   1.0000   1.0000   1.0041   0.0000   0.0000   0.0000   0.0000

          k =-0.1667 0.7159 0.0000 (  2786 PWs)   bands (ev):

   -15.2058 -13.5116 -10.5552  -2.6025  -2.3694   0.0808   8.1742   9.4181

     occupation numbers 
     1.0000   1.0000   1.0000   0.6414   0.1268   0.0000   0.0000   0.0000

          k =-0.1667 0.7756 0.0000 (  2795 PWs)   bands (ev):

   -15.4894 -13.2380 -10.4574  -3.2622  -1.7126   0.1204   8.0941   8.3405

     occupation numbers 
     1.0000   1.0000   1.0000   1.0042   0.0000   0.0000   0.0000   0.0000

          k =-0.1667-0.5966 0.0000 (  2800 PWs)   bands (ev):

   -16.0625 -12.6996 -10.1628  -4.0131  -0.9678   0.2382   7.1983   7.6213

     occupation numbers 
     1.0000   1.0000   1.0000   1.0000   0.0000   0.0000   0.0000   0.0000

          k =-0.1667-0.5369 0.0000 (  2806 PWs)   bands (ev):

   -16.6874 -12.1358  -9.6794  -4.7382  -0.2429   0.4292   6.1421   6.7792

     occupation numbers 
     1.0000   1.0000   1.0000   1.0000   0.0000   0.0000   0.0000   0.0000

          k =-0.1667-0.4773 0.0000 (  2798 PWs)   bands (ev):

   -17.2919 -11.5964  -9.0476  -5.4203   0.4581   0.6832   5.1875   5.8958

     occupation numbers 
     1.0000   1.0000   1.0000   1.0000   0.0000   0.0000   0.0000   0.0000

          k =-0.1667-0.4176 0.0000 (  2798 PWs)   bands (ev):

   -17.8492 -11.0660  -8.3364  -6.0461   0.9816   1.1358   4.3406   5.0817

     occupation numbers 
     1.0000   1.0000   1.0000   1.0000   0.0000   0.0000   0.0000   0.0000

          k =-0.1667-0.3580 0.0000 (  2783 PWs)   bands (ev):

   -18.3462 -10.5199  -7.6221  -6.6055   1.2936   1.7893   3.6042   4.3667

     occupation numbers 
     1.0000   1.0000   1.0000   1.0000   0.0000   0.0000   0.0000   0.0000

          k =-0.1667-0.2983 0.0000 (  2774 PWs)   bands (ev):

   -18.7752  -9.9433  -7.0901  -6.9796   1.5762   2.4059   2.9794   3.7700

     occupation numbers 
     1.0000   1.0000   1.0000   1.0000   0.0000   0.0000   0.0000   0.0000

          k =-0.1667-0.2386 0.0000 (  2763 PWs)   bands (ev):

   -19.1312  -9.3335  -7.4938  -6.4826   1.7922   2.4671   2.8814   3.3876

     occupation numbers 
     1.0000   1.0000   1.0000   1.0000   0.0000   0.0000   0.0000   0.0000

          k =-0.1667-0.1790 0.0000 (  2750 PWs)   bands (ev):

   -19.4109  -8.6986  -7.8121  -6.1993   1.9439   2.0783   2.7539   3.0921

     occupation numbers 
     1.0000   1.0000   1.0000   1.0000   0.0000   0.0000   0.0000   0.0000

          k =-0.1667-0.1193 0.0000 (  2756 PWs)   bands (ev):

   -19.6121  -8.0582  -8.0416  -6.1708   1.7674   2.1515   2.5009   2.8064

     occupation numbers 
     1.0000   1.0000   1.0000   1.0000   0.0000   0.0000   0.0000   0.0000

          k =-0.1667-0.0597 0.0000 (  2758 PWs)   bands (ev):

   -19.7334  -8.1802  -7.4513  -6.3821   1.5957   2.3388   2.4073   2.6579

     occupation numbers 
     1.0000   1.0000   1.0000   1.0000   0.0000   0.0000   0.0000   0.0000

          k =-0.1667 0.0000 0.0000 (  2763 PWs)   bands (ev):

   -19.7739  -8.2265  -7.0545  -6.6499   1.5380   2.2839   2.5137   2.8743

     occupation numbers 
     1.0000   1.0000   1.0000   1.0000   0.0000   0.0000   0.0000   0.0000

          k =-0.1667 0.0597 0.0000 (  2758 PWs)   bands (ev):

   -19.7334  -8.1802  -7.4486  -6.3854   1.5957   2.3388   2.4094   2.6579

     occupation numbers 
     1.0000   1.0000   1.0000   1.0000   0.0000   0.0000   0.0000   0.0000

          k =-0.1250 0.0895 0.0000 (  2750 PWs)   bands (ev):

   -19.8195  -8.2744  -7.2303  -5.9408   1.4807   1.7949   2.2162   2.5027

     occupation numbers 
     1.0000   1.0000   1.0000   1.0000   0.0000   0.0000   0.0000   0.0000

          k =-0.1250 0.1491 0.0000 (  2752 PWs)   bands (ev):

   -19.6570  -8.0877  -7.8164  -6.0026   1.5974   1.7183   2.4358   2.7384

     occupation numbers 
     1.0000   1.0000   1.0000   1.0000   0.0000   0.0000   0.0000   0.0000

          k =-0.1250 0.2088 0.0000 (  2765 PWs)   bands (ev):

   -19.4145  -8.4434  -7.8098  -6.2939   1.4203   2.0594   2.7499   3.0853

     occupation numbers 
     1.0000   1.0000   1.0000   1.0000   0.0000   0.0000   0.0000   0.0000

          k =-0.1250 0.2685 0.0000 (  2771 PWs)   bands (ev):

   -19.0935  -9.0749  -7.4429  -6.7787   1.1829   2.5156   2.9470   3.4371

     occupation numbers 
     1.0000   1.0000   1.0000   1.0000   0.0000   0.0000   0.0000   0.0000

          k =-0.1250 0.3281 0.0000 (  2791 PWs)   bands (ev):

   -18.6964  -9.6962  -7.3941  -6.9906   0.8738   2.4409   3.0839   3.8642

     occupation numbers 
     1.0000   1.0000   1.0000   1.0000   0.0000   0.0000   0.0000   0.0000

          k =-0.1250 0.3878 0.0000 (  2798 PWs)   bands (ev):

   -18.2265 -10.3087  -8.0703  -6.4577   0.5265   1.7767   3.7649   4.5170

     occupation numbers 
     1.0000   1.0000   1.0000   1.0000   0.0000   0.0000   0.0000   0.0000

          k =-0.1250 0.4474 0.0000 (  2806 PWs)   bands (ev):

   -17.6889 -10.9288  -8.7352  -5.8503   0.1850   1.0676   4.5575   5.2857

     occupation numbers 
     1.0000   1.0000   1.0000   1.0000   0.0000   0.0000   0.0000   0.0000

          k =-0.1250 0.5071 0.0000 (  2797 PWs)   bands (ev):

   -17.0914 -11.5809  -9.3186  -5.1768  -0.1162   0.3252   5.4601   6.1499

     occupation numbers 
     1.0000   1.0000   1.0000   1.0000   0.0000   0.0000   0.0000   0.0000

          k =-0.1250 0.5668 0.0000 (  2794 PWs)   bands (ev):

   -16.4486 -12.2746  -9.7686  -4.4474  -0.4464  -0.3553   6.4690   7.0737

     occupation numbers 
     1.0000   1.0000   1.0000   1.0000   0.0000   0.0000   0.0000   0.0000

          k =-0.1250 0.6264 0.0000 (  2798 PWs)   bands (ev):

   -15.7946 -12.9764 -10.0650  -3.6751  -1.2424  -0.5200   7.5763   7.9311

     occupation numbers 
     1.0000   1.0000   1.0000   1.0000   0.0000   0.0000   0.0000   0.0000

          k =-0.1250 0.6861 0.0000 (  2793 PWs)   bands (ev):

   -15.2556 -13.5454 -10.2101  -2.8768  -2.0513  -0.6036   8.3911   8.7587

     occupation numbers 
     1.0000   1.0000   1.0000   1.0817   0.0016   0.0000   0.0000   0.0000

          k =-0.1250 0.7457 0.0000 (  2793 PWs)   bands (ev):

   -15.2555 -13.5458 -10.2098  -2.8762  -2.0519  -0.6036   8.3913   8.7587

     occupation numbers 
     1.0000   1.0000   1.0000   1.0816   0.0016   0.0000   0.0000   0.0000

          k =-0.1250-0.6264 0.0000 (  2798 PWs)   bands (ev):

   -15.7944 -12.9773 -10.0642  -3.6746  -1.2431  -0.5201   7.5764   7.9316

     occupation numbers 
     1.0000   1.0000   1.0000   1.0000   0.0000   0.0000   0.0000   0.0000

          k =-0.1250-0.5668 0.0000 (  2794 PWs)   bands (ev):

   -16.4484 -12.2760  -9.7672  -4.4470  -0.4472  -0.3556   6.4689   7.0738

     occupation numbers 
     1.0000   1.0000   1.0000   1.0000   0.0000   0.0000   0.0000   0.0000

          k =-0.1250-0.5071 0.0000 (  2797 PWs)   bands (ev):

   -17.0913 -11.5826  -9.3166  -5.1764  -0.1166   0.3244   5.4601   6.1498

     occupation numbers 
     1.0000   1.0000   1.0000   1.0000   0.0000   0.0000   0.0000   0.0000

          k =-0.1250-0.4474 0.0000 (  2806 PWs)   bands (ev):

   -17.6888 -10.9310  -8.7326  -5.8501   0.1843   1.0668   4.5575   5.2858

     occupation numbers 
     1.0000   1.0000   1.0000   1.0000   0.0000   0.0000   0.0000   0.0000

          k =-0.1250-0.3878 0.0000 (  2798 PWs)   bands (ev):

   -18.2265 -10.3110  -8.0674  -6.4574   0.5257   1.7760   3.7648   4.5170

     occupation numbers 
     1.0000   1.0000   1.0000   1.0000   0.0000   0.0000   0.0000   0.0000

          k =-0.1250-0.3281 0.0000 (  2791 PWs)   bands (ev):

   -18.6964  -9.6987  -7.3909  -6.9905   0.8726   2.4402   3.0839   3.8641

     occupation numbers 
     1.0000   1.0000   1.0000   1.0000   0.0000   0.0000   0.0000   0.0000

          k =-0.1250-0.2685 0.0000 (  2771 PWs)   bands (ev):

   -19.0935  -9.0774  -7.4428  -6.7752   1.1814   2.5155   2.9468   3.4379

     occupation numbers 
     1.0000   1.0000   1.0000   1.0000   0.0000   0.0000   0.0000   0.0000

          k =-0.1250-0.2088 0.0000 (  2765 PWs)   bands (ev):

   -19.4144  -8.4461  -7.8097  -6.2902   1.4184   2.0594   2.7500   3.0854

     occupation numbers 
     1.0000   1.0000   1.0000   1.0000   0.0000   0.0000   0.0000   0.0000

          k =-0.1250-0.1491 0.0000 (  2752 PWs)   bands (ev):

   -19.6570  -8.0877  -7.8193  -5.9988   1.5952   1.7183   2.4358   2.7383

     occupation numbers 
     1.0000   1.0000   1.0000   1.0000   0.0000   0.0000   0.0000   0.0000

          k =-0.1250-0.0895 0.0000 (  2750 PWs)   bands (ev):

   -19.8195  -8.2743  -7.2332  -5.9373   1.4806   1.7926   2.2162   2.5023

     occupation numbers 
     1.0000   1.0000   1.0000   1.0000   0.0000   0.0000   0.0000   0.0000

          k =-0.1250-0.0298 0.0000 (  2735 PWs)   bands (ev):

   -19.9010  -8.3680  -6.7800  -6.0588   1.3647   2.0504   2.1051   2.3574

     occupation numbers 
     1.0000   1.0000   1.0000   1.0000   0.0000   0.0000   0.0000   0.0000

          k =-0.1250 0.0298 0.0000 (  2735 PWs)   bands (ev):

   -19.9010  -8.3680  -6.7780  -6.0610   1.3648   2.0524   2.1051   2.3567

     occupation numbers 
     1.0000   1.0000   1.0000   1.0000   0.0000   0.0000   0.0000   0.0000

          k =-0.0833 0.0597 0.0000 (  2732 PWs)   bands (ev):

   -19.9687  -8.4426  -6.5973  -5.6564   1.2765   1.4412   2.0093   2.2714

     occupation numbers 
     1.0000   1.0000   1.0000   1.0000   0.0000   0.0000   0.0000   0.0000

          k =-0.0833 0.1193 0.0000 (  2746 PWs)   bands (ev):

   -19.8461  -8.3012  -7.0413  -5.8014   1.2921   1.4503   2.1770   2.4702

     occupation numbers 
     1.0000   1.0000   1.0000   1.0000   0.0000   0.0000   0.0000   0.0000

          k =-0.0833 0.1790 0.0000 (  2769 PWs)   bands (ev):

   -19.6425  -8.0667  -7.6101  -6.1300   1.1312   1.7367   2.4532   2.7610

     occupation numbers 
     1.0000   1.0000   1.0000   1.0000   0.0000   0.0000   0.0000   0.0000

          k =-0.0833 0.2386 0.0000 (  2778 PWs)   bands (ev):

   -19.3590  -8.2342  -7.7409  -6.6181   0.9031   2.1354   2.8213   3.1625

     occupation numbers 
     1.0000   1.0000   1.0000   1.0000   0.0000   0.0000   0.0000   0.0000

          k =-0.0833 0.2983 0.0000 (  2781 PWs)   bands (ev):

   -18.9974  -8.8829  -7.3265  -7.2115   0.5909   2.6471   2.9623   3.5061

     occupation numbers 
     1.0000   1.0000   1.0000   1.0000   0.0000   0.0000   0.0000   0.0000

          k =-0.0833 0.3580 0.0000 (  2804 PWs)   bands (ev):

   -18.5601  -9.5512  -7.8470  -6.8275   0.2240   2.3644   3.2718   4.0376

     occupation numbers 
     1.0000   1.0000   1.0000   1.0000   0.0000   0.0000   0.0000   0.0000

          k =-0.0833 0.4176 0.0000 (  2806 PWs)   bands (ev):

   -18.0509 -10.2516  -8.4590  -6.2489  -0.1516   1.6471   4.0091   4.7500

     occupation numbers 
     1.0000   1.0000   1.0000   1.0000   0.0000   0.0000   0.0000   0.0000

          k =-0.0833 0.4773 0.0000 (  2804 PWs)   bands (ev):

   -17.4749 -10.9991  -8.9898  -5.5975  -0.4960   0.8831   4.8577   5.5729

     occupation numbers 
     1.0000   1.0000   1.0000   1.0000   0.0000   0.0000   0.0000   0.0000

          k =-0.0833 0.5369 0.0000 (  2800 PWs)   bands (ev):

   -16.8410 -11.7905  -9.4061  -4.8820  -0.7826   0.0841   5.8152   6.4860

     occupation numbers 
     1.0000   1.0000   1.0000   1.0000   0.0000   0.0000   0.0000   0.0000

          k =-0.0833 0.5966 0.0000 (  2802 PWs)   bands (ev):

   -16.1672 -12.5954  -9.6992  -4.1141  -0.9954  -0.7411   6.8770   7.4485

     occupation numbers 
     1.0000   1.0000   1.0000   1.0000   0.0000   0.0000   0.0000   0.0000

          k =-0.0833 0.6563 0.0000 (  2794 PWs)   bands (ev):

   -15.5084 -13.3413  -9.8722  -3.3120  -1.5769  -1.1257   8.0323   8.3111

     occupation numbers 
     1.0000   1.0000   1.0000   1.0020   0.0000   0.0000   0.0000   0.0000

          k =-0.0833 0.7159 0.0000 (  2798 PWs)   bands (ev):

   -15.1365 -13.7438  -9.9293  -2.6441  -2.2560  -1.1695   8.6745   9.1540

     occupation numbers 
     1.0000   1.0000   1.0000   0.7535   0.0357   0.0000   0.0000   0.0000

          k =-0.0833-0.6563 0.0000 (  2794 PWs)   bands (ev):

   -15.5082 -13.3417  -9.8719  -3.3117  -1.5773  -1.1257   8.0322   8.3113

     occupation numbers 
     1.0000   1.0000   1.0000   1.0020   0.0000   0.0000   0.0000   0.0000

          k =-0.0833-0.5966 0.0000 (  2802 PWs)   bands (ev):

   -16.1671 -12.5961  -9.6985  -4.1139  -0.9955  -0.7416   6.8770   7.4485

     occupation numbers 
     1.0000   1.0000   1.0000   1.0000   0.0000   0.0000   0.0000   0.0000

          k =-0.0833-0.5369 0.0000 (  2800 PWs)   bands (ev):

   -16.8409 -11.7916  -9.4048  -4.8818  -0.7829   0.0836   5.8152   6.4861

     occupation numbers 
     1.0000   1.0000   1.0000   1.0000   0.0000   0.0000   0.0000   0.0000

          k =-0.0833-0.4773 0.0000 (  2804 PWs)   bands (ev):

   -17.4748 -11.0006  -8.9881  -5.5973  -0.4964   0.8826   4.8577   5.5729

     occupation numbers 
     1.0000   1.0000   1.0000   1.0000   0.0000   0.0000   0.0000   0.0000

          k =-0.0833-0.4176 0.0000 (  2806 PWs)   bands (ev):

   -18.0508 -10.2536  -8.4566  -6.2487  -0.1521   1.6466   4.0091   5.0476

     occupation numbers 
     1.0000   1.0000   1.0000   1.0000   0.0000   0.0000   0.0000   0.0000

          k =-0.0833-0.3580 0.0000 (  2804 PWs)   bands (ev):

   -18.5601  -9.5536  -7.8442  -6.8274   0.2233   2.3639   3.2718   4.0375

     occupation numbers 
     1.0000   1.0000   1.0000   1.0000   0.0000   0.0000   0.0000   0.0000

          k =-0.0833-0.2983 0.0000 (  2781 PWs)   bands (ev):

   -18.9974  -8.8855  -7.3264  -7.2083   0.5899   2.6471   2.9620   3.5059

     occupation numbers 
     1.0000   1.0000   1.0000   1.0000   0.0000   0.0000   0.0000   0.0000

          k =-0.0833-0.2386 0.0000 (  2778 PWs)   bands (ev):

   -19.3590  -8.2370  -7.7408  -6.6147   0.9019   2.1354   2.8213   3.1625

     occupation numbers 
     1.0000   1.0000   1.0000   1.0000   0.0000   0.0000   0.0000   0.0000

          k =-0.0833-0.1790 0.0000 (  2769 PWs)   bands (ev):

   -19.6425  -8.0666  -7.6130  -6.1263   1.1297   1.7367   2.4532   2.7609

     occupation numbers 
     1.0000   1.0000   1.0000   1.0000   0.0000   0.0000   0.0000   0.0000

          k =-0.0833-0.1193 0.0000 (  2746 PWs)   bands (ev):

   -19.8461  -8.3011  -7.0442  -5.7978   1.2903   1.4503   2.1770   2.4705

     occupation numbers 
     1.0000   1.0000   1.0000   1.0000   0.0000   0.0000   0.0000   0.0000

          k =-0.0833-0.0597 0.0000 (  2732 PWs)   bands (ev):

   -19.9687  -8.4426  -6.5995  -5.6538   1.2765   1.4395   2.0093   2.2717

     occupation numbers 
     1.0000   1.0000   1.0000   1.0000   0.0000   0.0000   0.0000   0.0000

          k =-0.0833 0.0000 0.0000 (  2733 PWs)   bands (ev):

   -20.0097  -8.4898  -6.4133  -5.6345   1.2182   1.5476   1.9532   2.1112

     occupation numbers 
     1.0000   1.0000   1.0000   1.0000   0.0000   0.0000   0.0000   0.0000

          k =-0.0417 0.0298 0.0000 (  2731 PWs)   bands (ev):

   -20.0587  -8.5443  -6.2616  -5.3398   1.1301   1.1560   1.8845   2.0193

     occupation numbers 
     1.0000   1.0000   1.0000   1.0000   0.0000   0.0000   0.0000   0.0000

          k =-0.0417 0.0895 0.0000 (  2745 PWs)   bands (ev):

   -19.9766  -8.4494  -6.4973  -5.5673   1.0659   1.2709   1.9970   2.2873

     occupation numbers 
     1.0000   1.0000   1.0000   1.0000   0.0000   0.0000   0.0000   0.0000

          k =-0.0417 0.1491 0.0000 (  2761 PWs)   bands (ev):

   -19.8130  -8.2604  -6.9262  -5.9711   0.9559   1.4989   2.2208   2.5218

     occupation numbers 
     1.0000   1.0000   1.0000   1.0000   0.0000   0.0000   0.0000   0.0000

          k =-0.0417 0.2088 0.0000 (  2774 PWs)   bands (ev):

   -19.5686  -7.9785  -7.4871  -6.4920   0.7647   1.8398   2.5521   2.8652

     occupation numbers 
     1.0000   1.0000   1.0000   1.0000   0.0000   0.0000   0.0000   0.0000

          k =-0.0417 0.2685 0.0000 (  2780 PWs)   bands (ev):

   -19.2447  -8.1316  -7.6060  -7.0775   0.4746   2.2941   2.9590   3.3223

     occupation numbers 
     1.0000   1.0000   1.0000   1.0000   0.0000   0.0000   0.0000   0.0000

          k =-0.0417 0.3281 0.0000 (  2794 PWs)   bands (ev):

   -18.8434  -8.8386  -7.6756  -7.1460   0.1088   2.8480   2.8621   3.6611

     occupation numbers 
     1.0000   1.0000   1.0000   1.0000   0.0000   0.0000   0.0000   0.0000

          k =-0.0417 0.3878 0.0000 (  2806 PWs)   bands (ev):

   -18.3674  -9.6054  -8.2356  -6.6028  -0.2863   2.1605   3.5434   4.2957

     occupation numbers 
     1.0000   1.0000   1.0000   1.0000   0.0000   0.0000   0.0000   0.0000

          k =-0.0417 0.4474 0.0000 (  2804 PWs)   bands (ev):

   -17.8207 -10.4271  -8.7207  -5.9820  -0.6652   1.3960   4.3368   5.0667

     occupation numbers 
     1.0000   1.0000   1.0000   1.0000   0.0000   0.0000   0.0000   0.0000

          k =-0.0417 0.5071 0.0000 (  2812 PWs)   bands (ev):

   -17.2095 -11.2865  -9.1137  -5.2913  -0.9948   0.5882   5.2408   5.9417

     occupation numbers 
     1.0000   1.0000   1.0000   1.0000   0.0000   0.0000   0.0000   0.0000

          k =-0.0417 0.5668 0.0000 (  2802 PWs)   bands (ev):

   -16.5446 -12.1556  -9.4093  -4.5407  -1.2542  -0.2502   6.2522   6.9000

     occupation numbers 
     1.0000   1.0000   1.0000   1.0000   0.0000   0.0000   0.0000   0.0000

          k =-0.0417 0.6264 0.0000 (  2801 PWs)   bands (ev):

   -15.8528 -12.9926  -9.6064  -3.7454  -1.4319  -1.1044   7.3646   7.8887

     occupation numbers 
     1.0000   1.0000   1.0000   1.0000   0.0000   0.0000   0.0000   0.0000

          k =-0.0417 0.6861 0.0000 (  2790 PWs)   bands (ev):

   -15.2477 -13.6730  -9.7048  -2.9513  -1.9283  -1.5219   8.5603   8.6952

     occupation numbers 
     1.0000   1.0000   1.0000   1.0758   0.0001   0.0000   0.0000   0.0000

          k =-0.0417-0.6861 0.0000 (  2790 PWs)   bands (ev):

   -15.2476 -13.6731  -9.7048  -2.9511  -1.9284  -1.5219   8.5603   8.6952

     occupation numbers 
     1.0000   1.0000   1.0000   1.0758   0.0001   0.0000   0.0000   0.0000

          k =-0.0417-0.6264 0.0000 (  2801 PWs)   bands (ev):

   -15.8527 -12.9928  -9.6061  -3.7453  -1.4320  -1.1046   7.3646   7.8888

     occupation numbers 
     1.0000   1.0000   1.0000   1.0000   0.0000   0.0000   0.0000   0.0000

          k =-0.0417-0.5668 0.0000 (  2802 PWs)   bands (ev):

   -16.5446 -12.1560  -9.4088  -4.5405  -1.2543  -0.2505   6.2522   6.9001

     occupation numbers 
     1.0000   1.0000   1.0000   1.0000   0.0000   0.0000   0.0000   0.0000

          k =-0.0417-0.5071 0.0000 (  2812 PWs)   bands (ev):

   -17.2095 -11.2871  -9.1130  -5.2912  -0.9950   0.5879   5.2408   5.9417

     occupation numbers 
     1.0000   1.0000   1.0000   1.0000   0.0000   0.0000   0.0000   0.0000

          k =-0.0417-0.4474 0.0000 (  2804 PWs)   bands (ev):

   -17.8207 -10.4281  -8.7196  -5.9819  -0.6654   1.3957   4.3368   5.0666

     occupation numbers 
     1.0000   1.0000   1.0000   1.0000   0.0000   0.0000   0.0000   0.0000

          k =-0.0417-0.3878 0.0000 (  2806 PWs)   bands (ev):

   -18.3674  -9.6068  -8.2339  -6.6028  -0.2866   2.1602   3.5434   4.2955

     occupation numbers 
     1.0000   1.0000   1.0000   1.0000   0.0000   0.0000   0.0000   0.0000

          k =-0.0417-0.3281 0.0000 (  2794 PWs)   bands (ev):

   -18.8434  -8.8406  -7.6734  -7.1460   0.1084   2.8478   2.8621   3.6610

     occupation numbers 
     1.0000   1.0000   1.0000   1.0000   0.0000   0.0000   0.0000   0.0000

          k =-0.0417-0.2685 0.0000 (  2780 PWs)   bands (ev):

   -19.2447  -8.1339  -7.6060  -7.0748   0.4740   2.2941   2.9590   3.3223

     occupation numbers 
     1.0000   1.0000   1.0000   1.0000   0.0000   0.0000   0.0000   0.0000

          k =-0.0417-0.2088 0.0000 (  2774 PWs)   bands (ev):

   -19.5686  -7.9785  -7.4896  -6.4891   0.7640   1.8398   2.5520   2.8652

     occupation numbers 
     1.0000   1.0000   1.0000   1.0000   0.0000   0.0000   0.0000   0.0000

          k =-0.0417-0.1491 0.0000 (  2761 PWs)   bands (ev):

   -19.8130  -8.2604  -6.9285  -5.9684   0.9550   1.4989   2.2208   2.5216

     occupation numbers 
     1.0000   1.0000   1.0000   1.0000   0.0000   0.0000   0.0000   0.0000

          k =-0.0417-0.0895 0.0000 (  2745 PWs)   bands (ev):

   -19.9766  -8.4494  -6.4990  -5.5652   1.0649   1.2709   1.9970   2.2873

     occupation numbers 
     1.0000   1.0000   1.0000   1.0000   0.0000   0.0000   0.0000   0.0000

          k =-0.0417-0.0298 0.0000 (  2731 PWs)   bands (ev):

   -20.0587  -8.5443  -6.2622  -5.3390   1.1297   1.1559   1.8845   2.0197

     occupation numbers 
     1.0000   1.0000   1.0000   1.0000   0.0000   0.0000   0.0000   0.0000

     the Fermi energy is    -2.5133 ev

!    total energy              =     -36.74741347 Ry
     total all-electron energy =      -152.275608 Ry
     estimated scf accuracy    <          3.0E-09 Ry
     smearing contrib. (-TS)   =       0.00008707 Ry
     internal energy E=F+TS    =     -36.74750053 Ry

     The total energy is F=E-TS. E is the sum of the following terms:
     one-electron contribution =    -128.03350896 Ry
     hartree contribution      =      65.41585373 Ry
     xc contribution           =      -8.88583043 Ry
     ewald contribution        =      47.08118926 Ry
     one-center paw contrib.   =     -12.32520413 Ry
      -> PAW hartree energy AE =       7.46657161 Ry
      -> PAW hartree energy PS =      -7.45877758 Ry
      -> PAW xc energy AE      =     -10.16904414 Ry
      -> PAW xc energy PS      =       3.99864498 Ry
      -> total E_H with PAW    =      65.42364776 Ry
      -> total E_XC with PAW   =     -15.05622958 Ry

     convergence has been achieved in   7 iterations

     negative rho (up, down):  1.933E-03 0.000E+00

     Forces acting on atoms (cartesian axes, Ry/au):

     atom    1 type  1   force =     0.00001027   -0.01187403    0.00000010
     atom    2 type  1   force =    -0.00001027    0.01187403   -0.00000010
     The non-local contrib.  to forces
     atom    1 type  1   force =    -0.00024683    0.22302093   -0.00001174
     atom    2 type  1   force =    -0.00030132   -0.22321554   -0.00001280
     The ionic contribution  to forces
     atom    1 type  1   force =    -0.00049775    1.64957775    0.00000000
     atom    2 type  1   force =     0.00049775   -1.64957775   -0.00000000
     The local contribution  to forces
     atom    1 type  1   force =     0.00070458   -1.87616775    0.00008437
     atom    2 type  1   force =    -0.00009065    1.87642432    0.00008526
     The core correction contribution to forces
     atom    1 type  1   force =    -0.00047553   -0.00871121    0.00000051
     atom    2 type  1   force =    -0.00064200    0.00781097    0.00000055
     The Hubbard contrib.    to forces
     atom    1 type  1   force =     0.00000000    0.00000000    0.00000000
     atom    2 type  1   force =     0.00000000    0.00000000    0.00000000
     The SCF correction term to forces
     atom    1 type  1   force =    -0.00000006   -0.00000228   -0.00000000
     atom    2 type  1   force =     0.00000008    0.00002350   -0.00000000

     Total force =     0.016792     Total SCF correction =     0.000024

     BFGS Geometry Optimization
     Energy error            =      0.0E+00 Ry
     Gradient error          =      1.2E-02 Ry/Bohr

     number of scf cycles    =   1
     number of bfgs steps    =   0

     energy             new  =     -36.7474134660 Ry

     new trust radius        =       0.0118740329 bohr
     new conv_thr            =       0.0000000100 Ry


ATOMIC_POSITIONS (crystal)
C                0.0035647594       -0.0070799375        0.0000000000    1   1   0
C                0.3297682406        0.3404129375        0.0000000000    1   1   0



     Writing config-only to output data dir ./tmp/graphene24.0.save/ :
     XML data file
     NEW-OLD atomic charge density approx. for the potential

     Check: negative core charge=   -0.000012

     negative rho (up, down):  1.939E-03 0.000E+00

     total cpu time spent up to now is       13.9 secs

     per-process dynamical memory:    44.7 Mb

     Self-consistent Calculation

     iteration #  1     ecut=    40.00 Ry     beta= 0.70
     Davidson diagonalization with overlap

---- Real-time Memory Report at c_bands before calling an iterative solver
            87 MiB given to the printing process from OS
            43 MiB allocation reported by mallinfo(arena+hblkhd)
         28591 MiB available memory on the node where the printing process lives
------------------
     ethr =  1.00E-06,  avg # of iterations =  5.5

     negative rho (up, down):  1.941E-03 0.000E+00

     total cpu time spent up to now is       16.3 secs

     total energy              =     -36.74746954 Ry
     estimated scf accuracy    <       0.00006727 Ry

     iteration #  2     ecut=    40.00 Ry     beta= 0.70
     Davidson diagonalization with overlap

---- Real-time Memory Report at c_bands before calling an iterative solver
            87 MiB given to the printing process from OS
            50 MiB allocation reported by mallinfo(arena+hblkhd)
         28607 MiB available memory on the node where the printing process lives
------------------
     ethr =  8.41E-07,  avg # of iterations =  2.0

     negative rho (up, down):  1.939E-03 0.000E+00

     total cpu time spent up to now is       17.6 secs

     total energy              =     -36.74747958 Ry
     estimated scf accuracy    <       0.00000122 Ry

     iteration #  3     ecut=    40.00 Ry     beta= 0.70
     Davidson diagonalization with overlap

---- Real-time Memory Report at c_bands before calling an iterative solver
            87 MiB given to the printing process from OS
            51 MiB allocation reported by mallinfo(arena+hblkhd)
         28600 MiB available memory on the node where the printing process lives
------------------
     ethr =  1.52E-08,  avg # of iterations =  2.0

     negative rho (up, down):  1.939E-03 0.000E+00

     total cpu time spent up to now is       18.8 secs

     total energy              =     -36.74747974 Ry
     estimated scf accuracy    <       0.00000008 Ry

     iteration #  4     ecut=    40.00 Ry     beta= 0.70
     Davidson diagonalization with overlap

---- Real-time Memory Report at c_bands before calling an iterative solver
            87 MiB given to the printing process from OS
            51 MiB allocation reported by mallinfo(arena+hblkhd)
         28607 MiB available memory on the node where the printing process lives
------------------
     ethr =  1.06E-09,  avg # of iterations =  2.1

     negative rho (up, down):  1.939E-03 0.000E+00

     total cpu time spent up to now is       20.1 secs

     total energy              =     -36.74747975 Ry
     estimated scf accuracy    <       0.00000005 Ry

     iteration #  5     ecut=    40.00 Ry     beta= 0.70
     Davidson diagonalization with overlap

---- Real-time Memory Report at c_bands before calling an iterative solver
            87 MiB given to the printing process from OS
            52 MiB allocation reported by mallinfo(arena+hblkhd)
         28629 MiB available memory on the node where the printing process lives
------------------
     ethr =  6.10E-10,  avg # of iterations =  1.3

     negative rho (up, down):  1.939E-03 0.000E+00

     total cpu time spent up to now is       21.3 secs

     End of self-consistent calculation

          k = 0.0000 0.0000 0.0000 (  2729 PWs)   bands (ev):

   -20.0972  -8.5830  -6.2813  -5.0434   1.0079   1.1143   1.7178   1.8381

     occupation numbers 
     1.0000   1.0000   1.0000   1.0000   0.0000   0.0000   0.0000   0.0000

          k = 0.0000 0.0597 0.0000 (  2728 PWs)   bands (ev):

   -20.0564  -8.5354  -6.3781  -5.2052   0.9930   1.1731   1.8946   1.9605

     occupation numbers 
     1.0000   1.0000   1.0000   1.0000   0.0000   0.0000   0.0000   0.0000

          k = 0.0000 0.1193 0.0000 (  2758 PWs)   bands (ev):

   -19.9341  -8.3931  -6.6603  -5.6290   0.9374   1.3441   2.0629   2.3649

     occupation numbers 
     1.0000   1.0000   1.0000   1.0000   0.0000   0.0000   0.0000   0.0000

          k = 0.0000 0.1790 0.0000 (  2772 PWs)   bands (ev):

   -19.7310  -8.1570  -7.1052  -6.1949   0.8060   1.6273   2.3416   2.6503

     occupation numbers 
     1.0000   1.0000   1.0000   1.0000   0.0000   0.0000   0.0000   0.0000

          k = 0.0000 0.2386 0.0000 (  2772 PWs)   bands (ev):

   -19.4482  -7.8287  -7.6856  -6.8067   0.5727   2.0241   2.7221   3.0497

     occupation numbers 
     1.0000   1.0000   1.0000   1.0000   0.0000   0.0000   0.0000   0.0000

          k = 0.0000 0.2983 0.0000 (  2788 PWs)   bands (ev):

   -19.0874  -8.3748  -7.4110  -7.4058   0.2452   2.5349   3.0784   3.5300

     occupation numbers 
     1.0000   1.0000   1.0000   1.0000   0.0000   0.0000   0.0000   0.0000

          k = 0.0000 0.3580 0.0000 (  2812 PWs)   bands (ev):

   -18.6511  -9.1477  -7.9583  -6.9073  -0.1376   2.5869   3.1593   3.9309

     occupation numbers 
     1.0000   1.0000   1.0000   1.0000   0.0000   0.0000   0.0000   0.0000

          k = 0.0000 0.4176 0.0000 (  2808 PWs)   bands (ev):

   -18.1428  -9.9800  -8.4446  -6.3224  -0.5280   1.8407   3.8964   4.6389

     occupation numbers 
     1.0000   1.0000   1.0000   1.0000   0.0000   0.0000   0.0000   0.0000

          k = 0.0000 0.4773 0.0000 (  2802 PWs)   bands (ev):

   -17.5677 -10.8484  -8.8532  -5.6624  -0.8855   1.0377   4.7449   5.4650

     occupation numbers 
     1.0000   1.0000   1.0000   1.0000   0.0000   0.0000   0.0000   0.0000

          k = 0.0000 0.5369 0.0000 (  2816 PWs)   bands (ev):

   -16.9347 -11.7281  -9.1767  -4.9358  -1.1830   0.1970   5.7026   6.3888

     occupation numbers 
     1.0000   1.0000   1.0000   1.0000   0.0000   0.0000   0.0000   0.0000

          k = 0.0000 0.5966 0.0000 (  2808 PWs)   bands (ev):

   -16.2620 -12.5871  -9.4104  -4.1532  -1.4038  -0.6682   6.7648   7.3840

     occupation numbers 
     1.0000   1.0000   1.0000   1.0000   0.0000   0.0000   0.0000   0.0000

          k = 0.0000 0.6563 0.0000 (  2800 PWs)   bands (ev):

   -15.6065 -13.3585  -9.5517  -3.3319  -1.5400  -1.5390   7.9214   8.3666

     occupation numbers 
     1.0000   1.0000   1.0000   1.0010   0.0000   0.0000   0.0000   0.0000

          k = 0.0000-0.7159 0.0000 (  2794 PWs)   bands (ev):

   -15.2419 -13.7625  -9.5989  -2.6452  -2.2436  -1.5846   8.9242   9.0378

     occupation numbers 
     1.0000   1.0000   1.0000   0.8089   0.0397   0.0000   0.0000   0.0000

          k = 0.0000-0.6563 0.0000 (  2800 PWs)   bands (ev):

   -15.6065 -13.3585  -9.5517  -3.3319  -1.5400  -1.5390   7.9214   8.3665

     occupation numbers 
     1.0000   1.0000   1.0000   1.0010   0.0000   0.0000   0.0000   0.0000

          k = 0.0000-0.5966 0.0000 (  2808 PWs)   bands (ev):

   -16.2620 -12.5871  -9.4104  -4.1532  -1.4038  -0.6682   6.7648   7.8345

     occupation numbers 
     1.0000   1.0000   1.0000   1.0000   0.0000   0.0000   0.0000   0.0000

          k = 0.0000-0.5369 0.0000 (  2816 PWs)   bands (ev):

   -16.9347 -11.7281  -9.1767  -4.9358  -1.1830   0.1970   5.7026   6.3891

     occupation numbers 
     1.0000   1.0000   1.0000   1.0000   0.0000   0.0000   0.0000   0.0000

          k = 0.0000-0.4773 0.0000 (  2802 PWs)   bands (ev):

   -17.5677 -10.8484  -8.8532  -5.6624  -0.8855   1.0377   4.7449   5.7888

     occupation numbers 
     1.0000   1.0000   1.0000   1.0000   0.0000   0.0000   0.0000   0.0000

          k = 0.0000-0.4176 0.0000 (  2808 PWs)   bands (ev):

   -18.1428  -9.9800  -8.4446  -6.3224  -0.5280   1.8407   3.8964   4.6389

     occupation numbers 
     1.0000   1.0000   1.0000   1.0000   0.0000   0.0000   0.0000   0.0000

          k = 0.0000-0.3580 0.0000 (  2812 PWs)   bands (ev):

   -18.6511  -9.1477  -7.9583  -6.9073  -0.1376   2.5869   3.1592   3.9304

     occupation numbers 
     1.0000   1.0000   1.0000   1.0000   0.0000   0.0000   0.0000   0.0000

          k = 0.0000-0.2983 0.0000 (  2788 PWs)   bands (ev):

   -19.0874  -8.3748  -7.4110  -7.4058   0.2452   2.5349   3.0784   3.5302

     occupation numbers 
     1.0000   1.0000   1.0000   1.0000   0.0000   0.0000   0.0000   0.0000

          k = 0.0000-0.2386 0.0000 (  2772 PWs)   bands (ev):

   -19.4482  -7.8287  -7.6856  -6.8067   0.5727   2.0241   2.7221   3.0497

     occupation numbers 
     1.0000   1.0000   1.0000   1.0000   0.0000   0.0000   0.0000   0.0000

          k = 0.0000-0.1790 0.0000 (  2772 PWs)   bands (ev):

   -19.7310  -8.1570  -7.1052  -6.1949   0.8060   1.6273   2.3416   2.6503

     occupation numbers 
     1.0000   1.0000   1.0000   1.0000   0.0000   0.0000   0.0000   0.0000

          k = 0.0000-0.1193 0.0000 (  2758 PWs)   bands (ev):

   -19.9341  -8.3931  -6.6603  -5.6290   0.9374   1.3441   2.0629   2.3649

     occupation numbers 
     1.0000   1.0000   1.0000   1.0000   0.0000   0.0000   0.0000   0.0000

          k = 0.0000-0.0597 0.0000 (  2728 PWs)   bands (ev):

   -20.0564  -8.5354  -6.3781  -5.2052   0.9930   1.1731   1.8944   1.9605

     occupation numbers 
     1.0000   1.0000   1.0000   1.0000   0.0000   0.0000   0.0000   0.0000

          k = 0.0417-0.0298 0.0000 (  2731 PWs)   bands (ev):

   -20.0674  -8.5491  -6.3719  -5.1991   1.1423   1.1550   1.8453   1.8798

     occupation numbers 
     1.0000   1.0000   1.0000   1.0000   0.0000   0.0000   0.0000   0.0000

          k = 0.0417 0.0298 0.0000 (  2731 PWs)   bands (ev):

   -20.0674  -8.5491  -6.3725  -5.1984   1.1418   1.1548   1.8461   1.8801

     occupation numbers 
     1.0000   1.0000   1.0000   1.0000   0.0000   0.0000   0.0000   0.0000

          k = 0.0417 0.0895 0.0000 (  2745 PWs)   bands (ev):

   -19.9858  -8.4542  -6.5957  -5.4488   1.0744   1.2698   1.9921   2.2676

     occupation numbers 
     1.0000   1.0000   1.0000   1.0000   0.0000   0.0000   0.0000   0.0000

          k = 0.0417 0.1491 0.0000 (  2761 PWs)   bands (ev):

   -19.8231  -8.2651  -7.0072  -5.8830   0.9709   1.4981   2.2158   2.5194

     occupation numbers 
     1.0000   1.0000   1.0000   1.0000   0.0000   0.0000   0.0000   0.0000

          k = 0.0417 0.2088 0.0000 (  2774 PWs)   bands (ev):

   -19.5802  -7.9831  -7.5547  -6.4266   0.7913   1.8388   2.5464   2.8631

     occupation numbers 
     1.0000   1.0000   1.0000   1.0000   0.0000   0.0000   0.0000   0.0000

          k = 0.0417 0.2685 0.0000 (  2780 PWs)   bands (ev):

   -19.2585  -8.1924  -7.6105  -7.0232   0.5145   2.2929   2.9526   3.3200

     occupation numbers 
     1.0000   1.0000   1.0000   1.0000   0.0000   0.0000   0.0000   0.0000

          k = 0.0417 0.3281 0.0000 (  2794 PWs)   bands (ev):

   -18.8601  -8.8961  -7.6244  -7.1501   0.1610   2.8606   2.8631   3.6664

     occupation numbers 
     1.0000   1.0000   1.0000   1.0000   0.0000   0.0000   0.0000   0.0000

          k = 0.0417 0.3878 0.0000 (  2806 PWs)   bands (ev):

   -18.3880  -9.6583  -8.1851  -6.6064  -0.2247   2.1739   3.5415   4.2955

     occupation numbers 
     1.0000   1.0000   1.0000   1.0000   0.0000   0.0000   0.0000   0.0000

          k = 0.0417 0.4474 0.0000 (  2804 PWs)   bands (ev):

   -17.8466 -10.4719  -8.6718  -5.9847  -0.5974   1.4030   4.3344   5.0661

     occupation numbers 
     1.0000   1.0000   1.0000   1.0000   0.0000   0.0000   0.0000   0.0000

          k = 0.0417 0.5071 0.0000 (  2812 PWs)   bands (ev):

   -17.2427 -11.3195  -9.0671  -5.2923  -0.9233   0.5883   5.2378   5.9420

     occupation numbers 
     1.0000   1.0000   1.0000   1.0000   0.0000   0.0000   0.0000   0.0000

          k = 0.0417 0.5668 0.0000 (  2802 PWs)   bands (ev):

   -16.5890 -12.1731  -9.3650  -4.5385  -1.1807  -0.2576   6.2482   6.9027

     occupation numbers 
     1.0000   1.0000   1.0000   1.0000   0.0000   0.0000   0.0000   0.0000

          k = 0.0417 0.6264 0.0000 (  2801 PWs)   bands (ev):

   -15.9165 -12.9874  -9.5638  -3.7362  -1.3575  -1.1220   7.3590   7.8982

     occupation numbers 
     1.0000   1.0000   1.0000   1.0000   0.0000   0.0000   0.0000   0.0000

          k = 0.0417-0.7457 0.0000 (  2790 PWs)   bands (ev):

   -15.3491 -13.6283  -9.6632  -2.9132  -1.9763  -1.4470   8.5503   8.7235

     occupation numbers 
     1.0000   1.0000   1.0000   1.0796   0.0006   0.0000   0.0000   0.0000

          k = 0.0417-0.6861 0.0000 (  2790 PWs)   bands (ev):

   -15.3491 -13.6282  -9.6633  -2.9133  -1.9761  -1.4470   8.5503   8.7234

     occupation numbers 
     1.0000   1.0000   1.0000   1.0796   0.0006   0.0000   0.0000   0.0000

          k = 0.0417-0.6264 0.0000 (  2801 PWs)   bands (ev):

   -15.9166 -12.9872  -9.5641  -3.7364  -1.3574  -1.1217   7.3590   7.8981

     occupation numbers 
     1.0000   1.0000   1.0000   1.0000   0.0000   0.0000   0.0000   0.0000

          k = 0.0417-0.5668 0.0000 (  2802 PWs)   bands (ev):

   -16.5890 -12.1727  -9.3655  -4.5387  -1.1806  -0.2573   6.2482   6.9027

     occupation numbers 
     1.0000   1.0000   1.0000   1.0000   0.0000   0.0000   0.0000   0.0000

          k = 0.0417-0.5071 0.0000 (  2812 PWs)   bands (ev):

   -17.2427 -11.3188  -9.0679  -5.2924  -0.9231   0.5886   5.2378   5.9419

     occupation numbers 
     1.0000   1.0000   1.0000   1.0000   0.0000   0.0000   0.0000   0.0000

          k = 0.0417-0.4474 0.0000 (  2804 PWs)   bands (ev):

   -17.8466 -10.4709  -8.6730  -5.9848  -0.5971   1.4033   4.3344   5.3734

     occupation numbers 
     1.0000   1.0000   1.0000   1.0000   0.0000   0.0000   0.0000   0.0000

          k = 0.0417-0.3878 0.0000 (  2806 PWs)   bands (ev):

   -18.3880  -9.6569  -8.1868  -6.6065  -0.2243   2.1741   3.5415   4.2955

     occupation numbers 
     1.0000   1.0000   1.0000   1.0000   0.0000   0.0000   0.0000   0.0000

          k = 0.0417-0.3281 0.0000 (  2794 PWs)   bands (ev):

   -18.8601  -8.8943  -7.6266  -7.1502   0.1615   2.8606   2.8633   3.6664

     occupation numbers 
     1.0000   1.0000   1.0000   1.0000   0.0000   0.0000   0.0000   0.0000

          k = 0.0417-0.2685 0.0000 (  2780 PWs)   bands (ev):

   -19.2585  -8.1903  -7.6105  -7.0257   0.5151   2.2929   2.9525   3.3200

     occupation numbers 
     1.0000   1.0000   1.0000   1.0000   0.0000   0.0000   0.0000   0.0000

          k = 0.0417-0.2088 0.0000 (  2774 PWs)   bands (ev):

   -19.5802  -7.9832  -7.5525  -6.4293   0.7921   1.8388   2.5464   2.8631

     occupation numbers 
     1.0000   1.0000   1.0000   1.0000   0.0000   0.0000   0.0000   0.0000

          k = 0.0417-0.1491 0.0000 (  2761 PWs)   bands (ev):

   -19.8231  -8.2651  -7.0051  -5.8856   0.9719   1.4981   2.2158   2.5194

     occupation numbers 
     1.0000   1.0000   1.0000   1.0000   0.0000   0.0000   0.0000   0.0000

          k = 0.0417-0.0895 0.0000 (  2745 PWs)   bands (ev):

   -19.9858  -8.4542  -6.5942  -5.4507   1.0756   1.2698   1.9921   2.2674

     occupation numbers 
     1.0000   1.0000   1.0000   1.0000   0.0000   0.0000   0.0000   0.0000

          k = 0.0833-0.0597 0.0000 (  2732 PWs)   bands (ev):

   -19.9779  -8.4478  -6.6846  -5.5472   1.2738   1.4369   2.0045   2.2150

     occupation numbers 
     1.0000   1.0000   1.0000   1.0000   0.0000   0.0000   0.0000   0.0000

          k = 0.0833-0.0000 0.0000 (  2733 PWs)   bands (ev):

   -20.0186  -8.4950  -6.5230  -5.4984   1.2150   1.5694   1.9484   1.9489

     occupation numbers 
     1.0000   1.0000   1.0000   1.0000   0.0000   0.0000   0.0000   0.0000

          k = 0.0833 0.0597 0.0000 (  2732 PWs)   bands (ev):

   -19.9779  -8.4477  -6.6865  -5.5448   1.2737   1.4348   2.0045   2.2160

     occupation numbers 
     1.0000   1.0000   1.0000   1.0000   0.0000   0.0000   0.0000   0.0000

          k = 0.0833 0.1193 0.0000 (  2746 PWs)   bands (ev):

   -19.8560  -8.3063  -7.1011  -5.7291   1.2859   1.4489   2.1720   2.4655

     occupation numbers 
     1.0000   1.0000   1.0000   1.0000   0.0000   0.0000   0.0000   0.0000

          k = 0.0833 0.1790 0.0000 (  2769 PWs)   bands (ev):

   -19.6537  -8.0718  -7.6528  -6.0847   1.1385   1.7356   2.4478   2.7585

     occupation numbers 
     1.0000   1.0000   1.0000   1.0000   0.0000   0.0000   0.0000   0.0000

          k = 0.0833 0.2386 0.0000 (  2778 PWs)   bands (ev):

   -19.3720  -8.2697  -7.7459  -6.5863   0.9266   2.1343   2.8153   3.1603

     occupation numbers 
     1.0000   1.0000   1.0000   1.0000   0.0000   0.0000   0.0000   0.0000

          k = 0.0833 0.2983 0.0000 (  2781 PWs)   bands (ev):

   -19.0129  -8.9169  -7.3314  -7.1827   0.6300   2.6457   2.9747   3.5198

     occupation numbers 
     1.0000   1.0000   1.0000   1.0000   0.0000   0.0000   0.0000   0.0000

          k = 0.0833 0.3580 0.0000 (  2804 PWs)   bands (ev):

   -18.5792  -9.5864  -7.8147  -6.8321   0.2756   2.3831   3.2701   4.0384

     occupation numbers 
     1.0000   1.0000   1.0000   1.0000   0.0000   0.0000   0.0000   0.0000

          k = 0.0833 0.4176 0.0000 (  2806 PWs)   bands (ev):

   -18.0745 -10.2872  -8.4208  -6.2530  -0.0913   1.6605   4.0070   4.7497

     occupation numbers 
     1.0000   1.0000   1.0000   1.0000   0.0000   0.0000   0.0000   0.0000

          k = 0.0833 0.4773 0.0000 (  2804 PWs)   bands (ev):

   -17.5049 -11.0307  -8.9473  -5.6007  -0.4303   0.8902   4.8550   5.8998

     occupation numbers 
     1.0000   1.0000   1.0000   1.0000   0.0000   0.0000   0.0000   0.0000

          k = 0.0833 0.5369 0.0000 (  2800 PWs)   bands (ev):

   -16.8803 -11.8121  -9.3621  -4.8836  -0.7138   0.0847   5.8118   6.4877

     occupation numbers 
     1.0000   1.0000   1.0000   1.0000   0.0000   0.0000   0.0000   0.0000

          k = 0.0833 0.5966 0.0000 (  2802 PWs)   bands (ev):

   -16.2212 -12.6000  -9.6556  -4.1123  -0.9249  -0.7475   6.8723   7.4550

     occupation numbers 
     1.0000   1.0000   1.0000   1.0000   0.0000   0.0000   0.0000   0.0000

          k = 0.0833-0.7756 0.0000 (  2794 PWs)   bands (ev):

   -15.5899 -13.3164  -9.8295  -3.3011  -1.5947  -1.0544   8.0249   8.3324

     occupation numbers 
     1.0000   1.0000   1.0000   1.0017   0.0000   0.0000   0.0000   0.0000

          k = 0.0833-0.7159 0.0000 (  2798 PWs)   bands (ev):

   -15.2513 -13.6846  -9.8871  -2.5533  -2.3545  -1.0980   8.7114   9.1272

     occupation numbers 
     1.0000   1.0000   1.0000   0.5628   0.1343   0.0000   0.0000   0.0000

          k = 0.0833-0.6563 0.0000 (  2794 PWs)   bands (ev):

   -15.5900 -13.3159  -9.8298  -3.3014  -1.5942  -1.0543   8.0250   8.3322

     occupation numbers 
     1.0000   1.0000   1.0000   1.0017   0.0000   0.0000   0.0000   0.0000

          k = 0.0833-0.5966 0.0000 (  2802 PWs)   bands (ev):

   -16.2214 -12.5993  -9.6563  -4.1126  -0.9247  -0.7470   6.8723   7.4549

     occupation numbers 
     1.0000   1.0000   1.0000   1.0000   0.0000   0.0000   0.0000   0.0000

          k = 0.0833-0.5369 0.0000 (  2800 PWs)   bands (ev):

   -16.8803 -11.8110  -9.3633  -4.8838  -0.7135   0.0852   5.8118   6.4876

     occupation numbers 
     1.0000   1.0000   1.0000   1.0000   0.0000   0.0000   0.0000   0.0000

          k = 0.0833-0.4773 0.0000 (  2804 PWs)   bands (ev):

   -17.5050 -11.0292  -8.9491  -5.6009  -0.4299   0.8908   4.8551   5.5727

     occupation numbers 
     1.0000   1.0000   1.0000   1.0000   0.0000   0.0000   0.0000   0.0000

          k = 0.0833-0.4176 0.0000 (  2806 PWs)   bands (ev):

   -18.0746 -10.2852  -8.4232  -6.2532  -0.0907   1.6610   4.0070   4.7496

     occupation numbers 
     1.0000   1.0000   1.0000   1.0000   0.0000   0.0000   0.0000   0.0000

          k = 0.0833-0.3580 0.0000 (  2804 PWs)   bands (ev):

   -18.5792  -9.5841  -7.8176  -6.8323   0.2764   2.3836   3.2701   4.0384

     occupation numbers 
     1.0000   1.0000   1.0000   1.0000   0.0000   0.0000   0.0000   0.0000

          k = 0.0833-0.2983 0.0000 (  2781 PWs)   bands (ev):

   -19.0130  -8.9143  -7.3315  -7.1860   0.6310   2.6458   2.9750   3.5199

     occupation numbers 
     1.0000   1.0000   1.0000   1.0000   0.0000   0.0000   0.0000   0.0000

          k = 0.0833-0.2386 0.0000 (  2778 PWs)   bands (ev):

   -19.3720  -8.2669  -7.7460  -6.5899   0.9280   2.1343   2.8153   3.1603

     occupation numbers 
     1.0000   1.0000   1.0000   1.0000   0.0000   0.0000   0.0000   0.0000

          k = 0.0833-0.1790 0.0000 (  2769 PWs)   bands (ev):

   -19.6537  -8.0718  -7.6499  -6.0884   1.1403   1.7356   2.4478   2.7584

     occupation numbers 
     1.0000   1.0000   1.0000   1.0000   0.0000   0.0000   0.0000   0.0000

          k = 0.0833-0.1193 0.0000 (  2746 PWs)   bands (ev):

   -19.8560  -8.3063  -7.0984  -5.7326   1.2881   1.4488   2.1720   2.4653

     occupation numbers 
     1.0000   1.0000   1.0000   1.0000   0.0000   0.0000   0.0000   0.0000

          k = 0.1250-0.0895 0.0000 (  2750 PWs)   bands (ev):

   -19.8295  -8.2803  -7.2749  -5.8817   1.4763   1.7576   2.2111   2.4978

     occupation numbers 
     1.0000   1.0000   1.0000   1.0000   0.0000   0.0000   0.0000   0.0000

          k = 0.1250-0.0298 0.0000 (  2735 PWs)   bands (ev):

   -19.9105  -8.3738  -6.8672  -5.9518   1.3603   2.0190   2.1002   2.3295

     occupation numbers 
     1.0000   1.0000   1.0000   1.0000   0.0000   0.0000   0.0000   0.0000

          k = 0.1250 0.0298 0.0000 (  2735 PWs)   bands (ev):

   -19.9105  -8.3738  -6.8688  -5.9499   1.3603   2.0163   2.1002   2.3302

     occupation numbers 
     1.0000   1.0000   1.0000   1.0000   0.0000   0.0000   0.0000   0.0000

          k = 0.1250 0.0895 0.0000 (  2750 PWs)   bands (ev):

   -19.8295  -8.2802  -7.2778  -5.8782   1.4762   1.7550   2.2111   2.4980

     occupation numbers 
     1.0000   1.0000   1.0000   1.0000   0.0000   0.0000   0.0000   0.0000

          k = 0.1250 0.1491 0.0000 (  2752 PWs)   bands (ev):

   -19.6680  -8.0936  -7.8444  -5.9673   1.5711   1.7174   2.4305   2.7354

     occupation numbers 
     1.0000   1.0000   1.0000   1.0000   0.0000   0.0000   0.0000   0.0000

          k = 0.1250 0.2088 0.0000 (  2765 PWs)   bands (ev):

   -19.4271  -8.4633  -7.8157  -6.2735   1.4156   2.0582   2.7443   3.0829

     occupation numbers 
     1.0000   1.0000   1.0000   1.0000   0.0000   0.0000   0.0000   0.0000

          k = 0.1250 0.2685 0.0000 (  2771 PWs)   bands (ev):

   -19.1084  -9.0920  -7.4488  -6.7643   1.1995   2.5142   2.9577   3.4580

     occupation numbers 
     1.0000   1.0000   1.0000   1.0000   0.0000   0.0000   0.0000   0.0000

          k = 0.1250 0.3281 0.0000 (  2791 PWs)   bands (ev):

   -18.7144  -9.7135  -7.3788  -6.9965   0.9083   2.4658   3.0825   3.8660

     occupation numbers 
     1.0000   1.0000   1.0000   1.0000   0.0000   0.0000   0.0000   0.0000

          k = 0.1250 0.3878 0.0000 (  2798 PWs)   bands (ev):

   -18.2487 -10.3276  -8.0491  -6.4635   0.5741   1.7978   3.7630   4.5169

     occupation numbers 
     1.0000   1.0000   1.0000   1.0000   0.0000   0.0000   0.0000   0.0000

          k = 0.1250 0.4474 0.0000 (  2806 PWs)   bands (ev):

   -17.7168 -10.9487  -8.7057  -5.8559   0.2411   1.0832   4.5552   5.2855

     occupation numbers 
     1.0000   1.0000   1.0000   1.0000   0.0000   0.0000   0.0000   0.0000

          k = 0.1250 0.5071 0.0000 (  2797 PWs)   bands (ev):

   -17.1273 -11.5980  -9.2816  -5.1818  -0.0550   0.3354   5.4570   6.1508

     occupation numbers 
     1.0000   1.0000   1.0000   1.0000   0.0000   0.0000   0.0000   0.0000

          k = 0.1250 0.5668 0.0000 (  2794 PWs)   bands (ev):

   -16.4965 -12.2819  -9.7272  -4.4516  -0.4412  -0.2913   6.4649   7.0784

     occupation numbers 
     1.0000   1.0000   1.0000   1.0000   0.0000   0.0000   0.0000   0.0000

          k = 0.1250-0.8054 0.0000 (  2798 PWs)   bands (ev):

   -15.8629 -12.9630 -10.0223  -3.6776  -1.2418  -0.4545   7.5704   7.9476

     occupation numbers 
     1.0000   1.0000   1.0000   1.0000   0.0000   0.0000   0.0000   0.0000

          k = 0.1250-0.7457 0.0000 (  2793 PWs)   bands (ev):

   -15.3585 -13.4965 -10.1675  -2.8749  -2.0565  -0.5374   8.4250   8.7477

     occupation numbers 
     1.0000   1.0000   1.0000   1.0833   0.0025   0.0000   0.0000   0.0000

          k = 0.1250-0.6861 0.0000 (  2793 PWs)   bands (ev):

   -15.3587 -13.4961 -10.1678  -2.8754  -2.0559  -0.5374   8.4248   8.7478

     occupation numbers 
     1.0000   1.0000   1.0000   1.0833   0.0024   0.0000   0.0000   0.0000

          k = 0.1250-0.6264 0.0000 (  2798 PWs)   bands (ev):

   -15.8631 -12.9621 -10.0232  -3.6781  -1.2411  -0.4543   7.5705   7.9473

     occupation numbers 
     1.0000   1.0000   1.0000   1.0000   0.0000   0.0000   0.0000   0.0000

          k = 0.1250-0.5668 0.0000 (  2794 PWs)   bands (ev):

   -16.4966 -12.2805  -9.7287  -4.4520  -0.4404  -0.2910   6.4649   7.0783

     occupation numbers 
     1.0000   1.0000   1.0000   1.0000   0.0000   0.0000   0.0000   0.0000

          k = 0.1250-0.5071 0.0000 (  2797 PWs)   bands (ev):

   -17.1274 -11.5962  -9.2837  -5.1822  -0.0545   0.3362   5.4571   6.1508

     occupation numbers 
     1.0000   1.0000   1.0000   1.0000   0.0000   0.0000   0.0000   0.0000

          k = 0.1250-0.4474 0.0000 (  2806 PWs)   bands (ev):

   -17.7168 -10.9465  -8.7083  -5.8562   0.2418   1.0841   4.5552   5.2855

     occupation numbers 
     1.0000   1.0000   1.0000   1.0000   0.0000   0.0000   0.0000   0.0000

          k = 0.1250-0.3878 0.0000 (  2798 PWs)   bands (ev):

   -18.2487 -10.3251  -8.0522  -6.4637   0.5751   1.7986   3.7630   4.5168

     occupation numbers 
     1.0000   1.0000   1.0000   1.0000   0.0000   0.0000   0.0000   0.0000

          k = 0.1250-0.3281 0.0000 (  2791 PWs)   bands (ev):

   -18.7144  -9.7109  -7.3822  -6.9967   0.9096   2.4665   3.0825   3.8661

     occupation numbers 
     1.0000   1.0000   1.0000   1.0000   0.0000   0.0000   0.0000   0.0000

          k = 0.1250-0.2685 0.0000 (  2771 PWs)   bands (ev):

   -19.1084  -9.0893  -7.4490  -6.7680   1.2012   2.5142   2.9579   3.4584

     occupation numbers 
     1.0000   1.0000   1.0000   1.0000   0.0000   0.0000   0.0000   0.0000

          k = 0.1250-0.2088 0.0000 (  2765 PWs)   bands (ev):

   -19.4271  -8.4605  -7.8158  -6.2774   1.4179   2.0582   2.7443   3.0829

     occupation numbers 
     1.0000   1.0000   1.0000   1.0000   0.0000   0.0000   0.0000   0.0000

          k = 0.1250-0.1491 0.0000 (  2752 PWs)   bands (ev):

   -19.6680  -8.0937  -7.8415  -5.9712   1.5737   1.7173   2.4305   2.7353

     occupation numbers 
     1.0000   1.0000   1.0000   1.0000   0.0000   0.0000   0.0000   0.0000

          k = 0.1667-0.1193 0.0000 (  2756 PWs)   bands (ev):

   -19.6234  -8.0712  -8.0487  -6.1490   1.7607   2.0891   2.4955   2.8047

     occupation numbers 
     1.0000   1.0000   1.0000   1.0000   0.0000   0.0000   0.0000   0.0000

          k = 0.1667-0.0597 0.0000 (  2758 PWs)   bands (ev):

   -19.7439  -8.1871  -7.4877  -6.3316   1.5902   2.3193   2.3336   2.6559

     occupation numbers 
     1.0000   1.0000   1.0000   1.0000   0.0000   0.0000   0.0000   0.0000

          k = 0.1667-0.0000 0.0000 (  2763 PWs)   bands (ev):

   -19.7841  -8.2334  -7.1554  -6.5324   1.5325   2.2789   2.4516   2.7422

     occupation numbers 
     1.0000   1.0000   1.0000   1.0000   0.0000   0.0000   0.0000   0.0000

          k = 0.1667 0.0597 0.0000 (  2758 PWs)   bands (ev):

   -19.7439  -8.1871  -7.4904  -6.3283   1.5902   2.3170   2.3336   2.6558

     occupation numbers 
     1.0000   1.0000   1.0000   1.0000   0.0000   0.0000   0.0000   0.0000

          k = 0.1667 0.1193 0.0000 (  2756 PWs)   bands (ev):

   -19.6234  -8.0740  -8.0486  -6.1453   1.7605   2.0864   2.4955   2.8048

     occupation numbers 
     1.0000   1.0000   1.0000   1.0000   0.0000   0.0000   0.0000   0.0000

          k = 0.1667 0.1790 0.0000 (  2750 PWs)   bands (ev):

   -19.4235  -8.7060  -7.8192  -6.1881   1.9000   2.0755   2.7490   3.0898

     occupation numbers 
     1.0000   1.0000   1.0000   1.0000   0.0000   0.0000   0.0000   0.0000

          k = 0.1667 0.2386 0.0000 (  2763 PWs)   bands (ev):

   -19.1458  -9.3373  -7.5012  -6.4792   1.7737   2.4659   2.8980   3.4117

     occupation numbers 
     1.0000   1.0000   1.0000   1.0000   0.0000   0.0000   0.0000   0.0000

          k = 0.1667 0.2983 0.0000 (  2774 PWs)   bands (ev):

   -18.7927  -9.9459  -7.0978  -6.9781   1.5832   2.4387   2.9781   3.7724

     occupation numbers 
     1.0000   1.0000   1.0000   1.0000   0.0000   0.0000   0.0000   0.0000

          k = 0.1667 0.3580 0.0000 (  2783 PWs)   bands (ev):

   -18.3675 -10.5224  -7.6174  -6.6134   1.3210   1.8194   3.6026   4.3666

     occupation numbers 
     1.0000   1.0000   1.0000   1.0000   0.0000   0.0000   0.0000   0.0000

          k = 0.1667 0.4176 0.0000 (  2798 PWs)   bands (ev):

   -17.8758 -11.0690  -8.3248  -6.0545   1.0229   1.1617   4.3386   5.0813

     occupation numbers 
     1.0000   1.0000   1.0000   1.0000   0.0000   0.0000   0.0000   0.0000

          k = 0.1667 0.4773 0.0000 (  2798 PWs)   bands (ev):

   -17.3256 -11.5990  -9.0268  -5.4292   0.4799   0.7331   5.1849   5.8963

     occupation numbers 
     1.0000   1.0000   1.0000   1.0000   0.0000   0.0000   0.0000   0.0000

          k = 0.1667 0.5369 0.0000 (  2806 PWs)   bands (ev):

   -16.7316 -12.1347  -9.6495  -4.7481  -0.2244   0.4840   6.1386   6.7820

     occupation numbers 
     1.0000   1.0000   1.0000   1.0000   0.0000   0.0000   0.0000   0.0000

          k = 0.1667-0.8352 0.0000 (  2800 PWs)   bands (ev):

   -16.1230 -12.6868 -10.1262  -4.0251  -0.9507   0.2957   7.1933   7.6332

     occupation numbers 
     1.0000   1.0000   1.0000   1.0000   0.0000   0.0000   0.0000   0.0000

          k = 0.1667-0.7756 0.0000 (  2795 PWs)   bands (ev):

   -15.5766 -13.2005 -10.4176  -3.2816  -1.6904   0.1793   8.1214   8.3325

     occupation numbers 
     1.0000   1.0000   1.0000   1.0023   0.0000   0.0000   0.0000   0.0000

          k = 0.1667-0.7159 0.0000 (  2786 PWs)   bands (ev):

   -15.3163 -13.4511 -10.5146  -2.6909  -2.2789   0.1400   8.2059   9.3863

     occupation numbers 
     1.0000   1.0000   1.0000   0.9113   0.0605   0.0000   0.0000   0.0000

          k = 0.1667-0.6563 0.0000 (  2795 PWs)   bands (ev):

   -15.5769 -13.1995 -10.4184  -3.2824  -1.6895   0.1794   8.1209   8.3326

     occupation numbers 
     1.0000   1.0000   1.0000   1.0023   0.0000   0.0000   0.0000   0.0000

          k = 0.1667-0.5966 0.0000 (  2800 PWs)   bands (ev):

   -16.1233 -12.6852 -10.1278  -4.0257  -0.9497   0.2961   7.1934   7.6329

     occupation numbers 
     1.0000   1.0000   1.0000   1.0000   0.0000   0.0000   0.0000   0.0000

          k = 0.1667-0.5369 0.0000 (  2806 PWs)   bands (ev):

   -16.7318 -12.1326  -9.6517  -4.7486  -0.2234   0.4846   6.1386   6.7819

     occupation numbers 
     1.0000   1.0000   1.0000   1.0000   0.0000   0.0000   0.0000   0.0000

          k = 0.1667-0.4773 0.0000 (  2798 PWs)   bands (ev):

   -17.3258 -11.5967  -9.0295  -5.4297   0.4810   0.7339   5.1849   5.8963

     occupation numbers 
     1.0000   1.0000   1.0000   1.0000   0.0000   0.0000   0.0000   0.0000

          k = 0.1667-0.4176 0.0000 (  2798 PWs)   bands (ev):

   -17.8758 -11.0665  -8.3278  -6.0549   1.0240   1.1627   4.3386   5.3780

     occupation numbers 
     1.0000   1.0000   1.0000   1.0000   0.0000   0.0000   0.0000   0.0000

          k = 0.1667-0.3580 0.0000 (  2783 PWs)   bands (ev):

   -18.3676 -10.5200  -7.6207  -6.6137   1.3225   1.8204   3.6026   4.3667

     occupation numbers 
     1.0000   1.0000   1.0000   1.0000   0.0000   0.0000   0.0000   0.0000

          k = 0.1667-0.2983 0.0000 (  2774 PWs)   bands (ev):

   -18.7927  -9.9434  -7.0980  -6.9816   1.5852   2.4395   2.9781   3.7725

     occupation numbers 
     1.0000   1.0000   1.0000   1.0000   0.0000   0.0000   0.0000   0.0000

          k = 0.1667-0.2386 0.0000 (  2763 PWs)   bands (ev):

   -19.1459  -9.3347  -7.5014  -6.4829   1.7762   2.4659   2.8983   3.4121

     occupation numbers 
     1.0000   1.0000   1.0000   1.0000   0.0000   0.0000   0.0000   0.0000

          k = 0.1667-0.1790 0.0000 (  2750 PWs)   bands (ev):

   -19.4235  -8.7033  -7.8194  -6.1919   1.9028   2.0756   2.7489   3.0897

     occupation numbers 
     1.0000   1.0000   1.0000   1.0000   0.0000   0.0000   0.0000   0.0000

          k = 0.2083-0.1491 0.0000 (  2748 PWs)   bands (ev):

   -19.3615  -8.9598  -7.7565  -6.3797   2.1217   2.4245   2.8261   3.1908

     occupation numbers 
     1.0000   1.0000   1.0000   1.0000   0.0000   0.0000   0.0000   0.0000

          k = 0.2083-0.0895 0.0000 (  2750 PWs)   bands (ev):

   -19.5202  -8.3091  -7.9372  -6.6044   1.9028   2.6198   2.6430   2.9969

     occupation numbers 
     1.0000   1.0000   1.0000   1.0000   0.0000   0.0000   0.0000   0.0000

          k = 0.2083-0.0298 0.0000 (  2757 PWs)   bands (ev):

   -19.5998  -8.0280  -7.7141  -6.9989   1.7895   2.5393   2.7279   3.0694

     occupation numbers 
     1.0000   1.0000   1.0000   1.0000   0.0000   0.0000   0.0000   0.0000

          k = 0.2083 0.0298 0.0000 (  2757 PWs)   bands (ev):

   -19.5998  -8.0280  -7.7165  -6.9963   1.7895   2.5393   2.7275   3.0684

     occupation numbers 
     1.0000   1.0000   1.0000   1.0000   0.0000   0.0000   0.0000   0.0000

          k = 0.2083 0.0895 0.0000 (  2750 PWs)   bands (ev):

   -19.5202  -8.3118  -7.9371  -6.6010   1.9027   2.6178   2.6431   2.9967

     occupation numbers 
     1.0000   1.0000   1.0000   1.0000   0.0000   0.0000   0.0000   0.0000

          k = 0.2083 0.1491 0.0000 (  2748 PWs)   bands (ev):

   -19.3615  -8.9624  -7.7564  -6.3762   2.1213   2.4222   2.8262   3.1909

     occupation numbers 
     1.0000   1.0000   1.0000   1.0000   0.0000   0.0000   0.0000   0.0000

          k = 0.2083 0.2088 0.0000 (  2756 PWs)   bands (ev):

   -19.1253  -9.6073  -7.4879  -6.4057   2.2480   2.5144   2.8117   3.3869

     occupation numbers 
     1.0000   1.0000   1.0000   1.0000   0.0000   0.0000   0.0000   0.0000

          k = 0.2083 0.2685 0.0000 (  2766 PWs)   bands (ev):

   -18.8137 -10.2215  -7.1347  -6.7004   2.1756   2.3278   2.9578   3.7525

     occupation numbers 
     1.0000   1.0000   1.0000   1.0000   0.0000   0.0000   0.0000   0.0000

          k = 0.2083 0.3281 0.0000 (  2776 PWs)   bands (ev):

   -18.4304 -10.7912  -7.2160  -6.7015   1.7443   2.0405   3.5255   4.2968

     occupation numbers 
     1.0000   1.0000   1.0000   1.0000   0.0000   0.0000   0.0000   0.0000

          k = 0.2083 0.3878 0.0000 (  2785 PWs)   bands (ev):

   -17.9808 -11.3096  -7.8808  -6.1946   1.1363   1.8292   4.2053   4.9591

     occupation numbers 
     1.0000   1.0000   1.0000   1.0000   0.0000   0.0000   0.0000   0.0000

          k = 0.2083 0.4474 0.0000 (  2796 PWs)   bands (ev):

   -17.4732 -11.7770  -8.6197  -5.6227   0.5187   1.5802   4.9957   5.7242

     occupation numbers 
     1.0000   1.0000   1.0000   1.0000   0.0000   0.0000   0.0000   0.0000

          k = 0.2083 0.5071 0.0000 (  2806 PWs)   bands (ev):

   -16.9219 -12.2009  -9.3583  -4.9978  -0.1066   1.3397   5.8943   6.5686

     occupation numbers 
     1.0000   1.0000   1.0000   1.0000   0.0000   0.0000   0.0000   0.0000

          k = 0.2083-0.8651 0.0000 (  2802 PWs)   bands (ev):

   -16.3529 -12.5954 -10.0192  -4.3361  -0.7411   1.1396   6.8962   7.4059

     occupation numbers 
     1.0000   1.0000   1.0000   1.0000   0.0000   0.0000   0.0000   0.0000

          k = 0.2083-0.8054 0.0000 (  2804 PWs)   bands (ev):

   -15.8216 -12.9638 -10.5191  -3.6649  -1.3784   0.9983   7.9051   7.9891

     occupation numbers 
     1.0000   1.0000   1.0000   1.0000   0.0000   0.0000   0.0000   0.0000

          k = 0.2083-0.7457 0.0000 (  2791 PWs)   bands (ev):

   -15.4554 -13.2342 -10.7870  -3.0711  -1.9499   0.9257   7.9564   9.1299

     occupation numbers 
     1.0000   1.0000   1.0000   1.0308   0.0003   0.0000   0.0000   0.0000

          k = 0.2083-0.6861 0.0000 (  2791 PWs)   bands (ev):

   -15.4556 -13.2335 -10.7875  -3.0718  -1.9492   0.9258   7.9562   9.1302

     occupation numbers 
     1.0000   1.0000   1.0000   1.0307   0.0003   0.0000   0.0000   0.0000

          k = 0.2083-0.6264 0.0000 (  2804 PWs)   bands (ev):

   -15.8220 -12.9621 -10.5207  -3.6657  -1.3772   0.9986   7.9045   7.9892

     occupation numbers 
     1.0000   1.0000   1.0000   1.0000   0.0000   0.0000   0.0000   0.0000

          k = 0.2083-0.5668 0.0000 (  2802 PWs)   bands (ev):

   -16.3532 -12.5932 -10.0214  -4.3368  -0.7398   1.1402   6.8963   7.4056

     occupation numbers 
     1.0000   1.0000   1.0000   1.0000   0.0000   0.0000   0.0000   0.0000

          k = 0.2083-0.5071 0.0000 (  2806 PWs)   bands (ev):

   -16.9221 -12.1985  -9.3609  -4.9984  -0.1053   1.3406   5.8944   6.5687

     occupation numbers 
     1.0000   1.0000   1.0000   1.0000   0.0000   0.0000   0.0000   0.0000

          k = 0.2083-0.4474 0.0000 (  2796 PWs)   bands (ev):

   -17.4733 -11.7746  -8.6225  -5.6232   0.5199   1.5815   4.9957   5.7242

     occupation numbers 
     1.0000   1.0000   1.0000   1.0000   0.0000   0.0000   0.0000   0.0000

          k = 0.2083-0.3878 0.0000 (  2785 PWs)   bands (ev):

   -17.9809 -11.3073  -7.8839  -6.1950   1.1375   1.8308   4.2054   5.2425

     occupation numbers 
     1.0000   1.0000   1.0000   1.0000   0.0000   0.0000   0.0000   0.0000

          k = 0.2083-0.3281 0.0000 (  2776 PWs)   bands (ev):

   -18.4305 -10.7888  -7.2193  -6.7018   1.7454   2.0427   3.5255   4.2968

     occupation numbers 
     1.0000   1.0000   1.0000   1.0000   0.0000   0.0000   0.0000   0.0000

          k = 0.2083-0.2685 0.0000 (  2766 PWs)   bands (ev):

   -18.8138 -10.2191  -7.1350  -6.7039   2.1782   2.3287   2.9577   3.7526

     occupation numbers 
     1.0000   1.0000   1.0000   1.0000   0.0000   0.0000   0.0000   0.0000

          k = 0.2083-0.2088 0.0000 (  2756 PWs)   bands (ev):

   -19.1253  -9.6048  -7.4881  -6.4093   2.2508   2.5144   2.8121   3.3869

     occupation numbers 
     1.0000   1.0000   1.0000   1.0000   0.0000   0.0000   0.0000   0.0000

          k = 0.2500-0.1790 0.0000 (  2755 PWs)   bands (ev):

   -19.0472  -9.8721  -7.4095  -6.5879   2.5295   2.6613   2.7681   3.4396

     occupation numbers 
     1.0000   1.0000   1.0000   1.0000   0.0000   0.0000   0.0000   0.0000

          k = 0.2500-0.1193 0.0000 (  2747 PWs)   bands (ev):

   -19.2417  -9.2080  -7.6281  -6.8233   2.2933   2.9168   2.9396   3.3354

     occupation numbers 
     1.0000   1.0000   1.0000   1.0000   0.0000   0.0000   0.0000   0.0000

          k = 0.2500-0.0597 0.0000 (  2761 PWs)   bands (ev):

   -19.3593  -8.5358  -7.7606  -7.2666   2.1288   2.8716   3.0502   3.4098

     occupation numbers 
     1.0000   1.0000   1.0000   1.0000   0.0000   0.0000   0.0000   0.0000

          k = 0.2500-0.0000 0.0000 (  2772 PWs)   bands (ev):

   -19.3987  -7.9979  -7.8049  -7.7340   2.0730   2.8273   3.0411   3.5483

     occupation numbers 
     1.0000   1.0000   1.0000   1.0000   0.0000   0.0000   0.0000   0.0000

          k = 0.2500 0.0597 0.0000 (  2761 PWs)   bands (ev):

   -19.3593  -8.5384  -7.7605  -7.2636   2.1288   2.8717   3.0496   3.4099

     occupation numbers 
     1.0000   1.0000   1.0000   1.0000   0.0000   0.0000   0.0000   0.0000

          k = 0.2500 0.1193 0.0000 (  2747 PWs)   bands (ev):

   -19.2417  -9.2105  -7.6280  -6.8200   2.2931   2.9149   2.9396   3.3347

     occupation numbers 
     1.0000   1.0000   1.0000   1.0000   0.0000   0.0000   0.0000   0.0000

          k = 0.2500 0.1790 0.0000 (  2755 PWs)   bands (ev):

   -19.0471  -9.8745  -7.4092  -6.5846   2.5284   2.6607   2.7666   3.4394

     occupation numbers 
     1.0000   1.0000   1.0000   1.0000   0.0000   0.0000   0.0000   0.0000

          k = 0.2500 0.2386 0.0000 (  2760 PWs)   bands (ev):

   -18.7778 -10.5040  -7.1073  -6.6174   2.1560   2.5797   3.0312   3.8070

     occupation numbers 
     1.0000   1.0000   1.0000   1.0000   0.0000   0.0000   0.0000   0.0000

          k = 0.2500 0.2983 0.0000 (  2775 PWs)   bands (ev):

   -18.4374 -11.0826  -6.9257  -6.7268   1.5982   2.5778   3.5325   4.3054

     occupation numbers 
     1.0000   1.0000   1.0000   1.0000   0.0000   0.0000   0.0000   0.0000

          k = 0.2500 0.3580 0.0000 (  2773 PWs)   bands (ev):

   -18.0315 -11.5989  -7.4610  -6.2747   1.0295   2.5267   4.1552   4.9170

     occupation numbers 
     1.0000   1.0000   1.0000   1.0000   0.0000   0.0000   0.0000   0.0000

          k = 0.2500 0.4176 0.0000 (  2797 PWs)   bands (ev):

   -17.5693 -12.0449  -8.1487  -5.7608   0.4672   2.3889   4.8896   5.6330

     occupation numbers 
     1.0000   1.0000   1.0000   1.0000   0.0000   0.0000   0.0000   0.0000

          k = 0.2500 0.4773 0.0000 (  2809 PWs)   bands (ev):

   -17.0656 -12.4146  -8.9116  -5.1983  -0.0823   2.2020   5.7326   6.4359

     occupation numbers 
     1.0000   1.0000   1.0000   1.0000   0.0000   0.0000   0.0000   0.0000

          k = 0.2500-0.8949 0.0000 (  2804 PWs)   bands (ev):

   -16.5464 -12.7034  -9.6764  -4.6068  -0.6187   2.0164   6.6804   7.2617

     occupation numbers 
     1.0000   1.0000   1.0000   1.0000   0.0000   0.0000   0.0000   0.0000

          k = 0.2500-0.8352 0.0000 (  2802 PWs)   bands (ev):

   -16.0588 -12.9076 -10.3639  -4.0177  -1.1371   1.8661   7.7233   7.8024

     occupation numbers 
     1.0000   1.0000   1.0000   1.0000   0.0000   0.0000   0.0000   0.0000

          k = 0.2500-0.7756 0.0000 (  2791 PWs)   bands (ev):

   -15.6859 -13.0257 -10.8694  -3.4981  -1.5988   1.7700   7.7985   8.8318

     occupation numbers 
     1.0000   1.0000   1.0000   1.0000   0.0000   0.0000   0.0000   0.0000

          k = 0.2500-0.7159 0.0000 (  2788 PWs)   bands (ev):

   -15.5409 -13.0626 -11.0625  -3.2486  -1.8262   1.7371   7.7388   9.7756

     occupation numbers 
     1.0000   1.0000   1.0000   1.0038   0.0000   0.0000   0.0000   0.0000

          k = 0.2500-0.6563 0.0000 (  2791 PWs)   bands (ev):

   -15.6863 -13.0242 -10.8708  -3.4989  -1.5977   1.7702   7.7981   8.8320

     occupation numbers 
     1.0000   1.0000   1.0000   1.0000   0.0000   0.0000   0.0000   0.0000

          k = 0.2500-0.5966 0.0000 (  2802 PWs)   bands (ev):

   -16.0592 -12.9053 -10.3660  -4.0186  -1.1356   1.8667   7.7234   7.8018

     occupation numbers 
     1.0000   1.0000   1.0000   1.0000   0.0000   0.0000   0.0000   0.0000

          k = 0.2500-0.5369 0.0000 (  2804 PWs)   bands (ev):

   -16.5467 -12.7010  -9.6789  -4.6076  -0.6171   2.0173   6.6805   7.2615

     occupation numbers 
     1.0000   1.0000   1.0000   1.0000   0.0000   0.0000   0.0000   0.0000

          k = 0.2500-0.4773 0.0000 (  2809 PWs)   bands (ev):

   -17.0659 -12.4123  -8.9143  -5.1990  -0.0808   2.2033   5.7327   6.4358

     occupation numbers 
     1.0000   1.0000   1.0000   1.0000   0.0000   0.0000   0.0000   0.0000

          k = 0.2500-0.4176 0.0000 (  2797 PWs)   bands (ev):

   -17.5694 -12.0426  -8.1516  -5.7614   0.4687   2.3907   4.8896   5.6329

     occupation numbers 
     1.0000   1.0000   1.0000   1.0000   0.0000   0.0000   0.0000   0.0000

          k = 0.2500-0.3580 0.0000 (  2773 PWs)   bands (ev):

   -18.0316 -11.5966  -7.4641  -6.2752   1.0308   2.5290   4.1552   5.1930

     occupation numbers 
     1.0000   1.0000   1.0000   1.0000   0.0000   0.0000   0.0000   0.0000

          k = 0.2500-0.2983 0.0000 (  2775 PWs)   bands (ev):

   -18.4374 -11.0803  -6.9289  -6.7272   1.5994   2.5805   3.5325   4.3055

     occupation numbers 
     1.0000   1.0000   1.0000   1.0000   0.0000   0.0000   0.0000   0.0000

          k = 0.2500-0.2386 0.0000 (  2760 PWs)   bands (ev):

   -18.7778 -10.5017  -7.1076  -6.6208   2.1570   2.5824   3.0312   3.8071

     occupation numbers 
     1.0000   1.0000   1.0000   1.0000   0.0000   0.0000   0.0000   0.0000

          k = 0.2917-0.2088 0.0000 (  2758 PWs)   bands (ev):

   -18.6856 -10.7688  -7.0161  -6.7739   1.9404   2.8605   3.2193   3.9394

     occupation numbers 
     1.0000   1.0000   1.0000   1.0000   0.0000   0.0000   0.0000   0.0000

          k = 0.2917-0.1491 0.0000 (  2759 PWs)   bands (ev):

   -18.9124 -10.1192  -7.2663  -7.0070   2.4329   2.7440   3.1956   3.5970

     occupation numbers 
     1.0000   1.0000   1.0000   1.0000   0.0000   0.0000   0.0000   0.0000

          k = 0.2917-0.0895 0.0000 (  2760 PWs)   bands (ev):

   -19.0654  -9.4333  -7.4610  -7.4357   2.5455   2.8317   3.3629   3.3934

     occupation numbers 
     1.0000   1.0000   1.0000   1.0000   0.0000   0.0000   0.0000   0.0000

          k = 0.2917-0.0298 0.0000 (  2760 PWs)   bands (ev):

   -19.1424  -8.7382  -8.0569  -7.5210   2.4378   3.0832   3.2221   3.4040

     occupation numbers 
     1.0000   1.0000   1.0000   1.0000   0.0000   0.0000   0.0000   0.0000

          k = 0.2917 0.0298 0.0000 (  2760 PWs)   bands (ev):

   -19.1424  -8.7407  -8.0542  -7.5210   2.4378   3.0832   3.2219   3.4039

     occupation numbers 
     1.0000   1.0000   1.0000   1.0000   0.0000   0.0000   0.0000   0.0000

          k = 0.2917 0.0895 0.0000 (  2760 PWs)   bands (ev):

   -19.0654  -9.4357  -7.4581  -7.4356   2.5454   2.8313   3.3627   3.3926

     occupation numbers 
     1.0000   1.0000   1.0000   1.0000   0.0000   0.0000   0.0000   0.0000

          k = 0.2917 0.1491 0.0000 (  2759 PWs)   bands (ev):

   -18.9124 -10.1214  -7.2661  -7.0039   2.4322   2.7436   3.1941   3.5969

     occupation numbers 
     1.0000   1.0000   1.0000   1.0000   0.0000   0.0000   0.0000   0.0000

          k = 0.2917 0.2088 0.0000 (  2758 PWs)   bands (ev):

   -18.6856 -10.7710  -7.0158  -6.7707   1.9394   2.8585   3.2190   3.9393

     occupation numbers 
     1.0000   1.0000   1.0000   1.0000   0.0000   0.0000   0.0000   0.0000

          k = 0.2917 0.2685 0.0000 (  2777 PWs)   bands (ev):

   -18.3889 -11.3664  -6.8159  -6.6896   1.4056   2.8604   3.6289   4.3921

     occupation numbers 
     1.0000   1.0000   1.0000   1.0000   0.0000   0.0000   0.0000   0.0000

          k = 0.2917 0.3281 0.0000 (  2779 PWs)   bands (ev):

   -18.0284 -11.8931  -7.1425  -6.2949   0.8683   2.9380   4.1887   4.9540

     occupation numbers 
     1.0000   1.0000   1.0000   1.0000   0.0000   0.0000   0.0000   0.0000

          k = 0.2917 0.3878 0.0000 (  2779 PWs)   bands (ev):

   -17.6142 -12.3386  -7.6976  -5.8427   0.3513   2.9935   4.8661   5.6209

     occupation numbers 
     1.0000   1.0000   1.0000   1.0000   0.0000   0.0000   0.0000   0.0000

          k = 0.2917 0.4474 0.0000 (  2793 PWs)   bands (ev):

   -17.1629 -12.6886  -8.4036  -5.3486  -0.1318   2.9527   5.6536   6.3809

     occupation numbers 
     1.0000   1.0000   1.0000   1.0000   0.0000   0.0000   0.0000   0.0000

          k = 0.2917-0.9247 0.0000 (  2809 PWs)   bands (ev):

   -16.7020 -12.9245  -9.1830  -4.8353  -0.5741   2.8418   6.5465   7.1908

     occupation numbers 
     1.0000   1.0000   1.0000   1.0000   0.0000   0.0000   0.0000   0.0000

          k = 0.2917-0.8651 0.0000 (  2806 PWs)   bands (ev):

   -16.2764 -13.0228  -9.9638  -4.3363  -0.9692   2.7171   7.5372   7.7985

     occupation numbers 
     1.0000   1.0000   1.0000   1.0000   0.0000   0.0000   0.0000   0.0000

          k = 0.2917-0.8054 0.0000 (  2807 PWs)   bands (ev):

   -15.9471 -12.9711 -10.6638  -3.9063  -1.2987   2.6173   7.7574   8.6018

     occupation numbers 
     1.0000   1.0000   1.0000   1.0000   0.0000   0.0000   0.0000   0.0000

          k = 0.2917-0.7457 0.0000 (  2801 PWs)   bands (ev):

   -15.7699 -12.8391 -11.1370  -3.6368  -1.5063   2.5632   7.5909   9.2957

     occupation numbers 
     1.0000   1.0000   1.0000   1.0000   0.0000   0.0000   0.0000   0.0000

          k = 0.2917-0.6861 0.0000 (  2801 PWs)   bands (ev):

   -15.7701 -12.8381 -11.1380  -3.6372  -1.5057   2.5634   7.5907   9.2957

     occupation numbers 
     1.0000   1.0000   1.0000   1.0000   0.0000   0.0000   0.0000   0.0000

          k = 0.2917-0.6264 0.0000 (  2807 PWs)   bands (ev):

   -15.9475 -12.9689 -10.6658  -3.9071  -1.2974   2.6179   7.7568   8.6020

     occupation numbers 
     1.0000   1.0000   1.0000   1.0000   0.0000   0.0000   0.0000   0.0000

          k = 0.2917-0.5668 0.0000 (  2806 PWs)   bands (ev):

   -16.2768 -13.0203  -9.9662  -4.3373  -0.9676   2.7181   7.5373   7.7979

     occupation numbers 
     1.0000   1.0000   1.0000   1.0000   0.0000   0.0000   0.0000   0.0000

          k = 0.2917-0.5071 0.0000 (  2809 PWs)   bands (ev):

   -16.7024 -12.9221  -9.1855  -4.8362  -0.5723   2.8433   6.5466   7.1906

     occupation numbers 
     1.0000   1.0000   1.0000   1.0000   0.0000   0.0000   0.0000   0.0000

          k = 0.2917-0.4474 0.0000 (  2793 PWs)   bands (ev):

   -17.1632 -12.6863  -8.4064  -5.3495  -0.1301   2.9546   5.6536   6.3808

     occupation numbers 
     1.0000   1.0000   1.0000   1.0000   0.0000   0.0000   0.0000   0.0000

          k = 0.2917-0.3878 0.0000 (  2779 PWs)   bands (ev):

   -17.6144 -12.3364  -7.7005  -5.8433   0.3529   2.9959   4.8661   5.6208

     occupation numbers 
     1.0000   1.0000   1.0000   1.0000   0.0000   0.0000   0.0000   0.0000

          k = 0.2917-0.3281 0.0000 (  2779 PWs)   bands (ev):

   -18.0285 -11.8910  -7.1456  -6.2954   0.8697   2.9407   4.1887   4.9540

     occupation numbers 
     1.0000   1.0000   1.0000   1.0000   0.0000   0.0000   0.0000   0.0000

          k = 0.2917-0.2685 0.0000 (  2777 PWs)   bands (ev):

   -18.3890 -11.3642  -6.8191  -6.6900   1.4068   2.8630   3.6289   4.3921

     occupation numbers 
     1.0000   1.0000   1.0000   1.0000   0.0000   0.0000   0.0000   0.0000

          k = 0.3333-0.2386 0.0000 (  2770 PWs)   bands (ev):

   -18.2862 -11.6220  -6.9335  -6.5909   1.1861   3.0628   3.8177   4.5575

     occupation numbers 
     1.0000   1.0000   1.0000   1.0000   0.0000   0.0000   0.0000   0.0000

          k = 0.3333-0.1790 0.0000 (  2758 PWs)   bands (ev):

   -18.5384 -11.0063  -7.1571  -6.8618   1.6902   3.1522   3.5361   4.1514

     occupation numbers 
     1.0000   1.0000   1.0000   1.0000   0.0000   0.0000   0.0000   0.0000

          k = 0.3333-0.1193 0.0000 (  2759 PWs)   bands (ev):

   -18.7225 -10.3345  -7.6124  -7.0606   2.1412   3.0249   3.6926   3.8519

     occupation numbers 
     1.0000   1.0000   1.0000   1.0000   0.0000   0.0000   0.0000   0.0000

          k = 0.3333-0.0597 0.0000 (  2763 PWs)   bands (ev):

   -18.8344  -9.6265  -8.2209  -7.1817   2.4717   2.8782   3.6592   3.8098

     occupation numbers 
     1.0000   1.0000   1.0000   1.0000   0.0000   0.0000   0.0000   0.0000

          k = 0.3333-0.0000 0.0000 (  2774 PWs)   bands (ev):

   -18.8719  -8.9195  -8.9000  -7.2224   2.5983   2.8259   3.5888   3.7970

     occupation numbers 
     1.0000   1.0000   1.0000   1.0000   0.0000   0.0000   0.0000   0.0000

          k = 0.3333 0.0597 0.0000 (  2763 PWs)   bands (ev):

   -18.8344  -9.6288  -8.2183  -7.1816   2.4714   2.8782   3.6591   3.8095

     occupation numbers 
     1.0000   1.0000   1.0000   1.0000   0.0000   0.0000   0.0000   0.0000

          k = 0.3333 0.1193 0.0000 (  2759 PWs)   bands (ev):

   -18.7225 -10.3367  -7.6096  -7.0604   2.1405   3.0247   3.6915   3.8518

     occupation numbers 
     1.0000   1.0000   1.0000   1.0000   0.0000   0.0000   0.0000   0.0000

          k = 0.3333 0.1790 0.0000 (  2758 PWs)   bands (ev):

   -18.5384 -11.0084  -7.1542  -6.8615   1.6892   3.1509   3.5355   4.1514

     occupation numbers 
     1.0000   1.0000   1.0000   1.0000   0.0000   0.0000   0.0000   0.0000

          k = 0.3333 0.2386 0.0000 (  2770 PWs)   bands (ev):

   -18.2861 -11.6241  -6.9304  -6.5904   1.1849   3.0607   3.8177   4.8339

     occupation numbers 
     1.0000   1.0000   1.0000   1.0000   0.0000   0.0000   0.0000   0.0000

          k = 0.3333 0.2983 0.0000 (  2773 PWs)   bands (ev):

   -17.9726 -12.1672  -6.9932  -6.2553   0.6764   3.0742   4.3083   5.0693

     occupation numbers 
     1.0000   1.0000   1.0000   1.0000   0.0000   0.0000   0.0000   0.0000

          k = 0.3333 0.3580 0.0000 (  2786 PWs)   bands (ev):

   -17.6094 -12.6212  -7.3402  -5.8688   0.1975   3.2291   4.9249   5.6867

     occupation numbers 
     1.0000   1.0000   1.0000   1.0000   0.0000   0.0000   0.0000   0.0000

          k = 0.3333 0.4176 0.0000 (  2792 PWs)   bands (ev):

   -17.2154 -12.9663  -7.9134  -5.4489  -0.2286   3.3988   5.6557   6.4019

     occupation numbers 
     1.0000   1.0000   1.0000   1.0000   0.0000   0.0000   0.0000   0.0000

          k = 0.3333-0.9546 0.0000 (  2795 PWs)   bands (ev):

   -16.8213 -13.1749  -8.6327  -5.0209  -0.5859   3.4723   6.4940   7.4415

     occupation numbers 
     1.0000   1.0000   1.0000   1.0000   0.0000   0.0000   0.0000   0.0000

          k = 0.3333-0.8949 0.0000 (  2812 PWs)   bands (ev):

   -16.4716 -13.2122  -9.4213  -4.6193  -0.8639   3.4511   7.4312   8.2137

     occupation numbers 
     1.0000   1.0000   1.0000   1.0000   0.0000   0.0000   0.0000   0.0000

          k = 0.3333-0.8352 0.0000 (  2802 PWs)   bands (ev):

   -16.2128 -13.0539 -10.2085  -4.2860  -1.0575   3.3928   7.7938   8.4234

     occupation numbers 
     1.0000   1.0000   1.0000   1.0000   0.0000   0.0000   0.0000   0.0000

          k = 0.3333-0.7756 0.0000 (  2811 PWs)   bands (ev):

   -16.0656 -12.7411 -10.9019  -4.0643  -1.1684   3.3424   7.5134   8.4335

     occupation numbers 
     1.0000   1.0000   1.0000   1.0000   0.0000   0.0000   0.0000   0.0000

          k = 0.3333-0.7159 0.0000 (  2806 PWs)   bands (ev):

   -16.0200 -12.5210 -11.2472  -3.9865  -1.2036   3.3235   7.4006   8.3863

     occupation numbers 
     1.0000   1.0000   1.0000   1.0000   0.0000   0.0000   0.0000   0.0000

          k = 0.3333-0.6563 0.0000 (  2811 PWs)   bands (ev):

   -16.0659 -12.7392 -10.9037  -4.0648  -1.1675   3.3429   7.5130   8.4335

     occupation numbers 
     1.0000   1.0000   1.0000   1.0000   0.0000   0.0000   0.0000   0.0000

          k = 0.3333-0.5966 0.0000 (  2802 PWs)   bands (ev):

   -16.2132 -13.0515 -10.2108  -4.2869  -1.0559   3.3938   7.7932   8.4237

     occupation numbers 
     1.0000   1.0000   1.0000   1.0000   0.0000   0.0000   0.0000   0.0000

          k = 0.3333-0.5369 0.0000 (  2812 PWs)   bands (ev):

   -16.4721 -13.2097  -9.4237  -4.6204  -0.8620   3.4526   7.4313   8.2111

     occupation numbers 
     1.0000   1.0000   1.0000   1.0000   0.0000   0.0000   0.0000   0.0000

          k = 0.3333-0.4773 0.0000 (  2795 PWs)   bands (ev):

   -16.8217 -13.1725  -8.6353  -5.0219  -0.5840   3.4744   6.4941   7.4383

     occupation numbers 
     1.0000   1.0000   1.0000   1.0000   0.0000   0.0000   0.0000   0.0000

          k = 0.3333-0.4176 0.0000 (  2792 PWs)   bands (ev):

   -17.2157 -12.9640  -7.9161  -5.4498  -0.2267   3.4013   5.6557   6.4019

     occupation numbers 
     1.0000   1.0000   1.0000   1.0000   0.0000   0.0000   0.0000   0.0000

          k = 0.3333-0.3580 0.0000 (  2786 PWs)   bands (ev):

   -17.6096 -12.6191  -7.3431  -5.8696   0.1992   3.2317   4.9249   5.6867

     occupation numbers 
     1.0000   1.0000   1.0000   1.0000   0.0000   0.0000   0.0000   0.0000

          k = 0.3333-0.2983 0.0000 (  2773 PWs)   bands (ev):

   -17.9728 -12.1651  -6.9963  -6.2559   0.6779   3.0766   4.3083   5.0693

     occupation numbers 
     1.0000   1.0000   1.0000   1.0000   0.0000   0.0000   0.0000   0.0000

          k = 0.3750-0.2685 0.0000 (  2777 PWs)   bands (ev):

   -17.8662 -12.4033  -7.0624  -6.1578   0.4731   3.1867   4.5145   5.5441

     occupation numbers 
     1.0000   1.0000   1.0000   1.0000   0.0000   0.0000   0.0000   0.0000

          k = 0.3750-0.2088 0.0000 (  2779 PWs)   bands (ev):

   -18.1310 -11.8421  -7.2721  -6.4312   0.9493   3.3496   4.1019   4.7994

     occupation numbers 
     1.0000   1.0000   1.0000   1.0000   0.0000   0.0000   0.0000   0.0000

          k = 0.3750-0.1491 0.0000 (  2761 PWs)   bands (ev):

   -18.3382 -11.2050  -7.7236  -6.6465   1.4122   3.4923   3.9831   4.4429

     occupation numbers 
     1.0000   1.0000   1.0000   1.0000   0.0000   0.0000   0.0000   0.0000

          k = 0.3750-0.0895 0.0000 (  2758 PWs)   bands (ev):

   -18.4799 -10.5114  -8.3380  -6.7948   1.7974   3.3783   4.1903   4.1945

     occupation numbers 
     1.0000   1.0000   1.0000   1.0000   0.0000   0.0000   0.0000   0.0000

          k = 0.3750-0.0298 0.0000 (  2768 PWs)   bands (ev):

   -18.5517  -9.7859  -9.0378  -6.8702   2.0240   3.2852   4.0630   4.2339

     occupation numbers 
     1.0000   1.0000   1.0000   1.0000   0.0000   0.0000   0.0000   0.0000

          k = 0.3750 0.0298 0.0000 (  2768 PWs)   bands (ev):

   -18.5516  -9.7882  -9.0355  -6.8702   2.0238   3.2852   4.0630   4.2338

     occupation numbers 
     1.0000   1.0000   1.0000   1.0000   0.0000   0.0000   0.0000   0.0000

          k = 0.3750 0.0895 0.0000 (  2758 PWs)   bands (ev):

   -18.4798 -10.5135  -8.3355  -6.7946   1.7968   3.3781   4.1896   4.1944

     occupation numbers 
     1.0000   1.0000   1.0000   1.0000   0.0000   0.0000   0.0000   0.0000

          k = 0.3750 0.1491 0.0000 (  2761 PWs)   bands (ev):

   -18.3381 -11.2071  -7.7209  -6.6462   1.4113   3.4915   3.9824   4.4428

     occupation numbers 
     1.0000   1.0000   1.0000   1.0000   0.0000   0.0000   0.0000   0.0000

          k = 0.3750 0.2088 0.0000 (  2779 PWs)   bands (ev):

   -18.1309 -11.8442  -7.2692  -6.4307   0.9481   3.3479   4.1019   4.7994

     occupation numbers 
     1.0000   1.0000   1.0000   1.0000   0.0000   0.0000   0.0000   0.0000

          k = 0.3750 0.2685 0.0000 (  2777 PWs)   bands (ev):

   -17.8660 -12.4054  -7.0595  -6.1572   0.4716   3.1848   4.5145   5.2622

     occupation numbers 
     1.0000   1.0000   1.0000   1.0000   0.0000   0.0000   0.0000   0.0000

          k = 0.3750 0.3281 0.0000 (  2780 PWs)   bands (ev):

   -17.5569 -12.8708  -7.1429  -5.8400   0.0285   3.2248   5.0674   5.8300

     occupation numbers 
     1.0000   1.0000   1.0000   1.0000   0.0000   0.0000   0.0000   0.0000

          k = 0.3750 0.3878 0.0000 (  2790 PWs)   bands (ev):

   -17.2258 -13.2152  -7.5105  -5.4999  -0.3467   3.4468   5.7377   6.4984

     occupation numbers 
     1.0000   1.0000   1.0000   1.0000   0.0000   0.0000   0.0000   0.0000

          k = 0.3750-0.9844 0.0000 (  2804 PWs)   bands (ev):

   -16.9073 -13.4045  -8.0990  -5.1643  -0.6282   3.7193   6.5174   7.2732

     occupation numbers 
     1.0000   1.0000   1.0000   1.0000   0.0000   0.0000   0.0000   0.0000

          k = 0.3750-0.9247 0.0000 (  2801 PWs)   bands (ev):

   -16.6453 -13.3990  -8.8268  -4.8656  -0.8006   3.9073   7.3886   7.6426

     occupation numbers 
     1.0000   1.0000   1.0000   1.0000   0.0000   0.0000   0.0000   0.0000

          k = 0.3750-0.8651 0.0000 (  2804 PWs)   bands (ev):

   -16.4719 -13.1771  -9.6181  -4.6329  -0.8677   3.9799   7.7660   7.7724

     occupation numbers 
     1.0000   1.0000   1.0000   1.0000   0.0000   0.0000   0.0000   0.0000

          k = 0.3750-0.8054 0.0000 (  2809 PWs)   bands (ev):

   -16.3833 -12.7680 -10.4023  -4.4813  -0.8618   3.9873   7.4093   7.6441

     occupation numbers 
     1.0000   1.0000   1.0000   1.0000   0.0000   0.0000   0.0000   0.0000

          k = 0.3750-0.7457 0.0000 (  2805 PWs)   bands (ev):

   -16.3505 -12.2999 -11.0528  -4.4090  -0.8367   3.9790   7.1943   7.5554

     occupation numbers 
     1.0000   1.0000   1.0000   1.0000   0.0000   0.0000   0.0000   0.0000

          k = 0.3750-0.6861 0.0000 (  2805 PWs)   bands (ev):

   -16.3506 -12.2985 -11.0541  -4.4092  -0.8363   3.9793   7.1942   7.5555

     occupation numbers 
     1.0000   1.0000   1.0000   1.0000   0.0000   0.0000   0.0000   0.0000

          k = 0.3750-0.6264 0.0000 (  2809 PWs)   bands (ev):

   -16.3837 -12.7658 -10.4044  -4.4819  -0.8606   3.9881   7.4090   7.6442

     occupation numbers 
     1.0000   1.0000   1.0000   1.0000   0.0000   0.0000   0.0000   0.0000

          k = 0.3750-0.5668 0.0000 (  2804 PWs)   bands (ev):

   -16.4724 -13.1747  -9.6205  -4.6339  -0.8660   3.9814   7.7658   7.7720

     occupation numbers 
     1.0000   1.0000   1.0000   1.0000   0.0000   0.0000   0.0000   0.0000

          k = 0.3750-0.5071 0.0000 (  2801 PWs)   bands (ev):

   -16.6459 -13.3966  -8.8293  -4.8667  -0.7987   3.9093   7.3886   7.6405

     occupation numbers 
     1.0000   1.0000   1.0000   1.0000   0.0000   0.0000   0.0000   0.0000

          k = 0.3750-0.4474 0.0000 (  2804 PWs)   bands (ev):

   -16.9078 -13.4022  -8.1016  -5.1653  -0.6262   3.7217   6.5175   7.2703

     occupation numbers 
     1.0000   1.0000   1.0000   1.0000   0.0000   0.0000   0.0000   0.0000

          k = 0.3750-0.3878 0.0000 (  2790 PWs)   bands (ev):

   -17.2262 -13.2130  -7.5133  -5.5008  -0.3448   3.4492   5.7378   6.4988

     occupation numbers 
     1.0000   1.0000   1.0000   1.0000   0.0000   0.0000   0.0000   0.0000

          k = 0.3750-0.3281 0.0000 (  2780 PWs)   bands (ev):

   -17.5572 -12.8687  -7.1458  -5.8408   0.0302   3.2270   5.0673   6.1098

     occupation numbers 
     1.0000   1.0000   1.0000   1.0000   0.0000   0.0000   0.0000   0.0000

          k = 0.4167-0.2983 0.0000 (  2781 PWs)   bands (ev):

   -17.4602 -13.0714  -7.1570  -5.7587  -0.1377   3.2581   5.2932   6.0496

     occupation numbers 
     1.0000   1.0000   1.0000   1.0000   0.0000   0.0000   0.0000   0.0000

          k = 0.4167-0.2386 0.0000 (  2781 PWs)   bands (ev):

   -17.7115 -12.5955  -7.3494  -6.0028   0.2660   3.4283   4.8089   5.5310

     occupation numbers 
     1.0000   1.0000   1.0000   1.0000   0.0000   0.0000   0.0000   0.0000

          k = 0.4167-0.1790 0.0000 (  2770 PWs)   bands (ev):

   -17.9260 -12.0168  -7.7937  -6.2130   0.7013   3.7375   4.4909   5.1173

     occupation numbers 
     1.0000   1.0000   1.0000   1.0000   0.0000   0.0000   0.0000   0.0000

          k = 0.4167-0.1193 0.0000 (  2767 PWs)   bands (ev):

   -18.0878 -11.3596  -8.4111  -6.3734   1.1071   3.8696   4.5068   4.8107

     occupation numbers 
     1.0000   1.0000   1.0000   1.0000   0.0000   0.0000   0.0000   0.0000

          k = 0.4167-0.0597 0.0000 (  2772 PWs)   bands (ev):

   -18.1879 -10.6480  -9.1223  -6.4734   1.4054   3.7923   4.6175   4.6587

     occupation numbers 
     1.0000   1.0000   1.0000   1.0000   0.0000   0.0000   0.0000   0.0000

          k = 0.4167-0.0000 0.0000 (  2764 PWs)   bands (ev):

   -18.2217 -10.0158  -9.7582  -6.5073   1.5171   3.7519   4.5505   4.6805

     occupation numbers 
     1.0000   1.0000   1.0000   1.0000   0.0000   0.0000   0.0000   0.0000

          k = 0.4167 0.0597 0.0000 (  2772 PWs)   bands (ev):

   -18.1879 -10.6501  -9.1200  -6.4733   1.4050   3.7922   4.6175   4.6583

     occupation numbers 
     1.0000   1.0000   1.0000   1.0000   0.0000   0.0000   0.0000   0.0000

          k = 0.4167 0.1193 0.0000 (  2767 PWs)   bands (ev):

   -18.0877 -11.3616  -8.4086  -6.3731   1.1062   3.8691   4.5061   4.8107

     occupation numbers 
     1.0000   1.0000   1.0000   1.0000   0.0000   0.0000   0.0000   0.0000

          k = 0.4167 0.1790 0.0000 (  2770 PWs)   bands (ev):

   -17.9258 -12.0189  -7.7911  -6.2126   0.7001   3.7361   4.4908   5.1173

     occupation numbers 
     1.0000   1.0000   1.0000   1.0000   0.0000   0.0000   0.0000   0.0000

          k = 0.4167 0.2386 0.0000 (  2781 PWs)   bands (ev):

   -17.7113 -12.5976  -7.3466  -6.0021   0.2645   3.4266   4.8089   5.5311

     occupation numbers 
     1.0000   1.0000   1.0000   1.0000   0.0000   0.0000   0.0000   0.0000

          k = 0.4167 0.2983 0.0000 (  2781 PWs)   bands (ev):

   -17.4599 -13.0735  -7.1542  -5.7579  -0.1395   3.2563   5.2932   6.0496

     occupation numbers 
     1.0000   1.0000   1.0000   1.0000   0.0000   0.0000   0.0000   0.0000

          k = 0.4167 0.3580 0.0000 (  2782 PWs)   bands (ev):

   -17.1981 -13.4159  -7.2599  -5.5029  -0.4650   3.3268   5.9002   6.6703

     occupation numbers 
     1.0000   1.0000   1.0000   1.0000   0.0000   0.0000   0.0000   0.0000

          k = 0.4167-1.0142 0.0000 (  2796 PWs)   bands (ev):

   -16.9643 -13.5849  -7.6472  -5.2657  -0.6770   3.6031   6.6134   7.3781

     occupation numbers 
     1.0000   1.0000   1.0000   1.0000   0.0000   0.0000   0.0000   0.0000

          k = 0.4167-0.9546 0.0000 (  2802 PWs)   bands (ev):

   -16.7990 -13.5418  -8.2478  -5.0740  -0.7566   3.9540   7.1719   7.4982

     occupation numbers 
     1.0000   1.0000   1.0000   1.0000   0.0000   0.0000   0.0000   0.0000

          k = 0.4167-0.8949 0.0000 (  2801 PWs)   bands (ev):

   -16.7181 -13.2761  -8.9796  -4.9435  -0.7136   4.2329   7.0706   7.5158

     occupation numbers 
     1.0000   1.0000   1.0000   1.0000   0.0000   0.0000   0.0000   0.0000

          k = 0.4167-0.8352 0.0000 (  2803 PWs)   bands (ev):

   -16.6993 -12.8219  -9.7679  -4.8704  -0.5948   4.3816   6.9246   7.1347

     occupation numbers 
     1.0000   1.0000   1.0000   1.0000   0.0000   0.0000   0.0000   0.0000

          k = 0.4167-0.7756 0.0000 (  2803 PWs)   bands (ev):

   -16.7059 -12.2499 -10.5378  -4.8378  -0.4741   4.4370   6.8134   6.8725

     occupation numbers 
     1.0000   1.0000   1.0000   1.0000   0.0000   0.0000   0.0000   0.0000

          k = 0.4167-0.7159 0.0000 (  2802 PWs)   bands (ev):

   -16.7111 -11.8288 -11.0243  -4.8293  -0.4236   4.4494   6.7733   6.7769

     occupation numbers 
     1.0000   1.0000   1.0000   1.0000   0.0000   0.0000   0.0000   0.0000

          k = 0.4167-0.6563 0.0000 (  2803 PWs)   bands (ev):

   -16.7060 -12.2479 -10.5398  -4.8382  -0.4734   4.4376   6.8134   6.8723

     occupation numbers 
     1.0000   1.0000   1.0000   1.0000   0.0000   0.0000   0.0000   0.0000

          k = 0.4167-0.5966 0.0000 (  2803 PWs)   bands (ev):

   -16.6996 -12.8197  -9.7701  -4.8711  -0.5934   4.3829   6.9247   7.1345

     occupation numbers 
     1.0000   1.0000   1.0000   1.0000   0.0000   0.0000   0.0000   0.0000

          k = 0.4167-0.5369 0.0000 (  2801 PWs)   bands (ev):

   -16.7186 -13.2737  -8.9819  -4.9444  -0.7119   4.2348   7.0703   7.5157

     occupation numbers 
     1.0000   1.0000   1.0000   1.0000   0.0000   0.0000   0.0000   0.0000

          k = 0.4167-0.4773 0.0000 (  2802 PWs)   bands (ev):

   -16.7996 -13.5394  -8.2503  -5.0751  -0.7546   3.9562   7.1710   7.4983

     occupation numbers 
     1.0000   1.0000   1.0000   1.0000   0.0000   0.0000   0.0000   0.0000

          k = 0.4167-0.4176 0.0000 (  2796 PWs)   bands (ev):

   -16.9648 -13.5826  -7.6499  -5.2669  -0.6749   3.6053   6.6134   7.3766

     occupation numbers 
     1.0000   1.0000   1.0000   1.0000   0.0000   0.0000   0.0000   0.0000

          k = 0.4167-0.3580 0.0000 (  2782 PWs)   bands (ev):

   -17.1985 -13.4137  -7.2628  -5.5039  -0.4630   3.3288   5.9002   6.6702

     occupation numbers 
     1.0000   1.0000   1.0000   1.0000   0.0000   0.0000   0.0000   0.0000

          k = 0.4583-0.3281 0.0000 (  2783 PWs)   bands (ev):

   -17.1373 -13.5529  -7.2148  -5.4610  -0.5670   3.2937   6.1399   6.9155

     occupation numbers 
     1.0000   1.0000   1.0000   1.0000   0.0000   0.0000   0.0000   0.0000

          k = 0.4583-0.2685 0.0000 (  2775 PWs)   bands (ev):

   -17.3227 -13.2177  -7.3874  -5.6253  -0.2951   3.4503   5.6020   6.3426

     occupation numbers 
     1.0000   1.0000   1.0000   1.0000   0.0000   0.0000   0.0000   0.0000

          k = 0.4583-0.2088 0.0000 (  2785 PWs)   bands (ev):

   -17.5121 -12.7350  -7.8214  -5.7932   0.0608   3.7972   5.1965   5.8716

     occupation numbers 
     1.0000   1.0000   1.0000   1.0000   0.0000   0.0000   0.0000   0.0000

          k = 0.4583-0.1491 0.0000 (  2784 PWs)   bands (ev):

   -17.6747 -12.1417  -8.4391  -5.9397   0.4414   4.1475   4.9840   5.5052

     occupation numbers 
     1.0000   1.0000   1.0000   1.0000   0.0000   0.0000   0.0000   0.0000

          k = 0.4583-0.0895 0.0000 (  2778 PWs)   bands (ev):

   -17.7914 -11.4683  -9.1598  -6.0466   0.7720   4.2578   5.0314   5.2487

     occupation numbers 
     1.0000   1.0000   1.0000   1.0000   0.0000   0.0000   0.0000   0.0000

          k = 0.4583-0.0298 0.0000 (  2782 PWs)   bands (ev):

   -17.8521 -10.7580  -9.9030  -6.1027   0.9684   4.2310   5.1055   5.1136

     occupation numbers 
     1.0000   1.0000   1.0000   1.0000   0.0000   0.0000   0.0000   0.0000

          k = 0.4583 0.0298 0.0000 (  2782 PWs)   bands (ev):

   -17.8520 -10.7599  -9.9011  -6.1026   0.9681   4.2308   5.1053   5.1136

     occupation numbers 
     1.0000   1.0000   1.0000   1.0000   0.0000   0.0000   0.0000   0.0000

          k = 0.4583 0.0895 0.0000 (  2778 PWs)   bands (ev):

   -17.7914 -11.4704  -9.1575  -6.0463   0.7712   4.2573   5.0308   5.2486

     occupation numbers 
     1.0000   1.0000   1.0000   1.0000   0.0000   0.0000   0.0000   0.0000

          k = 0.4583 0.1491 0.0000 (  2784 PWs)   bands (ev):

   -17.6745 -12.1438  -8.4366  -5.9392   0.4402   4.1463   4.9838   5.5052

     occupation numbers 
     1.0000   1.0000   1.0000   1.0000   0.0000   0.0000   0.0000   0.0000

          k = 0.4583 0.2088 0.0000 (  2785 PWs)   bands (ev):

   -17.5119 -12.7370  -7.8188  -5.7925   0.0592   3.7956   5.1965   5.8716

     occupation numbers 
     1.0000   1.0000   1.0000   1.0000   0.0000   0.0000   0.0000   0.0000

          k = 0.4583 0.2685 0.0000 (  2775 PWs)   bands (ev):

   -17.3223 -13.2198  -7.3846  -5.6244  -0.2970   3.4486   5.6020   6.3426

     occupation numbers 
     1.0000   1.0000   1.0000   1.0000   0.0000   0.0000   0.0000   0.0000

          k = 0.4583 0.3281 0.0000 (  2783 PWs)   bands (ev):

   -17.1369 -13.5552  -7.2120  -5.4599  -0.5690   3.2920   6.1399   6.9155

     occupation numbers 
     1.0000   1.0000   1.0000   1.0000   0.0000   0.0000   0.0000   0.0000

          k = 0.4583-1.0440 0.0000 (  2788 PWs)   bands (ev):

   -16.9963 -13.6994  -7.3406  -5.3262  -0.7137   3.3942   6.7746   7.3122

     occupation numbers 
     1.0000   1.0000   1.0000   1.0000   0.0000   0.0000   0.0000   0.0000

          k = 0.4583-0.9844 0.0000 (  2796 PWs)   bands (ev):

   -16.9334 -13.6198  -7.7458  -5.2436  -0.7115   3.7112   6.8084   7.5733

     occupation numbers 
     1.0000   1.0000   1.0000   1.0000   0.0000   0.0000   0.0000   0.0000

          k = 0.4583-0.9247 0.0000 (  2795 PWs)   bands (ev):

   -16.9457 -13.3218  -8.3553  -5.2142  -0.5768   4.1102   6.4805   7.1109

     occupation numbers 
     1.0000   1.0000   1.0000   1.0000   0.0000   0.0000   0.0000   0.0000

          k = 0.4583-0.8651 0.0000 (  2801 PWs)   bands (ev):

   -16.9991 -12.8463  -9.0870  -5.2225  -0.3604   4.4342   6.2671   6.7161

     occupation numbers 
     1.0000   1.0000   1.0000   1.0000   0.0000   0.0000   0.0000   0.0000

          k = 0.4583-0.8054 0.0000 (  2792 PWs)   bands (ev):

   -17.0555 -12.2462  -9.8671  -5.2446  -0.1398   4.6062   6.1525   6.4282

     occupation numbers 
     1.0000   1.0000   1.0000   1.0000   0.0000   0.0000   0.0000   0.0000

          k = 0.4583-0.7457 0.0000 (  2795 PWs)   bands (ev):

   -17.0896 -11.6052 -10.6007  -5.2610   0.0003   4.6641   6.1022   6.2713

     occupation numbers 
     1.0000   1.0000   1.0000   1.0000   0.0000   0.0000   0.0000   0.0000

          k = 0.4583-0.6861 0.0000 (  2795 PWs)   bands (ev):

   -17.0897 -11.6036 -10.6024  -5.2611   0.0006   4.6644   6.1023   6.2712

     occupation numbers 
     1.0000   1.0000   1.0000   1.0000   0.0000   0.0000   0.0000   0.0000

          k = 0.4583-0.6264 0.0000 (  2792 PWs)   bands (ev):

   -17.0557 -12.2441  -9.8692  -5.2450  -0.1389   4.6072   6.1526   6.4281

     occupation numbers 
     1.0000   1.0000   1.0000   1.0000   0.0000   0.0000   0.0000   0.0000

          k = 0.4583-0.5668 0.0000 (  2801 PWs)   bands (ev):

   -16.9994 -12.8442  -9.0893  -5.2232  -0.3590   4.4359   6.2671   6.7161

     occupation numbers 
     1.0000   1.0000   1.0000   1.0000   0.0000   0.0000   0.0000   0.0000

          k = 0.4583-0.5071 0.0000 (  2795 PWs)   bands (ev):

   -16.9462 -13.3195  -8.3578  -5.2152  -0.5750   4.1121   6.4804   7.1109

     occupation numbers 
     1.0000   1.0000   1.0000   1.0000   0.0000   0.0000   0.0000   0.0000

          k = 0.4583-0.4474 0.0000 (  2796 PWs)   bands (ev):

   -16.9339 -13.6175  -7.7484  -5.2447  -0.7094   3.7131   6.8080   7.5735

     occupation numbers 
     1.0000   1.0000   1.0000   1.0000   0.0000   0.0000   0.0000   0.0000

          k = 0.4583-0.3878 0.0000 (  2788 PWs)   bands (ev):

   -16.9969 -13.6971  -7.3434  -5.3274  -0.7116   3.3960   6.7746   7.3120

     occupation numbers 
     1.0000   1.0000   1.0000   1.0000   0.0000   0.0000   0.0000   0.0000

          k =-0.5000 0.3580 0.0000 (  2788 PWs)   bands (ev):

   -17.0072 -13.7362  -7.2343  -5.3475  -0.7252   3.3045   6.9117   7.1692

     occupation numbers 
     1.0000   1.0000   1.0000   1.0000   0.0000   0.0000   0.0000   0.0000

          k =-0.5000 0.4176 0.0000 (  2781 PWs)   bands (ev):

   -17.0476 -13.6223  -7.3853  -5.3739  -0.6491   3.4366   6.4489   7.2303

     occupation numbers 
     1.0000   1.0000   1.0000   1.0000   0.0000   0.0000   0.0000   0.0000

          k =-0.5000 0.4773 0.0000 (  2788 PWs)   bands (ev):

   -17.1495 -13.3014  -7.8061  -5.4432  -0.4395   3.7791   5.9954   6.7022

     occupation numbers 
     1.0000   1.0000   1.0000   1.0000   0.0000   0.0000   0.0000   0.0000

          k =-0.5000 0.5369 0.0000 (  2791 PWs)   bands (ev):

   -17.2728 -12.8180  -8.4212  -5.5321  -0.1448   4.1880   5.6838   6.2744

     occupation numbers 
     1.0000   1.0000   1.0000   1.0000   0.0000   0.0000   0.0000   0.0000

          k =-0.5000 0.5966 0.0000 (  2788 PWs)   bands (ev):

   -17.3822 -12.2158  -9.1489  -5.6150   0.1641   4.4773   5.5481   5.9514

     occupation numbers 
     1.0000   1.0000   1.0000   1.0000   0.0000   0.0000   0.0000   0.0000

          k =-0.5000 0.6563 0.0000 (  2784 PWs)   bands (ev):

   -17.4554 -11.5376  -9.9151  -5.6725   0.4030   4.5731   5.5414   5.7443

     occupation numbers 
     1.0000   1.0000   1.0000   1.0000   0.0000   0.0000   0.0000   0.0000

          k =-0.5000 0.7159 0.0000 (  2790 PWs)   bands (ev):

   -17.4810 -10.9909 -10.4933  -5.6929   0.4937   4.5834   5.5493   5.6717

     occupation numbers 
     1.0000   1.0000   1.0000   1.0000   0.0000   0.0000   0.0000   0.0000

          k =-0.5000 0.7756 0.0000 (  2784 PWs)   bands (ev):

   -17.4553 -11.5395  -9.9130  -5.6723   0.4024   4.5726   5.5411   5.7443

     occupation numbers 
     1.0000   1.0000   1.0000   1.0000   0.0000   0.0000   0.0000   0.0000

          k =-0.5000 0.8352 0.0000 (  2788 PWs)   bands (ev):

   -17.3820 -12.2179  -9.1466  -5.6145   0.1630   4.4761   5.5479   5.9514

     occupation numbers 
     1.0000   1.0000   1.0000   1.0000   0.0000   0.0000   0.0000   0.0000

          k =-0.5000 0.8949 0.0000 (  2791 PWs)   bands (ev):

   -17.2725 -12.8201  -8.4187  -5.5314  -0.1463   4.1864   5.6838   6.2745

     occupation numbers 
     1.0000   1.0000   1.0000   1.0000   0.0000   0.0000   0.0000   0.0000

          k =-0.5000 0.9546 0.0000 (  2788 PWs)   bands (ev):

   -17.1491 -13.3036  -7.8035  -5.4423  -0.4414   3.7774   5.9955   6.7023

     occupation numbers 
     1.0000   1.0000   1.0000   1.0000   0.0000   0.0000   0.0000   0.0000

          k =-0.5000 1.0142 0.0000 (  2781 PWs)   bands (ev):

   -17.0471 -13.6246  -7.3826  -5.3728  -0.6512   3.4348   6.4490   7.2302

     occupation numbers 
     1.0000   1.0000   1.0000   1.0000   0.0000   0.0000   0.0000   0.0000

          k =-0.5000-0.3580 0.0000 (  2788 PWs)   bands (ev):

   -17.0066 -13.7385  -7.2315  -5.3463  -0.7273   3.3028   6.9119   7.1690

     occupation numbers 
     1.0000   1.0000   1.0000   1.0000   0.0000   0.0000   0.0000   0.0000

          k =-0.5000-0.2983 0.0000 (  2781 PWs)   bands (ev):

   -17.0471 -13.6246  -7.3826  -5.3728  -0.6512   3.4348   6.4490   7.2304

     occupation numbers 
     1.0000   1.0000   1.0000   1.0000   0.0000   0.0000   0.0000   0.0000

          k =-0.5000-0.2386 0.0000 (  2788 PWs)   bands (ev):

   -17.1491 -13.3036  -7.8035  -5.4423  -0.4414   3.7774   5.9955   6.7022

     occupation numbers 
     1.0000   1.0000   1.0000   1.0000   0.0000   0.0000   0.0000   0.0000

          k =-0.5000-0.1790 0.0000 (  2791 PWs)   bands (ev):

   -17.2725 -12.8201  -8.4187  -5.5314  -0.1463   4.1864   5.6838   6.2745

     occupation numbers 
     1.0000   1.0000   1.0000   1.0000   0.0000   0.0000   0.0000   0.0000

          k =-0.5000-0.1193 0.0000 (  2788 PWs)   bands (ev):

   -17.3820 -12.2179  -9.1466  -5.6145   0.1630   4.4761   5.5479   5.9514

     occupation numbers 
     1.0000   1.0000   1.0000   1.0000   0.0000   0.0000   0.0000   0.0000

          k =-0.5000-0.0597 0.0000 (  2784 PWs)   bands (ev):

   -17.4553 -11.5395  -9.9130  -5.6723   0.4024   4.5726   5.5411   5.7443

     occupation numbers 
     1.0000   1.0000   1.0000   1.0000   0.0000   0.0000   0.0000   0.0000

          k =-0.5000 0.0000 0.0000 (  2790 PWs)   bands (ev):

   -17.4810 -10.9909 -10.4933  -5.6929   0.4937   4.5834   5.5493   5.6717

     occupation numbers 
     1.0000   1.0000   1.0000   1.0000   0.0000   0.0000   0.0000   0.0000

          k =-0.5000 0.0597 0.0000 (  2784 PWs)   bands (ev):

   -17.4554 -11.5376  -9.9151  -5.6725   0.4030   4.5731   5.5414   5.7443

     occupation numbers 
     1.0000   1.0000   1.0000   1.0000   0.0000   0.0000   0.0000   0.0000

          k =-0.5000 0.1193 0.0000 (  2788 PWs)   bands (ev):

   -17.3822 -12.2158  -9.1489  -5.6150   0.1641   4.4773   5.5481   5.9514

     occupation numbers 
     1.0000   1.0000   1.0000   1.0000   0.0000   0.0000   0.0000   0.0000

          k =-0.5000 0.1790 0.0000 (  2791 PWs)   bands (ev):

   -17.2728 -12.8180  -8.4212  -5.5321  -0.1448   4.1880   5.6838   6.2744

     occupation numbers 
     1.0000   1.0000   1.0000   1.0000   0.0000   0.0000   0.0000   0.0000

          k =-0.5000 0.2386 0.0000 (  2788 PWs)   bands (ev):

   -17.1495 -13.3014  -7.8061  -5.4432  -0.4395   3.7791   5.9954   6.7022

     occupation numbers 
     1.0000   1.0000   1.0000   1.0000   0.0000   0.0000   0.0000   0.0000

          k =-0.5000 0.2983 0.0000 (  2781 PWs)   bands (ev):

   -17.0476 -13.6223  -7.3853  -5.3739  -0.6491   3.4366   6.4489   7.2303

     occupation numbers 
     1.0000   1.0000   1.0000   1.0000   0.0000   0.0000   0.0000   0.0000

          k =-0.4583 0.3281 0.0000 (  2783 PWs)   bands (ev):

   -17.1373 -13.5529  -7.2148  -5.4610  -0.5670   3.2937   6.1399   6.9156

     occupation numbers 
     1.0000   1.0000   1.0000   1.0000   0.0000   0.0000   0.0000   0.0000

          k =-0.4583 0.3878 0.0000 (  2788 PWs)   bands (ev):

   -16.9969 -13.6971  -7.3434  -5.3274  -0.7116   3.3960   6.7746   7.3120

     occupation numbers 
     1.0000   1.0000   1.0000   1.0000   0.0000   0.0000   0.0000   0.0000

          k =-0.4583 0.4474 0.0000 (  2796 PWs)   bands (ev):

   -16.9339 -13.6175  -7.7484  -5.2447  -0.7094   3.7131   6.8081   7.5735

     occupation numbers 
     1.0000   1.0000   1.0000   1.0000   0.0000   0.0000   0.0000   0.0000

          k =-0.4583 0.5071 0.0000 (  2795 PWs)   bands (ev):

   -16.9462 -13.3195  -8.3578  -5.2152  -0.5750   4.1121   6.4804   7.1108

     occupation numbers 
     1.0000   1.0000   1.0000   1.0000   0.0000   0.0000   0.0000   0.0000

          k =-0.4583 0.5668 0.0000 (  2801 PWs)   bands (ev):

   -16.9994 -12.8442  -9.0893  -5.2232  -0.3590   4.4359   6.2671   6.7161

     occupation numbers 
     1.0000   1.0000   1.0000   1.0000   0.0000   0.0000   0.0000   0.0000

          k =-0.4583 0.6264 0.0000 (  2792 PWs)   bands (ev):

   -17.0557 -12.2441  -9.8692  -5.2450  -0.1389   4.6072   6.1526   6.4281

     occupation numbers 
     1.0000   1.0000   1.0000   1.0000   0.0000   0.0000   0.0000   0.0000

          k =-0.4583 0.6861 0.0000 (  2795 PWs)   bands (ev):

   -17.0897 -11.6036 -10.6024  -5.2611   0.0006   4.6644   6.1023   6.2712

     occupation numbers 
     1.0000   1.0000   1.0000   1.0000   0.0000   0.0000   0.0000   0.0000

          k =-0.4583 0.7457 0.0000 (  2795 PWs)   bands (ev):

   -17.0896 -11.6052 -10.6007  -5.2610   0.0003   4.6641   6.1022   6.2713

     occupation numbers 
     1.0000   1.0000   1.0000   1.0000   0.0000   0.0000   0.0000   0.0000

          k =-0.4583 0.8054 0.0000 (  2792 PWs)   bands (ev):

   -17.0555 -12.2462  -9.8671  -5.2446  -0.1398   4.6062   6.1525   6.4282

     occupation numbers 
     1.0000   1.0000   1.0000   1.0000   0.0000   0.0000   0.0000   0.0000

          k =-0.4583 0.8651 0.0000 (  2801 PWs)   bands (ev):

   -16.9991 -12.8463  -9.0870  -5.2225  -0.3604   4.4342   6.2671   6.7161

     occupation numbers 
     1.0000   1.0000   1.0000   1.0000   0.0000   0.0000   0.0000   0.0000

          k =-0.4583 0.9247 0.0000 (  2795 PWs)   bands (ev):

   -16.9457 -13.3218  -8.3553  -5.2142  -0.5768   4.1102   6.4805   7.1109

     occupation numbers 
     1.0000   1.0000   1.0000   1.0000   0.0000   0.0000   0.0000   0.0000

          k =-0.4583 0.9844 0.0000 (  2796 PWs)   bands (ev):

   -16.9334 -13.6198  -7.7458  -5.2436  -0.7115   3.7112   6.8084   7.5733

     occupation numbers 
     1.0000   1.0000   1.0000   1.0000   0.0000   0.0000   0.0000   0.0000

          k =-0.4583-0.3878 0.0000 (  2788 PWs)   bands (ev):

   -16.9963 -13.6994  -7.3406  -5.3262  -0.7137   3.3942   6.7746   7.3122

     occupation numbers 
     1.0000   1.0000   1.0000   1.0000   0.0000   0.0000   0.0000   0.0000

          k =-0.4583-0.3281 0.0000 (  2783 PWs)   bands (ev):

   -17.1369 -13.5552  -7.2120  -5.4599  -0.5690   3.2920   6.1399   6.9155

     occupation numbers 
     1.0000   1.0000   1.0000   1.0000   0.0000   0.0000   0.0000   0.0000

          k =-0.4583-0.2685 0.0000 (  2775 PWs)   bands (ev):

   -17.3223 -13.2198  -7.3846  -5.6244  -0.2970   3.4486   5.6020   6.3427

     occupation numbers 
     1.0000   1.0000   1.0000   1.0000   0.0000   0.0000   0.0000   0.0000

          k =-0.4583-0.2088 0.0000 (  2785 PWs)   bands (ev):

   -17.5119 -12.7370  -7.8188  -5.7925   0.0592   3.7956   5.1965   5.8716

     occupation numbers 
     1.0000   1.0000   1.0000   1.0000   0.0000   0.0000   0.0000   0.0000

          k =-0.4583-0.1491 0.0000 (  2784 PWs)   bands (ev):

   -17.6745 -12.1438  -8.4366  -5.9392   0.4402   4.1463   4.9838   5.5052

     occupation numbers 
     1.0000   1.0000   1.0000   1.0000   0.0000   0.0000   0.0000   0.0000

          k =-0.4583-0.0895 0.0000 (  2778 PWs)   bands (ev):

   -17.7914 -11.4704  -9.1575  -6.0463   0.7712   4.2573   5.0308   5.2486

     occupation numbers 
     1.0000   1.0000   1.0000   1.0000   0.0000   0.0000   0.0000   0.0000

          k =-0.4583-0.0298 0.0000 (  2782 PWs)   bands (ev):

   -17.8520 -10.7599  -9.9011  -6.1026   0.9681   4.2308   5.1053   5.1136

     occupation numbers 
     1.0000   1.0000   1.0000   1.0000   0.0000   0.0000   0.0000   0.0000

          k =-0.4583 0.0298 0.0000 (  2782 PWs)   bands (ev):

   -17.8521 -10.7580  -9.9030  -6.1027   0.9684   4.2310   5.1055   5.1136

     occupation numbers 
     1.0000   1.0000   1.0000   1.0000   0.0000   0.0000   0.0000   0.0000

          k =-0.4583 0.0895 0.0000 (  2778 PWs)   bands (ev):

   -17.7914 -11.4683  -9.1598  -6.0466   0.7720   4.2578   5.0314   5.2487

     occupation numbers 
     1.0000   1.0000   1.0000   1.0000   0.0000   0.0000   0.0000   0.0000

          k =-0.4583 0.1491 0.0000 (  2784 PWs)   bands (ev):

   -17.6747 -12.1417  -8.4391  -5.9397   0.4414   4.1475   4.9840   5.5053

     occupation numbers 
     1.0000   1.0000   1.0000   1.0000   0.0000   0.0000   0.0000   0.0000

          k =-0.4583 0.2088 0.0000 (  2785 PWs)   bands (ev):

   -17.5121 -12.7350  -7.8214  -5.7932   0.0608   3.7972   5.1965   5.8716

     occupation numbers 
     1.0000   1.0000   1.0000   1.0000   0.0000   0.0000   0.0000   0.0000

          k =-0.4583 0.2685 0.0000 (  2775 PWs)   bands (ev):

   -17.3227 -13.2177  -7.3874  -5.6253  -0.2951   3.4503   5.6020   6.3426

     occupation numbers 
     1.0000   1.0000   1.0000   1.0000   0.0000   0.0000   0.0000   0.0000

          k =-0.4167 0.2983 0.0000 (  2781 PWs)   bands (ev):

   -17.4602 -13.0714  -7.1570  -5.7587  -0.1377   3.2581   5.2932   6.0496

     occupation numbers 
     1.0000   1.0000   1.0000   1.0000   0.0000   0.0000   0.0000   0.0000

          k =-0.4167 0.3580 0.0000 (  2782 PWs)   bands (ev):

   -17.1985 -13.4137  -7.2628  -5.5039  -0.4630   3.3288   5.9002   6.6701

     occupation numbers 
     1.0000   1.0000   1.0000   1.0000   0.0000   0.0000   0.0000   0.0000

          k =-0.4167 0.4176 0.0000 (  2796 PWs)   bands (ev):

   -16.9648 -13.5826  -7.6499  -5.2669  -0.6749   3.6053   6.6134   7.3766

     occupation numbers 
     1.0000   1.0000   1.0000   1.0000   0.0000   0.0000   0.0000   0.0000

          k =-0.4167 0.4773 0.0000 (  2802 PWs)   bands (ev):

   -16.7996 -13.5394  -8.2503  -5.0751  -0.7546   3.9562   7.1710   7.4984

     occupation numbers 
     1.0000   1.0000   1.0000   1.0000   0.0000   0.0000   0.0000   0.0000

          k =-0.4167 0.5369 0.0000 (  2801 PWs)   bands (ev):

   -16.7186 -13.2737  -8.9819  -4.9444  -0.7119   4.2348   7.0703   7.5157

     occupation numbers 
     1.0000   1.0000   1.0000   1.0000   0.0000   0.0000   0.0000   0.0000

          k =-0.4167 0.5966 0.0000 (  2803 PWs)   bands (ev):

   -16.6996 -12.8197  -9.7701  -4.8711  -0.5934   4.3829   6.9247   7.1345

     occupation numbers 
     1.0000   1.0000   1.0000   1.0000   0.0000   0.0000   0.0000   0.0000

          k =-0.4167 0.6563 0.0000 (  2803 PWs)   bands (ev):

   -16.7060 -12.2479 -10.5398  -4.8382  -0.4734   4.4376   6.8134   6.8723

     occupation numbers 
     1.0000   1.0000   1.0000   1.0000   0.0000   0.0000   0.0000   0.0000

          k =-0.4167 0.7159 0.0000 (  2802 PWs)   bands (ev):

   -16.7111 -11.8288 -11.0243  -4.8293  -0.4236   4.4494   6.7733   6.7769

     occupation numbers 
     1.0000   1.0000   1.0000   1.0000   0.0000   0.0000   0.0000   0.0000

          k =-0.4167 0.7756 0.0000 (  2803 PWs)   bands (ev):

   -16.7059 -12.2499 -10.5378  -4.8378  -0.4741   4.4370   6.8134   6.8724

     occupation numbers 
     1.0000   1.0000   1.0000   1.0000   0.0000   0.0000   0.0000   0.0000

          k =-0.4167 0.8352 0.0000 (  2803 PWs)   bands (ev):

   -16.6993 -12.8219  -9.7679  -4.8704  -0.5948   4.3816   6.9246   7.1347

     occupation numbers 
     1.0000   1.0000   1.0000   1.0000   0.0000   0.0000   0.0000   0.0000

          k =-0.4167 0.8949 0.0000 (  2801 PWs)   bands (ev):

   -16.7181 -13.2761  -8.9796  -4.9435  -0.7136   4.2329   7.0706   7.5159

     occupation numbers 
     1.0000   1.0000   1.0000   1.0000   0.0000   0.0000   0.0000   0.0000

          k =-0.4167 0.9546 0.0000 (  2802 PWs)   bands (ev):

   -16.7990 -13.5418  -8.2478  -5.0740  -0.7566   3.9540   7.1719   7.4982

     occupation numbers 
     1.0000   1.0000   1.0000   1.0000   0.0000   0.0000   0.0000   0.0000

          k =-0.4167-0.4176 0.0000 (  2796 PWs)   bands (ev):

   -16.9643 -13.5849  -7.6472  -5.2657  -0.6770   3.6031   6.6134   7.3781

     occupation numbers 
     1.0000   1.0000   1.0000   1.0000   0.0000   0.0000   0.0000   0.0000

          k =-0.4167-0.3580 0.0000 (  2782 PWs)   bands (ev):

   -17.1981 -13.4159  -7.2599  -5.5029  -0.4650   3.3268   5.9002   6.6701

     occupation numbers 
     1.0000   1.0000   1.0000   1.0000   0.0000   0.0000   0.0000   0.0000

          k =-0.4167-0.2983 0.0000 (  2781 PWs)   bands (ev):

   -17.4599 -13.0735  -7.1542  -5.7579  -0.1395   3.2563   5.2932   6.0496

     occupation numbers 
     1.0000   1.0000   1.0000   1.0000   0.0000   0.0000   0.0000   0.0000

          k =-0.4167-0.2386 0.0000 (  2781 PWs)   bands (ev):

   -17.7113 -12.5976  -7.3466  -6.0021   0.2645   3.4266   4.8089   5.5314

     occupation numbers 
     1.0000   1.0000   1.0000   1.0000   0.0000   0.0000   0.0000   0.0000

          k =-0.4167-0.1790 0.0000 (  2770 PWs)   bands (ev):

   -17.9258 -12.0189  -7.7911  -6.2126   0.7001   3.7361   4.4908   5.1173

     occupation numbers 
     1.0000   1.0000   1.0000   1.0000   0.0000   0.0000   0.0000   0.0000

          k =-0.4167-0.1193 0.0000 (  2767 PWs)   bands (ev):

   -18.0877 -11.3616  -8.4086  -6.3731   1.1062   3.8691   4.5061   4.8107

     occupation numbers 
     1.0000   1.0000   1.0000   1.0000   0.0000   0.0000   0.0000   0.0000

          k =-0.4167-0.0597 0.0000 (  2772 PWs)   bands (ev):

   -18.1879 -10.6501  -9.1200  -6.4733   1.4050   3.7922   4.6175   4.6583

     occupation numbers 
     1.0000   1.0000   1.0000   1.0000   0.0000   0.0000   0.0000   0.0000

          k =-0.4167 0.0000 0.0000 (  2764 PWs)   bands (ev):

   -18.2217 -10.0158  -9.7582  -6.5073   1.5171   3.7518   4.5505   4.6804

     occupation numbers 
     1.0000   1.0000   1.0000   1.0000   0.0000   0.0000   0.0000   0.0000

          k =-0.4167 0.0597 0.0000 (  2772 PWs)   bands (ev):

   -18.1879 -10.6480  -9.1223  -6.4734   1.4054   3.7923   4.6175   4.6587

     occupation numbers 
     1.0000   1.0000   1.0000   1.0000   0.0000   0.0000   0.0000   0.0000

          k =-0.4167 0.1193 0.0000 (  2767 PWs)   bands (ev):

   -18.0878 -11.3596  -8.4111  -6.3734   1.1071   3.8696   4.5068   4.8107

     occupation numbers 
     1.0000   1.0000   1.0000   1.0000   0.0000   0.0000   0.0000   0.0000

          k =-0.4167 0.1790 0.0000 (  2770 PWs)   bands (ev):

   -17.9260 -12.0168  -7.7937  -6.2130   0.7013   3.7375   4.4909   5.1173

     occupation numbers 
     1.0000   1.0000   1.0000   1.0000   0.0000   0.0000   0.0000   0.0000

          k =-0.4167 0.2386 0.0000 (  2781 PWs)   bands (ev):

   -17.7115 -12.5955  -7.3494  -6.0028   0.2660   3.4283   4.8089   5.5310

     occupation numbers 
     1.0000   1.0000   1.0000   1.0000   0.0000   0.0000   0.0000   0.0000

          k =-0.3750 0.2685 0.0000 (  2777 PWs)   bands (ev):

   -17.8662 -12.4033  -7.0624  -6.1578   0.4731   3.1867   4.5145   5.5444

     occupation numbers 
     1.0000   1.0000   1.0000   1.0000   0.0000   0.0000   0.0000   0.0000

          k =-0.3750 0.3281 0.0000 (  2780 PWs)   bands (ev):

   -17.5572 -12.8687  -7.1458  -5.8408   0.0302   3.2270   5.0673   5.8300

     occupation numbers 
     1.0000   1.0000   1.0000   1.0000   0.0000   0.0000   0.0000   0.0000

          k =-0.3750 0.3878 0.0000 (  2790 PWs)   bands (ev):

   -17.2262 -13.2130  -7.5133  -5.5008  -0.3448   3.4492   5.7378   6.4984

     occupation numbers 
     1.0000   1.0000   1.0000   1.0000   0.0000   0.0000   0.0000   0.0000

          k =-0.3750 0.4474 0.0000 (  2804 PWs)   bands (ev):

   -16.9078 -13.4022  -8.1016  -5.1653  -0.6262   3.7217   6.5175   7.2703

     occupation numbers 
     1.0000   1.0000   1.0000   1.0000   0.0000   0.0000   0.0000   0.0000

          k =-0.3750 0.5071 0.0000 (  2801 PWs)   bands (ev):

   -16.6459 -13.3966  -8.8293  -4.8667  -0.7987   3.9093   7.3886   7.6405

     occupation numbers 
     1.0000   1.0000   1.0000   1.0000   0.0000   0.0000   0.0000   0.0000

          k =-0.3750 0.5668 0.0000 (  2804 PWs)   bands (ev):

   -16.4724 -13.1747  -9.6205  -4.6339  -0.8660   3.9814   7.7658   7.7720

     occupation numbers 
     1.0000   1.0000   1.0000   1.0000   0.0000   0.0000   0.0000   0.0000

          k =-0.3750 0.6264 0.0000 (  2809 PWs)   bands (ev):

   -16.3837 -12.7658 -10.4044  -4.4819  -0.8606   3.9881   7.4090   7.6442

     occupation numbers 
     1.0000   1.0000   1.0000   1.0000   0.0000   0.0000   0.0000   0.0000

          k =-0.3750 0.6861 0.0000 (  2805 PWs)   bands (ev):

   -16.3506 -12.2985 -11.0541  -4.4092  -0.8363   3.9793   7.1942   7.5555

     occupation numbers 
     1.0000   1.0000   1.0000   1.0000   0.0000   0.0000   0.0000   0.0000

          k =-0.3750 0.7457 0.0000 (  2805 PWs)   bands (ev):

   -16.3505 -12.2999 -11.0528  -4.4090  -0.8367   3.9790   7.1943   7.5555

     occupation numbers 
     1.0000   1.0000   1.0000   1.0000   0.0000   0.0000   0.0000   0.0000

          k =-0.3750 0.8054 0.0000 (  2809 PWs)   bands (ev):

   -16.3833 -12.7680 -10.4023  -4.4813  -0.8618   3.9873   7.4093   7.6441

     occupation numbers 
     1.0000   1.0000   1.0000   1.0000   0.0000   0.0000   0.0000   0.0000

          k =-0.3750 0.8651 0.0000 (  2804 PWs)   bands (ev):

   -16.4719 -13.1771  -9.6181  -4.6329  -0.8677   3.9799   7.7660   7.7725

     occupation numbers 
     1.0000   1.0000   1.0000   1.0000   0.0000   0.0000   0.0000   0.0000

          k =-0.3750 0.9247 0.0000 (  2801 PWs)   bands (ev):

   -16.6453 -13.3990  -8.8268  -4.8656  -0.8006   3.9073   7.3886   7.6426

     occupation numbers 
     1.0000   1.0000   1.0000   1.0000   0.0000   0.0000   0.0000   0.0000

          k =-0.3750-0.4474 0.0000 (  2804 PWs)   bands (ev):

   -16.9073 -13.4045  -8.0990  -5.1643  -0.6282   3.7193   6.5174   7.2732

     occupation numbers 
     1.0000   1.0000   1.0000   1.0000   0.0000   0.0000   0.0000   0.0000

          k =-0.3750-0.3878 0.0000 (  2790 PWs)   bands (ev):

   -17.2258 -13.2152  -7.5105  -5.4999  -0.3467   3.4468   5.7377   6.4985

     occupation numbers 
     1.0000   1.0000   1.0000   1.0000   0.0000   0.0000   0.0000   0.0000

          k =-0.3750-0.3281 0.0000 (  2780 PWs)   bands (ev):

   -17.5569 -12.8708  -7.1429  -5.8400   0.0285   3.2248   5.0673   5.8301

     occupation numbers 
     1.0000   1.0000   1.0000   1.0000   0.0000   0.0000   0.0000   0.0000

          k =-0.3750-0.2685 0.0000 (  2777 PWs)   bands (ev):

   -17.8660 -12.4054  -7.0595  -6.1572   0.4716   3.1848   4.5145   5.2622

     occupation numbers 
     1.0000   1.0000   1.0000   1.0000   0.0000   0.0000   0.0000   0.0000

          k =-0.3750-0.2088 0.0000 (  2779 PWs)   bands (ev):

   -18.1309 -11.8442  -7.2692  -6.4307   0.9481   3.3479   4.1019   4.7994

     occupation numbers 
     1.0000   1.0000   1.0000   1.0000   0.0000   0.0000   0.0000   0.0000

          k =-0.3750-0.1491 0.0000 (  2761 PWs)   bands (ev):

   -18.3381 -11.2071  -7.7209  -6.6462   1.4113   3.4915   3.9824   4.4428

     occupation numbers 
     1.0000   1.0000   1.0000   1.0000   0.0000   0.0000   0.0000   0.0000

          k =-0.3750-0.0895 0.0000 (  2758 PWs)   bands (ev):

   -18.4798 -10.5135  -8.3355  -6.7946   1.7968   3.3781   4.1896   4.1944

     occupation numbers 
     1.0000   1.0000   1.0000   1.0000   0.0000   0.0000   0.0000   0.0000

          k =-0.3750-0.0298 0.0000 (  2768 PWs)   bands (ev):

   -18.5516  -9.7882  -9.0355  -6.8702   2.0238   3.2852   4.0630   4.2338

     occupation numbers 
     1.0000   1.0000   1.0000   1.0000   0.0000   0.0000   0.0000   0.0000

          k =-0.3750 0.0298 0.0000 (  2768 PWs)   bands (ev):

   -18.5517  -9.7859  -9.0378  -6.8702   2.0240   3.2852   4.0630   4.2339

     occupation numbers 
     1.0000   1.0000   1.0000   1.0000   0.0000   0.0000   0.0000   0.0000

          k =-0.3750 0.0895 0.0000 (  2758 PWs)   bands (ev):

   -18.4799 -10.5114  -8.3380  -6.7948   1.7974   3.3783   4.1903   4.1945

     occupation numbers 
     1.0000   1.0000   1.0000   1.0000   0.0000   0.0000   0.0000   0.0000

          k =-0.3750 0.1491 0.0000 (  2761 PWs)   bands (ev):

   -18.3382 -11.2050  -7.7236  -6.6465   1.4122   3.4923   3.9831   4.4429

     occupation numbers 
     1.0000   1.0000   1.0000   1.0000   0.0000   0.0000   0.0000   0.0000

          k =-0.3750 0.2088 0.0000 (  2779 PWs)   bands (ev):

   -18.1310 -11.8421  -7.2721  -6.4312   0.9493   3.3496   4.1020   4.8001

     occupation numbers 
     1.0000   1.0000   1.0000   1.0000   0.0000   0.0000   0.0000   0.0000

          k =-0.3333 0.2386 0.0000 (  2770 PWs)   bands (ev):

   -18.2862 -11.6220  -6.9335  -6.5909   1.1861   3.0628   3.8177   4.5570

     occupation numbers 
     1.0000   1.0000   1.0000   1.0000   0.0000   0.0000   0.0000   0.0000

          k =-0.3333 0.2983 0.0000 (  2773 PWs)   bands (ev):

   -17.9728 -12.1651  -6.9963  -6.2559   0.6779   3.0766   4.3083   5.0693

     occupation numbers 
     1.0000   1.0000   1.0000   1.0000   0.0000   0.0000   0.0000   0.0000

          k =-0.3333 0.3580 0.0000 (  2786 PWs)   bands (ev):

   -17.6096 -12.6191  -7.3431  -5.8696   0.1992   3.2317   4.9249   5.6867

     occupation numbers 
     1.0000   1.0000   1.0000   1.0000   0.0000   0.0000   0.0000   0.0000

          k =-0.3333 0.4176 0.0000 (  2792 PWs)   bands (ev):

   -17.2157 -12.9640  -7.9161  -5.4498  -0.2267   3.4013   5.6557   6.4019

     occupation numbers 
     1.0000   1.0000   1.0000   1.0000   0.0000   0.0000   0.0000   0.0000

          k =-0.3333 0.4773 0.0000 (  2795 PWs)   bands (ev):

   -16.8217 -13.1725  -8.6353  -5.0219  -0.5840   3.4744   6.4941   7.4380

     occupation numbers 
     1.0000   1.0000   1.0000   1.0000   0.0000   0.0000   0.0000   0.0000

          k =-0.3333 0.5369 0.0000 (  2812 PWs)   bands (ev):

   -16.4721 -13.2097  -9.4237  -4.6204  -0.8620   3.4526   7.4313   8.2111

     occupation numbers 
     1.0000   1.0000   1.0000   1.0000   0.0000   0.0000   0.0000   0.0000

          k =-0.3333 0.5966 0.0000 (  2802 PWs)   bands (ev):

   -16.2132 -13.0515 -10.2108  -4.2869  -1.0559   3.3938   7.7932   8.4237

     occupation numbers 
     1.0000   1.0000   1.0000   1.0000   0.0000   0.0000   0.0000   0.0000

          k =-0.3333 0.6563 0.0000 (  2811 PWs)   bands (ev):

   -16.0659 -12.7392 -10.9037  -4.0648  -1.1675   3.3429   7.5130   8.4335

     occupation numbers 
     1.0000   1.0000   1.0000   1.0000   0.0000   0.0000   0.0000   0.0000

          k =-0.3333 0.7159 0.0000 (  2806 PWs)   bands (ev):

   -16.0200 -12.5210 -11.2472  -3.9865  -1.2036   3.3235   7.4006   8.3863

     occupation numbers 
     1.0000   1.0000   1.0000   1.0000   0.0000   0.0000   0.0000   0.0000

          k =-0.3333 0.7756 0.0000 (  2811 PWs)   bands (ev):

   -16.0656 -12.7411 -10.9019  -4.0643  -1.1684   3.3424   7.5134   8.4335

     occupation numbers 
     1.0000   1.0000   1.0000   1.0000   0.0000   0.0000   0.0000   0.0000

          k =-0.3333 0.8352 0.0000 (  2802 PWs)   bands (ev):

   -16.2128 -13.0539 -10.2085  -4.2860  -1.0575   3.3928   7.7938   8.4236

     occupation numbers 
     1.0000   1.0000   1.0000   1.0000   0.0000   0.0000   0.0000   0.0000

          k =-0.3333 0.8949 0.0000 (  2812 PWs)   bands (ev):

   -16.4716 -13.2122  -9.4213  -4.6193  -0.8639   3.4511   7.4311   8.2144

     occupation numbers 
     1.0000   1.0000   1.0000   1.0000   0.0000   0.0000   0.0000   0.0000

          k =-0.3333-0.4773 0.0000 (  2795 PWs)   bands (ev):

   -16.8213 -13.1749  -8.6327  -5.0209  -0.5859   3.4723   6.4940   7.4416

     occupation numbers 
     1.0000   1.0000   1.0000   1.0000   0.0000   0.0000   0.0000   0.0000

          k =-0.3333-0.4176 0.0000 (  2792 PWs)   bands (ev):

   -17.2154 -12.9663  -7.9134  -5.4489  -0.2286   3.3988   5.6557   6.4021

     occupation numbers 
     1.0000   1.0000   1.0000   1.0000   0.0000   0.0000   0.0000   0.0000

          k =-0.3333-0.3580 0.0000 (  2786 PWs)   bands (ev):

   -17.6094 -12.6212  -7.3402  -5.8688   0.1975   3.2291   4.9249   5.6867

     occupation numbers 
     1.0000   1.0000   1.0000   1.0000   0.0000   0.0000   0.0000   0.0000

          k =-0.3333-0.2983 0.0000 (  2773 PWs)   bands (ev):

   -17.9726 -12.1672  -6.9932  -6.2553   0.6764   3.0742   4.3083   5.0693

     occupation numbers 
     1.0000   1.0000   1.0000   1.0000   0.0000   0.0000   0.0000   0.0000

          k =-0.3333-0.2386 0.0000 (  2770 PWs)   bands (ev):

   -18.2861 -11.6241  -6.9304  -6.5904   1.1849   3.0607   3.8177   4.5569

     occupation numbers 
     1.0000   1.0000   1.0000   1.0000   0.0000   0.0000   0.0000   0.0000

          k =-0.3333-0.1790 0.0000 (  2758 PWs)   bands (ev):

   -18.5384 -11.0084  -7.1542  -6.8615   1.6892   3.1509   3.5355   4.1514

     occupation numbers 
     1.0000   1.0000   1.0000   1.0000   0.0000   0.0000   0.0000   0.0000

          k =-0.3333-0.1193 0.0000 (  2759 PWs)   bands (ev):

   -18.7225 -10.3367  -7.6096  -7.0604   2.1405   3.0247   3.6915   3.8518

     occupation numbers 
     1.0000   1.0000   1.0000   1.0000   0.0000   0.0000   0.0000   0.0000

          k =-0.3333-0.0597 0.0000 (  2763 PWs)   bands (ev):

   -18.8344  -9.6288  -8.2183  -7.1816   2.4714   2.8782   3.6591   3.8095

     occupation numbers 
     1.0000   1.0000   1.0000   1.0000   0.0000   0.0000   0.0000   0.0000

          k =-0.3333 0.0000 0.0000 (  2774 PWs)   bands (ev):

   -18.8719  -8.9195  -8.9000  -7.2224   2.5983   2.8259   3.5888   3.7970

     occupation numbers 
     1.0000   1.0000   1.0000   1.0000   0.0000   0.0000   0.0000   0.0000

          k =-0.3333 0.0597 0.0000 (  2763 PWs)   bands (ev):

   -18.8344  -9.6265  -8.2209  -7.1817   2.4717   2.8782   3.6592   3.8098

     occupation numbers 
     1.0000   1.0000   1.0000   1.0000   0.0000   0.0000   0.0000   0.0000

          k =-0.3333 0.1193 0.0000 (  2759 PWs)   bands (ev):

   -18.7225 -10.3345  -7.6124  -7.0606   2.1412   3.0249   3.6926   3.8519

     occupation numbers 
     1.0000   1.0000   1.0000   1.0000   0.0000   0.0000   0.0000   0.0000

          k =-0.3333 0.1790 0.0000 (  2758 PWs)   bands (ev):

   -18.5384 -11.0063  -7.1571  -6.8618   1.6902   3.1522   3.5361   4.1514

     occupation numbers 
     1.0000   1.0000   1.0000   1.0000   0.0000   0.0000   0.0000   0.0000

          k =-0.2917 0.2088 0.0000 (  2758 PWs)   bands (ev):

   -18.6856 -10.7688  -7.0161  -6.7739   1.9404   2.8605   3.2193   3.9394

     occupation numbers 
     1.0000   1.0000   1.0000   1.0000   0.0000   0.0000   0.0000   0.0000

          k =-0.2917 0.2685 0.0000 (  2777 PWs)   bands (ev):

   -18.3890 -11.3642  -6.8191  -6.6900   1.4068   2.8630   3.6289   4.3921

     occupation numbers 
     1.0000   1.0000   1.0000   1.0000   0.0000   0.0000   0.0000   0.0000

          k =-0.2917 0.3281 0.0000 (  2779 PWs)   bands (ev):

   -18.0285 -11.8910  -7.1456  -6.2954   0.8697   2.9407   4.1887   4.9541

     occupation numbers 
     1.0000   1.0000   1.0000   1.0000   0.0000   0.0000   0.0000   0.0000

          k =-0.2917 0.3878 0.0000 (  2779 PWs)   bands (ev):

   -17.6144 -12.3364  -7.7005  -5.8433   0.3529   2.9959   4.8661   5.6208

     occupation numbers 
     1.0000   1.0000   1.0000   1.0000   0.0000   0.0000   0.0000   0.0000

          k =-0.2917 0.4474 0.0000 (  2793 PWs)   bands (ev):

   -17.1632 -12.6863  -8.4064  -5.3495  -0.1301   2.9546   5.6536   6.3808

     occupation numbers 
     1.0000   1.0000   1.0000   1.0000   0.0000   0.0000   0.0000   0.0000

          k =-0.2917 0.5071 0.0000 (  2809 PWs)   bands (ev):

   -16.7024 -12.9221  -9.1855  -4.8362  -0.5723   2.8433   6.5466   7.1906

     occupation numbers 
     1.0000   1.0000   1.0000   1.0000   0.0000   0.0000   0.0000   0.0000

          k =-0.2917 0.5668 0.0000 (  2806 PWs)   bands (ev):

   -16.2768 -13.0203  -9.9662  -4.3373  -0.9676   2.7181   7.5373   7.7979

     occupation numbers 
     1.0000   1.0000   1.0000   1.0000   0.0000   0.0000   0.0000   0.0000

          k =-0.2917 0.6264 0.0000 (  2807 PWs)   bands (ev):

   -15.9475 -12.9689 -10.6658  -3.9071  -1.2974   2.6179   7.7568   8.6020

     occupation numbers 
     1.0000   1.0000   1.0000   1.0000   0.0000   0.0000   0.0000   0.0000

          k =-0.2917 0.6861 0.0000 (  2801 PWs)   bands (ev):

   -15.7701 -12.8381 -11.1380  -3.6372  -1.5057   2.5634   7.5907   9.2957

     occupation numbers 
     1.0000   1.0000   1.0000   1.0000   0.0000   0.0000   0.0000   0.0000

          k =-0.2917 0.7457 0.0000 (  2801 PWs)   bands (ev):

   -15.7699 -12.8391 -11.1370  -3.6368  -1.5063   2.5632   7.5909   9.2957

     occupation numbers 
     1.0000   1.0000   1.0000   1.0000   0.0000   0.0000   0.0000   0.0000

          k =-0.2917 0.8054 0.0000 (  2807 PWs)   bands (ev):

   -15.9471 -12.9711 -10.6638  -3.9063  -1.2987   2.6173   7.7574   8.6018

     occupation numbers 
     1.0000   1.0000   1.0000   1.0000   0.0000   0.0000   0.0000   0.0000

          k =-0.2917 0.8651 0.0000 (  2806 PWs)   bands (ev):

   -16.2764 -13.0228  -9.9638  -4.3363  -0.9692   2.7171   7.5372   7.7986

     occupation numbers 
     1.0000   1.0000   1.0000   1.0000   0.0000   0.0000   0.0000   0.0000

          k =-0.2917-0.5071 0.0000 (  2809 PWs)   bands (ev):

   -16.7020 -12.9245  -9.1830  -4.8353  -0.5741   2.8418   6.5465   7.1908

     occupation numbers 
     1.0000   1.0000   1.0000   1.0000   0.0000   0.0000   0.0000   0.0000

          k =-0.2917-0.4474 0.0000 (  2793 PWs)   bands (ev):

   -17.1629 -12.6886  -8.4036  -5.3486  -0.1318   2.9527   5.6536   6.3810

     occupation numbers 
     1.0000   1.0000   1.0000   1.0000   0.0000   0.0000   0.0000   0.0000

          k =-0.2917-0.3878 0.0000 (  2779 PWs)   bands (ev):

   -17.6142 -12.3386  -7.6976  -5.8427   0.3513   2.9935   4.8661   5.9097

     occupation numbers 
     1.0000   1.0000   1.0000   1.0000   0.0000   0.0000   0.0000   0.0000

          k =-0.2917-0.3281 0.0000 (  2779 PWs)   bands (ev):

   -18.0284 -11.8931  -7.1425  -6.2949   0.8683   2.9380   4.1887   4.9540

     occupation numbers 
     1.0000   1.0000   1.0000   1.0000   0.0000   0.0000   0.0000   0.0000

          k =-0.2917-0.2685 0.0000 (  2777 PWs)   bands (ev):

   -18.3889 -11.3664  -6.8159  -6.6896   1.4056   2.8604   3.6289   4.3921

     occupation numbers 
     1.0000   1.0000   1.0000   1.0000   0.0000   0.0000   0.0000   0.0000

          k =-0.2917-0.2088 0.0000 (  2758 PWs)   bands (ev):

   -18.6856 -10.7710  -7.0158  -6.7707   1.9394   2.8585   3.2190   3.9393

     occupation numbers 
     1.0000   1.0000   1.0000   1.0000   0.0000   0.0000   0.0000   0.0000

          k =-0.2917-0.1491 0.0000 (  2759 PWs)   bands (ev):

   -18.9124 -10.1214  -7.2661  -7.0039   2.4322   2.7436   3.1940   3.5969

     occupation numbers 
     1.0000   1.0000   1.0000   1.0000   0.0000   0.0000   0.0000   0.0000

          k =-0.2917-0.0895 0.0000 (  2760 PWs)   bands (ev):

   -19.0654  -9.4357  -7.4581  -7.4356   2.5454   2.8313   3.3627   3.3925

     occupation numbers 
     1.0000   1.0000   1.0000   1.0000   0.0000   0.0000   0.0000   0.0000

          k =-0.2917-0.0298 0.0000 (  2760 PWs)   bands (ev):

   -19.1424  -8.7407  -8.0542  -7.5210   2.4378   3.0832   3.2219   3.4039

     occupation numbers 
     1.0000   1.0000   1.0000   1.0000   0.0000   0.0000   0.0000   0.0000

          k =-0.2917 0.0298 0.0000 (  2760 PWs)   bands (ev):

   -19.1424  -8.7382  -8.0569  -7.5210   2.4378   3.0832   3.2221   3.4040

     occupation numbers 
     1.0000   1.0000   1.0000   1.0000   0.0000   0.0000   0.0000   0.0000

          k =-0.2917 0.0895 0.0000 (  2760 PWs)   bands (ev):

   -19.0654  -9.4333  -7.4610  -7.4357   2.5455   2.8317   3.3629   3.3935

     occupation numbers 
     1.0000   1.0000   1.0000   1.0000   0.0000   0.0000   0.0000   0.0000

          k =-0.2917 0.1491 0.0000 (  2759 PWs)   bands (ev):

   -18.9124 -10.1192  -7.2663  -7.0070   2.4329   2.7440   3.1956   3.5970

     occupation numbers 
     1.0000   1.0000   1.0000   1.0000   0.0000   0.0000   0.0000   0.0000

          k =-0.2500 0.1790 0.0000 (  2755 PWs)   bands (ev):

   -19.0472  -9.8721  -7.4095  -6.5879   2.5295   2.6613   2.7681   3.4396

     occupation numbers 
     1.0000   1.0000   1.0000   1.0000   0.0000   0.0000   0.0000   0.0000

          k =-0.2500 0.2386 0.0000 (  2760 PWs)   bands (ev):

   -18.7778 -10.5017  -7.1076  -6.6208   2.1570   2.5824   3.0313   3.8072

     occupation numbers 
     1.0000   1.0000   1.0000   1.0000   0.0000   0.0000   0.0000   0.0000

          k =-0.2500 0.2983 0.0000 (  2775 PWs)   bands (ev):

   -18.4374 -11.0803  -6.9289  -6.7272   1.5994   2.5805   3.5325   4.3054

     occupation numbers 
     1.0000   1.0000   1.0000   1.0000   0.0000   0.0000   0.0000   0.0000

          k =-0.2500 0.3580 0.0000 (  2773 PWs)   bands (ev):

   -18.0316 -11.5966  -7.4641  -6.2752   1.0308   2.5290   4.1552   4.9171

     occupation numbers 
     1.0000   1.0000   1.0000   1.0000   0.0000   0.0000   0.0000   0.0000

          k =-0.2500 0.4176 0.0000 (  2797 PWs)   bands (ev):

   -17.5694 -12.0426  -8.1516  -5.7614   0.4687   2.3907   4.8896   5.6329

     occupation numbers 
     1.0000   1.0000   1.0000   1.0000   0.0000   0.0000   0.0000   0.0000

          k =-0.2500 0.4773 0.0000 (  2809 PWs)   bands (ev):

   -17.0659 -12.4123  -8.9143  -5.1990  -0.0808   2.2033   5.7327   6.7864

     occupation numbers 
     1.0000   1.0000   1.0000   1.0000   0.0000   0.0000   0.0000   0.0000

          k =-0.2500 0.5369 0.0000 (  2804 PWs)   bands (ev):

   -16.5467 -12.7010  -9.6789  -4.6076  -0.6171   2.0173   6.6805   7.2614

     occupation numbers 
     1.0000   1.0000   1.0000   1.0000   0.0000   0.0000   0.0000   0.0000

          k =-0.2500 0.5966 0.0000 (  2802 PWs)   bands (ev):

   -16.0592 -12.9053 -10.3660  -4.0186  -1.1356   1.8667   7.7234   7.8018

     occupation numbers 
     1.0000   1.0000   1.0000   1.0000   0.0000   0.0000   0.0000   0.0000

          k =-0.2500 0.6563 0.0000 (  2791 PWs)   bands (ev):

   -15.6863 -13.0242 -10.8708  -3.4989  -1.5977   1.7702   7.7981   8.8320

     occupation numbers 
     1.0000   1.0000   1.0000   1.0000   0.0000   0.0000   0.0000   0.0000

          k =-0.2500 0.7159 0.0000 (  2788 PWs)   bands (ev):

   -15.5409 -13.0626 -11.0625  -3.2486  -1.8262   1.7371   7.7388   9.7755

     occupation numbers 
     1.0000   1.0000   1.0000   1.0038   0.0000   0.0000   0.0000   0.0000

          k =-0.2500 0.7756 0.0000 (  2791 PWs)   bands (ev):

   -15.6859 -13.0257 -10.8694  -3.4981  -1.5988   1.7700   7.7985   8.8318

     occupation numbers 
     1.0000   1.0000   1.0000   1.0000   0.0000   0.0000   0.0000   0.0000

          k =-0.2500 0.8352 0.0000 (  2802 PWs)   bands (ev):

   -16.0588 -12.9076 -10.3639  -4.0177  -1.1371   1.8661   7.7233   7.8024

     occupation numbers 
     1.0000   1.0000   1.0000   1.0000   0.0000   0.0000   0.0000   0.0000

          k =-0.2500-0.5369 0.0000 (  2804 PWs)   bands (ev):

   -16.5464 -12.7034  -9.6764  -4.6068  -0.6187   2.0164   6.6804   7.2617

     occupation numbers 
     1.0000   1.0000   1.0000   1.0000   0.0000   0.0000   0.0000   0.0000

          k =-0.2500-0.4773 0.0000 (  2809 PWs)   bands (ev):

   -17.0656 -12.4146  -8.9116  -5.1983  -0.0823   2.2020   5.7326   6.4359

     occupation numbers 
     1.0000   1.0000   1.0000   1.0000   0.0000   0.0000   0.0000   0.0000

          k =-0.2500-0.4176 0.0000 (  2797 PWs)   bands (ev):

   -17.5693 -12.0449  -8.1487  -5.7608   0.4672   2.3889   4.8896   5.6330

     occupation numbers 
     1.0000   1.0000   1.0000   1.0000   0.0000   0.0000   0.0000   0.0000

          k =-0.2500-0.3580 0.0000 (  2773 PWs)   bands (ev):

   -18.0315 -11.5989  -7.4610  -6.2747   1.0295   2.5267   4.1552   4.9170

     occupation numbers 
     1.0000   1.0000   1.0000   1.0000   0.0000   0.0000   0.0000   0.0000

          k =-0.2500-0.2983 0.0000 (  2775 PWs)   bands (ev):

   -18.4374 -11.0826  -6.9257  -6.7268   1.5982   2.5778   3.5325   4.3054

     occupation numbers 
     1.0000   1.0000   1.0000   1.0000   0.0000   0.0000   0.0000   0.0000

          k =-0.2500-0.2386 0.0000 (  2760 PWs)   bands (ev):

   -18.7778 -10.5040  -7.1073  -6.6174   2.1560   2.5797   3.0312   3.8070

     occupation numbers 
     1.0000   1.0000   1.0000   1.0000   0.0000   0.0000   0.0000   0.0000

          k =-0.2500-0.1790 0.0000 (  2755 PWs)   bands (ev):

   -19.0471  -9.8745  -7.4092  -6.5846   2.5284   2.6607   2.7666   3.4394

     occupation numbers 
     1.0000   1.0000   1.0000   1.0000   0.0000   0.0000   0.0000   0.0000

          k =-0.2500-0.1193 0.0000 (  2747 PWs)   bands (ev):

   -19.2417  -9.2105  -7.6280  -6.8200   2.2931   2.9149   2.9396   3.3346

     occupation numbers 
     1.0000   1.0000   1.0000   1.0000   0.0000   0.0000   0.0000   0.0000

          k =-0.2500-0.0597 0.0000 (  2761 PWs)   bands (ev):

   -19.3593  -8.5384  -7.7605  -7.2636   2.1288   2.8717   3.0496   3.4088

     occupation numbers 
     1.0000   1.0000   1.0000   1.0000   0.0000   0.0000   0.0000   0.0000

          k =-0.2500 0.0000 0.0000 (  2772 PWs)   bands (ev):

   -19.3987  -7.9979  -7.8049  -7.7340   2.0730   2.8273   3.0411   3.5484

     occupation numbers 
     1.0000   1.0000   1.0000   1.0000   0.0000   0.0000   0.0000   0.0000

          k =-0.2500 0.0597 0.0000 (  2761 PWs)   bands (ev):

   -19.3593  -8.5358  -7.7606  -7.2666   2.1288   2.8716   3.0502   3.4097

     occupation numbers 
     1.0000   1.0000   1.0000   1.0000   0.0000   0.0000   0.0000   0.0000

          k =-0.2500 0.1193 0.0000 (  2747 PWs)   bands (ev):

   -19.2417  -9.2080  -7.6281  -6.8233   2.2933   2.9168   2.9396   3.3353

     occupation numbers 
     1.0000   1.0000   1.0000   1.0000   0.0000   0.0000   0.0000   0.0000

          k =-0.2083 0.1491 0.0000 (  2748 PWs)   bands (ev):

   -19.3615  -8.9598  -7.7565  -6.3797   2.1217   2.4245   2.8261   3.1908

     occupation numbers 
     1.0000   1.0000   1.0000   1.0000   0.0000   0.0000   0.0000   0.0000

          k =-0.2083 0.2088 0.0000 (  2756 PWs)   bands (ev):

   -19.1253  -9.6048  -7.4881  -6.4093   2.2508   2.5145   2.8121   3.3873

     occupation numbers 
     1.0000   1.0000   1.0000   1.0000   0.0000   0.0000   0.0000   0.0000

          k =-0.2083 0.2685 0.0000 (  2766 PWs)   bands (ev):

   -18.8138 -10.2191  -7.1350  -6.7039   2.1782   2.3287   2.9577   3.7526

     occupation numbers 
     1.0000   1.0000   1.0000   1.0000   0.0000   0.0000   0.0000   0.0000

          k =-0.2083 0.3281 0.0000 (  2776 PWs)   bands (ev):

   -18.4305 -10.7888  -7.2193  -6.7018   1.7454   2.0427   3.5255   4.2968

     occupation numbers 
     1.0000   1.0000   1.0000   1.0000   0.0000   0.0000   0.0000   0.0000

          k =-0.2083 0.3878 0.0000 (  2785 PWs)   bands (ev):

   -17.9809 -11.3073  -7.8839  -6.1950   1.1375   1.8308   4.2054   4.9591

     occupation numbers 
     1.0000   1.0000   1.0000   1.0000   0.0000   0.0000   0.0000   0.0000

          k =-0.2083 0.4474 0.0000 (  2796 PWs)   bands (ev):

   -17.4733 -11.7746  -8.6225  -5.6232   0.5199   1.5815   4.9957   5.7242

     occupation numbers 
     1.0000   1.0000   1.0000   1.0000   0.0000   0.0000   0.0000   0.0000

          k =-0.2083 0.5071 0.0000 (  2806 PWs)   bands (ev):

   -16.9221 -12.1985  -9.3609  -4.9984  -0.1053   1.3406   5.8944   6.5685

     occupation numbers 
     1.0000   1.0000   1.0000   1.0000   0.0000   0.0000   0.0000   0.0000

          k =-0.2083 0.5668 0.0000 (  2802 PWs)   bands (ev):

   -16.3532 -12.5932 -10.0214  -4.3368  -0.7398   1.1402   6.8963   7.4056

     occupation numbers 
     1.0000   1.0000   1.0000   1.0000   0.0000   0.0000   0.0000   0.0000

          k =-0.2083 0.6264 0.0000 (  2804 PWs)   bands (ev):

   -15.8220 -12.9621 -10.5207  -3.6657  -1.3772   0.9986   7.9045   7.9892

     occupation numbers 
     1.0000   1.0000   1.0000   1.0000   0.0000   0.0000   0.0000   0.0000

          k =-0.2083 0.6861 0.0000 (  2791 PWs)   bands (ev):

   -15.4556 -13.2335 -10.7875  -3.0718  -1.9492   0.9258   7.9562   9.1302

     occupation numbers 
     1.0000   1.0000   1.0000   1.0307   0.0003   0.0000   0.0000   0.0000

          k =-0.2083 0.7457 0.0000 (  2791 PWs)   bands (ev):

   -15.4554 -13.2342 -10.7870  -3.0711  -1.9499   0.9257   7.9564   9.1300

     occupation numbers 
     1.0000   1.0000   1.0000   1.0308   0.0003   0.0000   0.0000   0.0000

          k =-0.2083 0.8054 0.0000 (  2804 PWs)   bands (ev):

   -15.8216 -12.9638 -10.5191  -3.6649  -1.3784   0.9983   7.9051   7.9891

     occupation numbers 
     1.0000   1.0000   1.0000   1.0000   0.0000   0.0000   0.0000   0.0000

          k =-0.2083-0.5668 0.0000 (  2802 PWs)   bands (ev):

   -16.3529 -12.5954 -10.0192  -4.3361  -0.7411   1.1396   6.8962   7.4060

     occupation numbers 
     1.0000   1.0000   1.0000   1.0000   0.0000   0.0000   0.0000   0.0000

          k =-0.2083-0.5071 0.0000 (  2806 PWs)   bands (ev):

   -16.9219 -12.2009  -9.3583  -4.9978  -0.1066   1.3397   5.8943   6.5686

     occupation numbers 
     1.0000   1.0000   1.0000   1.0000   0.0000   0.0000   0.0000   0.0000

          k =-0.2083-0.4474 0.0000 (  2796 PWs)   bands (ev):

   -17.4732 -11.7770  -8.6197  -5.6227   0.5187   1.5802   4.9957   5.7243

     occupation numbers 
     1.0000   1.0000   1.0000   1.0000   0.0000   0.0000   0.0000   0.0000

          k =-0.2083-0.3878 0.0000 (  2785 PWs)   bands (ev):

   -17.9808 -11.3096  -7.8808  -6.1946   1.1363   1.8292   4.2053   4.9591

     occupation numbers 
     1.0000   1.0000   1.0000   1.0000   0.0000   0.0000   0.0000   0.0000

          k =-0.2083-0.3281 0.0000 (  2776 PWs)   bands (ev):

   -18.4304 -10.7912  -7.2160  -6.7015   1.7443   2.0405   3.5255   4.2967

     occupation numbers 
     1.0000   1.0000   1.0000   1.0000   0.0000   0.0000   0.0000   0.0000

          k =-0.2083-0.2685 0.0000 (  2766 PWs)   bands (ev):

   -18.8137 -10.2215  -7.1347  -6.7004   2.1756   2.3278   2.9578   3.7525

     occupation numbers 
     1.0000   1.0000   1.0000   1.0000   0.0000   0.0000   0.0000   0.0000

          k =-0.2083-0.2088 0.0000 (  2756 PWs)   bands (ev):

   -19.1253  -9.6073  -7.4879  -6.4057   2.2480   2.5144   2.8116   3.3865

     occupation numbers 
     1.0000   1.0000   1.0000   1.0000   0.0000   0.0000   0.0000   0.0000

          k =-0.2083-0.1491 0.0000 (  2748 PWs)   bands (ev):

   -19.3615  -8.9624  -7.7564  -6.3762   2.1213   2.4222   2.8262   3.1909

     occupation numbers 
     1.0000   1.0000   1.0000   1.0000   0.0000   0.0000   0.0000   0.0000

          k =-0.2083-0.0895 0.0000 (  2750 PWs)   bands (ev):

   -19.5202  -8.3118  -7.9371  -6.6010   1.9027   2.6178   2.6431   2.9967

     occupation numbers 
     1.0000   1.0000   1.0000   1.0000   0.0000   0.0000   0.0000   0.0000

          k =-0.2083-0.0298 0.0000 (  2757 PWs)   bands (ev):

   -19.5998  -8.0280  -7.7165  -6.9963   1.7895   2.5393   2.7275   3.0684

     occupation numbers 
     1.0000   1.0000   1.0000   1.0000   0.0000   0.0000   0.0000   0.0000

          k =-0.2083 0.0298 0.0000 (  2757 PWs)   bands (ev):

   -19.5998  -8.0280  -7.7141  -6.9989   1.7895   2.5393   2.7279   3.0694

     occupation numbers 
     1.0000   1.0000   1.0000   1.0000   0.0000   0.0000   0.0000   0.0000

          k =-0.2083 0.0895 0.0000 (  2750 PWs)   bands (ev):

   -19.5202  -8.3091  -7.9372  -6.6044   1.9028   2.6198   2.6430   2.9969

     occupation numbers 
     1.0000   1.0000   1.0000   1.0000   0.0000   0.0000   0.0000   0.0000

          k =-0.1667 0.1193 0.0000 (  2756 PWs)   bands (ev):

   -19.6234  -8.0712  -8.0487  -6.1490   1.7607   2.0891   2.4955   2.8047

     occupation numbers 
     1.0000   1.0000   1.0000   1.0000   0.0000   0.0000   0.0000   0.0000

          k =-0.1667 0.1790 0.0000 (  2750 PWs)   bands (ev):

   -19.4235  -8.7033  -7.8194  -6.1919   1.9027   2.0756   2.7489   3.0897

     occupation numbers 
     1.0000   1.0000   1.0000   1.0000   0.0000   0.0000   0.0000   0.0000

          k =-0.1667 0.2386 0.0000 (  2763 PWs)   bands (ev):

   -19.1459  -9.3347  -7.5014  -6.4829   1.7762   2.4659   2.8983   3.4121

     occupation numbers 
     1.0000   1.0000   1.0000   1.0000   0.0000   0.0000   0.0000   0.0000

          k =-0.1667 0.2983 0.0000 (  2774 PWs)   bands (ev):

   -18.7927  -9.9434  -7.0980  -6.9816   1.5852   2.4395   2.9781   3.7725

     occupation numbers 
     1.0000   1.0000   1.0000   1.0000   0.0000   0.0000   0.0000   0.0000

          k =-0.1667 0.3580 0.0000 (  2783 PWs)   bands (ev):

   -18.3676 -10.5200  -7.6207  -6.6137   1.3225   1.8204   3.6026   4.3667

     occupation numbers 
     1.0000   1.0000   1.0000   1.0000   0.0000   0.0000   0.0000   0.0000

          k =-0.1667 0.4176 0.0000 (  2798 PWs)   bands (ev):

   -17.8758 -11.0665  -8.3278  -6.0549   1.0240   1.1627   4.3386   5.0813

     occupation numbers 
     1.0000   1.0000   1.0000   1.0000   0.0000   0.0000   0.0000   0.0000

          k =-0.1667 0.4773 0.0000 (  2798 PWs)   bands (ev):

   -17.3258 -11.5967  -9.0295  -5.4297   0.4810   0.7339   5.1849   5.8966

     occupation numbers 
     1.0000   1.0000   1.0000   1.0000   0.0000   0.0000   0.0000   0.0000

          k =-0.1667 0.5369 0.0000 (  2806 PWs)   bands (ev):

   -16.7318 -12.1326  -9.6517  -4.7486  -0.2234   0.4846   6.1386   6.7819

     occupation numbers 
     1.0000   1.0000   1.0000   1.0000   0.0000   0.0000   0.0000   0.0000

          k =-0.1667 0.5966 0.0000 (  2800 PWs)   bands (ev):

   -16.1233 -12.6852 -10.1278  -4.0257  -0.9497   0.2961   7.1934   7.6329

     occupation numbers 
     1.0000   1.0000   1.0000   1.0000   0.0000   0.0000   0.0000   0.0000

          k =-0.1667 0.6563 0.0000 (  2795 PWs)   bands (ev):

   -15.5769 -13.1995 -10.4184  -3.2824  -1.6895   0.1794   8.1209   8.3326

     occupation numbers 
     1.0000   1.0000   1.0000   1.0023   0.0000   0.0000   0.0000   0.0000

          k =-0.1667 0.7159 0.0000 (  2786 PWs)   bands (ev):

   -15.3163 -13.4511 -10.5146  -2.6909  -2.2789   0.1400   8.2059   9.3864

     occupation numbers 
     1.0000   1.0000   1.0000   0.9113   0.0605   0.0000   0.0000   0.0000

          k =-0.1667 0.7756 0.0000 (  2795 PWs)   bands (ev):

   -15.5766 -13.2005 -10.4176  -3.2816  -1.6904   0.1793   8.1214   8.3325

     occupation numbers 
     1.0000   1.0000   1.0000   1.0023   0.0000   0.0000   0.0000   0.0000

          k =-0.1667-0.5966 0.0000 (  2800 PWs)   bands (ev):

   -16.1230 -12.6868 -10.1262  -4.0251  -0.9507   0.2957   7.1933   7.6332

     occupation numbers 
     1.0000   1.0000   1.0000   1.0000   0.0000   0.0000   0.0000   0.0000

          k =-0.1667-0.5369 0.0000 (  2806 PWs)   bands (ev):

   -16.7316 -12.1347  -9.6495  -4.7481  -0.2244   0.4840   6.1386   6.7822

     occupation numbers 
     1.0000   1.0000   1.0000   1.0000   0.0000   0.0000   0.0000   0.0000

          k =-0.1667-0.4773 0.0000 (  2798 PWs)   bands (ev):

   -17.3256 -11.5990  -9.0268  -5.4292   0.4799   0.7331   5.1849   5.8963

     occupation numbers 
     1.0000   1.0000   1.0000   1.0000   0.0000   0.0000   0.0000   0.0000

          k =-0.1667-0.4176 0.0000 (  2798 PWs)   bands (ev):

   -17.8758 -11.0690  -8.3248  -6.0545   1.0229   1.1617   4.3386   5.0813

     occupation numbers 
     1.0000   1.0000   1.0000   1.0000   0.0000   0.0000   0.0000   0.0000

          k =-0.1667-0.3580 0.0000 (  2783 PWs)   bands (ev):

   -18.3675 -10.5224  -7.6174  -6.6134   1.3210   1.8194   3.6026   4.3666

     occupation numbers 
     1.0000   1.0000   1.0000   1.0000   0.0000   0.0000   0.0000   0.0000

          k =-0.1667-0.2983 0.0000 (  2774 PWs)   bands (ev):

   -18.7927  -9.9459  -7.0978  -6.9781   1.5832   2.4387   2.9781   3.7724

     occupation numbers 
     1.0000   1.0000   1.0000   1.0000   0.0000   0.0000   0.0000   0.0000

          k =-0.1667-0.2386 0.0000 (  2763 PWs)   bands (ev):

   -19.1458  -9.3373  -7.5012  -6.4792   1.7737   2.4659   2.8980   3.4117

     occupation numbers 
     1.0000   1.0000   1.0000   1.0000   0.0000   0.0000   0.0000   0.0000

          k =-0.1667-0.1790 0.0000 (  2750 PWs)   bands (ev):

   -19.4235  -8.7060  -7.8192  -6.1881   1.9000   2.0755   2.7489   3.0898

     occupation numbers 
     1.0000   1.0000   1.0000   1.0000   0.0000   0.0000   0.0000   0.0000

          k =-0.1667-0.1193 0.0000 (  2756 PWs)   bands (ev):

   -19.6234  -8.0740  -8.0486  -6.1453   1.7605   2.0864   2.4955   2.8048

     occupation numbers 
     1.0000   1.0000   1.0000   1.0000   0.0000   0.0000   0.0000   0.0000

          k =-0.1667-0.0597 0.0000 (  2758 PWs)   bands (ev):

   -19.7439  -8.1871  -7.4904  -6.3283   1.5901   2.3169   2.3336   2.6558

     occupation numbers 
     1.0000   1.0000   1.0000   1.0000   0.0000   0.0000   0.0000   0.0000

          k =-0.1667 0.0000 0.0000 (  2763 PWs)   bands (ev):

   -19.7841  -8.2334  -7.1554  -6.5324   1.5325   2.2789   2.4516   2.7423

     occupation numbers 
     1.0000   1.0000   1.0000   1.0000   0.0000   0.0000   0.0000   0.0000

          k =-0.1667 0.0597 0.0000 (  2758 PWs)   bands (ev):

   -19.7439  -8.1871  -7.4877  -6.3316   1.5902   2.3193   2.3336   2.6559

     occupation numbers 
     1.0000   1.0000   1.0000   1.0000   0.0000   0.0000   0.0000   0.0000

          k =-0.1250 0.0895 0.0000 (  2750 PWs)   bands (ev):

   -19.8295  -8.2803  -7.2749  -5.8817   1.4763   1.7576   2.2111   2.4978

     occupation numbers 
     1.0000   1.0000   1.0000   1.0000   0.0000   0.0000   0.0000   0.0000

          k =-0.1250 0.1491 0.0000 (  2752 PWs)   bands (ev):

   -19.6680  -8.0937  -7.8415  -5.9712   1.5737   1.7173   2.4305   2.7353

     occupation numbers 
     1.0000   1.0000   1.0000   1.0000   0.0000   0.0000   0.0000   0.0000

          k =-0.1250 0.2088 0.0000 (  2765 PWs)   bands (ev):

   -19.4271  -8.4605  -7.8158  -6.2774   1.4179   2.0582   2.7443   3.0829

     occupation numbers 
     1.0000   1.0000   1.0000   1.0000   0.0000   0.0000   0.0000   0.0000

          k =-0.1250 0.2685 0.0000 (  2771 PWs)   bands (ev):

   -19.1084  -9.0893  -7.4490  -6.7680   1.2012   2.5142   2.9580   3.4591

     occupation numbers 
     1.0000   1.0000   1.0000   1.0000   0.0000   0.0000   0.0000   0.0000

          k =-0.1250 0.3281 0.0000 (  2791 PWs)   bands (ev):

   -18.7144  -9.7109  -7.3822  -6.9967   0.9096   2.4665   3.0825   3.8661

     occupation numbers 
     1.0000   1.0000   1.0000   1.0000   0.0000   0.0000   0.0000   0.0000

          k =-0.1250 0.3878 0.0000 (  2798 PWs)   bands (ev):

   -18.2487 -10.3251  -8.0522  -6.4637   0.5751   1.7986   3.7630   4.5168

     occupation numbers 
     1.0000   1.0000   1.0000   1.0000   0.0000   0.0000   0.0000   0.0000

          k =-0.1250 0.4474 0.0000 (  2806 PWs)   bands (ev):

   -17.7168 -10.9465  -8.7083  -5.8562   0.2418   1.0841   4.5552   5.2855

     occupation numbers 
     1.0000   1.0000   1.0000   1.0000   0.0000   0.0000   0.0000   0.0000

          k =-0.1250 0.5071 0.0000 (  2797 PWs)   bands (ev):

   -17.1274 -11.5962  -9.2837  -5.1822  -0.0545   0.3362   5.4571   6.1508

     occupation numbers 
     1.0000   1.0000   1.0000   1.0000   0.0000   0.0000   0.0000   0.0000

          k =-0.1250 0.5668 0.0000 (  2794 PWs)   bands (ev):

   -16.4966 -12.2805  -9.7287  -4.4520  -0.4404  -0.2910   6.4649   7.0783

     occupation numbers 
     1.0000   1.0000   1.0000   1.0000   0.0000   0.0000   0.0000   0.0000

          k =-0.1250 0.6264 0.0000 (  2798 PWs)   bands (ev):

   -15.8631 -12.9621 -10.0232  -3.6781  -1.2411  -0.4543   7.5705   7.9473

     occupation numbers 
     1.0000   1.0000   1.0000   1.0000   0.0000   0.0000   0.0000   0.0000

          k =-0.1250 0.6861 0.0000 (  2793 PWs)   bands (ev):

   -15.3587 -13.4961 -10.1678  -2.8754  -2.0559  -0.5374   8.4248   8.7478

     occupation numbers 
     1.0000   1.0000   1.0000   1.0833   0.0024   0.0000   0.0000   0.0000

          k =-0.1250 0.7457 0.0000 (  2793 PWs)   bands (ev):

   -15.3585 -13.4965 -10.1675  -2.8749  -2.0565  -0.5374   8.4250   8.7477

     occupation numbers 
     1.0000   1.0000   1.0000   1.0833   0.0025   0.0000   0.0000   0.0000

          k =-0.1250-0.6264 0.0000 (  2798 PWs)   bands (ev):

   -15.8629 -12.9630 -10.0223  -3.6776  -1.2418  -0.4545   7.5704   7.9476

     occupation numbers 
     1.0000   1.0000   1.0000   1.0000   0.0000   0.0000   0.0000   0.0000

          k =-0.1250-0.5668 0.0000 (  2794 PWs)   bands (ev):

   -16.4965 -12.2819  -9.7272  -4.4516  -0.4412  -0.2913   6.4649   7.0784

     occupation numbers 
     1.0000   1.0000   1.0000   1.0000   0.0000   0.0000   0.0000   0.0000

          k =-0.1250-0.5071 0.0000 (  2797 PWs)   bands (ev):

   -17.1273 -11.5980  -9.2816  -5.1818  -0.0550   0.3354   5.4570   6.1508

     occupation numbers 
     1.0000   1.0000   1.0000   1.0000   0.0000   0.0000   0.0000   0.0000

          k =-0.1250-0.4474 0.0000 (  2806 PWs)   bands (ev):

   -17.7168 -10.9487  -8.7057  -5.8559   0.2411   1.0832   4.5552   5.2855

     occupation numbers 
     1.0000   1.0000   1.0000   1.0000   0.0000   0.0000   0.0000   0.0000

          k =-0.1250-0.3878 0.0000 (  2798 PWs)   bands (ev):

   -18.2487 -10.3276  -8.0491  -6.4635   0.5741   1.7978   3.7630   4.5168

     occupation numbers 
     1.0000   1.0000   1.0000   1.0000   0.0000   0.0000   0.0000   0.0000

          k =-0.1250-0.3281 0.0000 (  2791 PWs)   bands (ev):

   -18.7144  -9.7135  -7.3788  -6.9965   0.9083   2.4658   3.0825   3.8660

     occupation numbers 
     1.0000   1.0000   1.0000   1.0000   0.0000   0.0000   0.0000   0.0000

          k =-0.1250-0.2685 0.0000 (  2771 PWs)   bands (ev):

   -19.1084  -9.0920  -7.4488  -6.7643   1.1995   2.5142   2.9578   3.4595

     occupation numbers 
     1.0000   1.0000   1.0000   1.0000   0.0000   0.0000   0.0000   0.0000

          k =-0.1250-0.2088 0.0000 (  2765 PWs)   bands (ev):

   -19.4271  -8.4633  -7.8157  -6.2735   1.4156   2.0582   2.7443   3.0829

     occupation numbers 
     1.0000   1.0000   1.0000   1.0000   0.0000   0.0000   0.0000   0.0000

          k =-0.1250-0.1491 0.0000 (  2752 PWs)   bands (ev):

   -19.6680  -8.0936  -7.8444  -5.9673   1.5710   1.7174   2.4305   2.7354

     occupation numbers 
     1.0000   1.0000   1.0000   1.0000   0.0000   0.0000   0.0000   0.0000

          k =-0.1250-0.0895 0.0000 (  2750 PWs)   bands (ev):

   -19.8295  -8.2802  -7.2778  -5.8782   1.4762   1.7549   2.2111   2.4979

     occupation numbers 
     1.0000   1.0000   1.0000   1.0000   0.0000   0.0000   0.0000   0.0000

          k =-0.1250-0.0298 0.0000 (  2735 PWs)   bands (ev):

   -19.9105  -8.3738  -6.8688  -5.9499   1.3603   2.0163   2.1002   2.3305

     occupation numbers 
     1.0000   1.0000   1.0000   1.0000   0.0000   0.0000   0.0000   0.0000

          k =-0.1250 0.0298 0.0000 (  2735 PWs)   bands (ev):

   -19.9105  -8.3738  -6.8672  -5.9518   1.3603   2.0190   2.1002   2.3289

     occupation numbers 
     1.0000   1.0000   1.0000   1.0000   0.0000   0.0000   0.0000   0.0000

          k =-0.0833 0.0597 0.0000 (  2732 PWs)   bands (ev):

   -19.9779  -8.4478  -6.6846  -5.5472   1.2738   1.4369   2.0045   2.2147

     occupation numbers 
     1.0000   1.0000   1.0000   1.0000   0.0000   0.0000   0.0000   0.0000

          k =-0.0833 0.1193 0.0000 (  2746 PWs)   bands (ev):

   -19.8560  -8.3063  -7.0984  -5.7326   1.2881   1.4488   2.1720   2.4653

     occupation numbers 
     1.0000   1.0000   1.0000   1.0000   0.0000   0.0000   0.0000   0.0000

          k =-0.0833 0.1790 0.0000 (  2769 PWs)   bands (ev):

   -19.6537  -8.0718  -7.6499  -6.0884   1.1403   1.7356   2.4478   2.7584

     occupation numbers 
     1.0000   1.0000   1.0000   1.0000   0.0000   0.0000   0.0000   0.0000

          k =-0.0833 0.2386 0.0000 (  2778 PWs)   bands (ev):

   -19.3720  -8.2669  -7.7460  -6.5899   0.9280   2.1343   2.8153   3.1603

     occupation numbers 
     1.0000   1.0000   1.0000   1.0000   0.0000   0.0000   0.0000   0.0000

          k =-0.0833 0.2983 0.0000 (  2781 PWs)   bands (ev):

   -19.0130  -8.9143  -7.3315  -7.1860   0.6310   2.6458   2.9750   3.5199

     occupation numbers 
     1.0000   1.0000   1.0000   1.0000   0.0000   0.0000   0.0000   0.0000

          k =-0.0833 0.3580 0.0000 (  2804 PWs)   bands (ev):

   -18.5792  -9.5841  -7.8176  -6.8323   0.2764   2.3836   3.2701   4.0384

     occupation numbers 
     1.0000   1.0000   1.0000   1.0000   0.0000   0.0000   0.0000   0.0000

          k =-0.0833 0.4176 0.0000 (  2806 PWs)   bands (ev):

   -18.0746 -10.2852  -8.4232  -6.2532  -0.0907   1.6610   4.0070   4.7496

     occupation numbers 
     1.0000   1.0000   1.0000   1.0000   0.0000   0.0000   0.0000   0.0000

          k =-0.0833 0.4773 0.0000 (  2804 PWs)   bands (ev):

   -17.5050 -11.0292  -8.9491  -5.6009  -0.4299   0.8908   4.8550   5.5728

     occupation numbers 
     1.0000   1.0000   1.0000   1.0000   0.0000   0.0000   0.0000   0.0000

          k =-0.0833 0.5369 0.0000 (  2800 PWs)   bands (ev):

   -16.8803 -11.8110  -9.3633  -4.8838  -0.7135   0.0852   5.8118   6.4876

     occupation numbers 
     1.0000   1.0000   1.0000   1.0000   0.0000   0.0000   0.0000   0.0000

          k =-0.0833 0.5966 0.0000 (  2802 PWs)   bands (ev):

   -16.2214 -12.5993  -9.6563  -4.1126  -0.9247  -0.7470   6.8723   7.4549

     occupation numbers 
     1.0000   1.0000   1.0000   1.0000   0.0000   0.0000   0.0000   0.0000

          k =-0.0833 0.6563 0.0000 (  2794 PWs)   bands (ev):

   -15.5900 -13.3159  -9.8298  -3.3014  -1.5942  -1.0543   8.0250   8.3322

     occupation numbers 
     1.0000   1.0000   1.0000   1.0017   0.0000   0.0000   0.0000   0.0000

          k =-0.0833 0.7159 0.0000 (  2798 PWs)   bands (ev):

   -15.2513 -13.6846  -9.8871  -2.5533  -2.3545  -1.0980   8.7115   9.1272

     occupation numbers 
     1.0000   1.0000   1.0000   0.5628   0.1343   0.0000   0.0000   0.0000

          k =-0.0833-0.6563 0.0000 (  2794 PWs)   bands (ev):

   -15.5899 -13.3164  -9.8295  -3.3011  -1.5947  -1.0544   8.0249   8.3324

     occupation numbers 
     1.0000   1.0000   1.0000   1.0017   0.0000   0.0000   0.0000   0.0000

          k =-0.0833-0.5966 0.0000 (  2802 PWs)   bands (ev):

   -16.2212 -12.6000  -9.6556  -4.1123  -0.9249  -0.7475   6.8723   7.4550

     occupation numbers 
     1.0000   1.0000   1.0000   1.0000   0.0000   0.0000   0.0000   0.0000

          k =-0.0833-0.5369 0.0000 (  2800 PWs)   bands (ev):

   -16.8803 -11.8121  -9.3621  -4.8836  -0.7138   0.0847   5.8118   6.4877

     occupation numbers 
     1.0000   1.0000   1.0000   1.0000   0.0000   0.0000   0.0000   0.0000

          k =-0.0833-0.4773 0.0000 (  2804 PWs)   bands (ev):

   -17.5049 -11.0307  -8.9473  -5.6007  -0.4303   0.8902   4.8550   5.5728

     occupation numbers 
     1.0000   1.0000   1.0000   1.0000   0.0000   0.0000   0.0000   0.0000

          k =-0.0833-0.4176 0.0000 (  2806 PWs)   bands (ev):

   -18.0745 -10.2872  -8.4208  -6.2530  -0.0913   1.6605   4.0070   5.0442

     occupation numbers 
     1.0000   1.0000   1.0000   1.0000   0.0000   0.0000   0.0000   0.0000

          k =-0.0833-0.3580 0.0000 (  2804 PWs)   bands (ev):

   -18.5792  -9.5864  -7.8147  -6.8321   0.2756   2.3831   3.2701   4.0384

     occupation numbers 
     1.0000   1.0000   1.0000   1.0000   0.0000   0.0000   0.0000   0.0000

          k =-0.0833-0.2983 0.0000 (  2781 PWs)   bands (ev):

   -19.0129  -8.9169  -7.3314  -7.1827   0.6300   2.6458   2.9747   3.5197

     occupation numbers 
     1.0000   1.0000   1.0000   1.0000   0.0000   0.0000   0.0000   0.0000

          k =-0.0833-0.2386 0.0000 (  2778 PWs)   bands (ev):

   -19.3720  -8.2697  -7.7459  -6.5863   0.9266   2.1343   2.8153   3.1603

     occupation numbers 
     1.0000   1.0000   1.0000   1.0000   0.0000   0.0000   0.0000   0.0000

          k =-0.0833-0.1790 0.0000 (  2769 PWs)   bands (ev):

   -19.6537  -8.0718  -7.6528  -6.0847   1.1385   1.7356   2.4478   2.7585

     occupation numbers 
     1.0000   1.0000   1.0000   1.0000   0.0000   0.0000   0.0000   0.0000

          k =-0.0833-0.1193 0.0000 (  2746 PWs)   bands (ev):

   -19.8560  -8.3063  -7.1011  -5.7291   1.2859   1.4489   2.1720   2.4654

     occupation numbers 
     1.0000   1.0000   1.0000   1.0000   0.0000   0.0000   0.0000   0.0000

          k =-0.0833-0.0597 0.0000 (  2732 PWs)   bands (ev):

   -19.9779  -8.4477  -6.6865  -5.5448   1.2737   1.4348   2.0045   2.2160

     occupation numbers 
     1.0000   1.0000   1.0000   1.0000   0.0000   0.0000   0.0000   0.0000

          k =-0.0833 0.0000 0.0000 (  2733 PWs)   bands (ev):

   -20.0186  -8.4950  -6.5230  -5.4984   1.2150   1.5694   1.9484   1.9490

     occupation numbers 
     1.0000   1.0000   1.0000   1.0000   0.0000   0.0000   0.0000   0.0000

          k =-0.0417 0.0298 0.0000 (  2731 PWs)   bands (ev):

   -20.0674  -8.5491  -6.3719  -5.1991   1.1423   1.1550   1.8453   1.8798

     occupation numbers 
     1.0000   1.0000   1.0000   1.0000   0.0000   0.0000   0.0000   0.0000

          k =-0.0417 0.0895 0.0000 (  2745 PWs)   bands (ev):

   -19.9858  -8.4542  -6.5942  -5.4507   1.0756   1.2698   1.9921   2.2680

     occupation numbers 
     1.0000   1.0000   1.0000   1.0000   0.0000   0.0000   0.0000   0.0000

          k =-0.0417 0.1491 0.0000 (  2761 PWs)   bands (ev):

   -19.8231  -8.2651  -7.0051  -5.8856   0.9719   1.4981   2.2158   2.5194

     occupation numbers 
     1.0000   1.0000   1.0000   1.0000   0.0000   0.0000   0.0000   0.0000

          k =-0.0417 0.2088 0.0000 (  2774 PWs)   bands (ev):

   -19.5802  -7.9832  -7.5525  -6.4293   0.7921   1.8388   2.5464   2.8631

     occupation numbers 
     1.0000   1.0000   1.0000   1.0000   0.0000   0.0000   0.0000   0.0000

          k =-0.0417 0.2685 0.0000 (  2780 PWs)   bands (ev):

   -19.2585  -8.1903  -7.6105  -7.0257   0.5151   2.2929   2.9525   3.3200

     occupation numbers 
     1.0000   1.0000   1.0000   1.0000   0.0000   0.0000   0.0000   0.0000

          k =-0.0417 0.3281 0.0000 (  2794 PWs)   bands (ev):

   -18.8601  -8.8943  -7.6266  -7.1502   0.1615   2.8606   2.8633   3.6664

     occupation numbers 
     1.0000   1.0000   1.0000   1.0000   0.0000   0.0000   0.0000   0.0000

          k =-0.0417 0.3878 0.0000 (  2806 PWs)   bands (ev):

   -18.3880  -9.6569  -8.1868  -6.6065  -0.2243   2.1741   3.5415   4.2956

     occupation numbers 
     1.0000   1.0000   1.0000   1.0000   0.0000   0.0000   0.0000   0.0000

          k =-0.0417 0.4474 0.0000 (  2804 PWs)   bands (ev):

   -17.8466 -10.4709  -8.6730  -5.9848  -0.5971   1.4033   4.3344   5.0661

     occupation numbers 
     1.0000   1.0000   1.0000   1.0000   0.0000   0.0000   0.0000   0.0000

          k =-0.0417 0.5071 0.0000 (  2812 PWs)   bands (ev):

   -17.2427 -11.3188  -9.0679  -5.2924  -0.9231   0.5886   5.2378   5.9419

     occupation numbers 
     1.0000   1.0000   1.0000   1.0000   0.0000   0.0000   0.0000   0.0000

          k =-0.0417 0.5668 0.0000 (  2802 PWs)   bands (ev):

   -16.5890 -12.1727  -9.3655  -4.5387  -1.1806  -0.2573   6.2482   6.9027

     occupation numbers 
     1.0000   1.0000   1.0000   1.0000   0.0000   0.0000   0.0000   0.0000

          k =-0.0417 0.6264 0.0000 (  2801 PWs)   bands (ev):

   -15.9166 -12.9872  -9.5641  -3.7364  -1.3574  -1.1217   7.3590   7.8981

     occupation numbers 
     1.0000   1.0000   1.0000   1.0000   0.0000   0.0000   0.0000   0.0000

          k =-0.0417 0.6861 0.0000 (  2790 PWs)   bands (ev):

   -15.3491 -13.6282  -9.6633  -2.9133  -1.9761  -1.4470   8.5503   8.7234

     occupation numbers 
     1.0000   1.0000   1.0000   1.0796   0.0006   0.0000   0.0000   0.0000

          k =-0.0417-0.6861 0.0000 (  2790 PWs)   bands (ev):

   -15.3491 -13.6283  -9.6632  -2.9132  -1.9763  -1.4470   8.5503   8.7235

     occupation numbers 
     1.0000   1.0000   1.0000   1.0796   0.0006   0.0000   0.0000   0.0000

          k =-0.0417-0.6264 0.0000 (  2801 PWs)   bands (ev):

   -15.9165 -12.9874  -9.5638  -3.7362  -1.3575  -1.1220   7.3590   7.8982

     occupation numbers 
     1.0000   1.0000   1.0000   1.0000   0.0000   0.0000   0.0000   0.0000

          k =-0.0417-0.5668 0.0000 (  2802 PWs)   bands (ev):

   -16.5890 -12.1731  -9.3650  -4.5385  -1.1807  -0.2576   6.2482   6.9027

     occupation numbers 
     1.0000   1.0000   1.0000   1.0000   0.0000   0.0000   0.0000   0.0000

          k =-0.0417-0.5071 0.0000 (  2812 PWs)   bands (ev):

   -17.2427 -11.3195  -9.0671  -5.2923  -0.9233   0.5883   5.2378   5.9420

     occupation numbers 
     1.0000   1.0000   1.0000   1.0000   0.0000   0.0000   0.0000   0.0000

          k =-0.0417-0.4474 0.0000 (  2804 PWs)   bands (ev):

   -17.8466 -10.4719  -8.6718  -5.9847  -0.5974   1.4030   4.3344   5.0661

     occupation numbers 
     1.0000   1.0000   1.0000   1.0000   0.0000   0.0000   0.0000   0.0000

          k =-0.0417-0.3878 0.0000 (  2806 PWs)   bands (ev):

   -18.3880  -9.6583  -8.1851  -6.6064  -0.2247   2.1739   3.5415   4.2955

     occupation numbers 
     1.0000   1.0000   1.0000   1.0000   0.0000   0.0000   0.0000   0.0000

          k =-0.0417-0.3281 0.0000 (  2794 PWs)   bands (ev):

   -18.8601  -8.8961  -7.6244  -7.1501   0.1610   2.8606   2.8631   3.6664

     occupation numbers 
     1.0000   1.0000   1.0000   1.0000   0.0000   0.0000   0.0000   0.0000

          k =-0.0417-0.2685 0.0000 (  2780 PWs)   bands (ev):

   -19.2585  -8.1924  -7.6105  -7.0232   0.5145   2.2929   2.9525   3.3200

     occupation numbers 
     1.0000   1.0000   1.0000   1.0000   0.0000   0.0000   0.0000   0.0000

          k =-0.0417-0.2088 0.0000 (  2774 PWs)   bands (ev):

   -19.5802  -7.9831  -7.5547  -6.4266   0.7913   1.8388   2.5464   2.8631

     occupation numbers 
     1.0000   1.0000   1.0000   1.0000   0.0000   0.0000   0.0000   0.0000

          k =-0.0417-0.1491 0.0000 (  2761 PWs)   bands (ev):

   -19.8231  -8.2651  -7.0072  -5.8830   0.9709   1.4981   2.2158   2.5194

     occupation numbers 
     1.0000   1.0000   1.0000   1.0000   0.0000   0.0000   0.0000   0.0000

          k =-0.0417-0.0895 0.0000 (  2745 PWs)   bands (ev):

   -19.9858  -8.4542  -6.5957  -5.4488   1.0744   1.2698   1.9921   2.2680

     occupation numbers 
     1.0000   1.0000   1.0000   1.0000   0.0000   0.0000   0.0000   0.0000

          k =-0.0417-0.0298 0.0000 (  2731 PWs)   bands (ev):

   -20.0674  -8.5491  -6.3725  -5.1984   1.1418   1.1548   1.8460   1.8798

     occupation numbers 
     1.0000   1.0000   1.0000   1.0000   0.0000   0.0000   0.0000   0.0000

     the Fermi energy is    -2.4925 ev

!    total energy              =     -36.74747976 Ry
     total all-electron energy =      -152.275674 Ry
     estimated scf accuracy    <          3.5E-09 Ry
     smearing contrib. (-TS)   =       0.00006669 Ry
     internal energy E=F+TS    =     -36.74754645 Ry

     The total energy is F=E-TS. E is the sum of the following terms:
     one-electron contribution =    -128.10366896 Ry
     hartree contribution      =      65.45387677 Ry
     xc contribution           =      -8.89335538 Ry
     ewald contribution        =      47.12140612 Ry
     one-center paw contrib.   =     -12.32580500 Ry
      -> PAW hartree energy AE =       7.52187036 Ry
      -> PAW hartree energy PS =      -7.51403788 Ry
      -> PAW xc energy AE      =     -10.18377510 Ry
      -> PAW xc energy PS      =       4.01303545 Ry
      -> total E_H with PAW    =      65.46170925 Ry
      -> total E_XC with PAW   =     -15.06409504 Ry

     convergence has been achieved in   5 iterations

     negative rho (up, down):  1.939E-03 0.000E+00

     Forces acting on atoms (cartesian axes, Ry/au):

     atom    1 type  1   force =    -0.00001222    0.00643291    0.00000013
     atom    2 type  1   force =     0.00001222   -0.00643291   -0.00000013
     The non-local contrib.  to forces
     atom    1 type  1   force =    -0.00022870    0.24223760    0.00000042
     atom    2 type  1   force =    -0.00032435   -0.24273208    0.00000064
     The ionic contribution  to forces
     atom    1 type  1   force =    -0.00050680    1.73789522   -0.00000000
     atom    2 type  1   force =     0.00050680   -1.73789522    0.00000000
     The local contribution  to forces
     atom    1 type  1   force =     0.00070219   -1.96460096   -0.00000108
     atom    2 type  1   force =    -0.00007163    1.96524825   -0.00000155
     The core correction contribution to forces
     atom    1 type  1   force =    -0.00054030   -0.00966408   -0.00000006
     atom    2 type  1   force =    -0.00065995    0.00838053   -0.00000006
     The Hubbard contrib.    to forces
     atom    1 type  1   force =     0.00000000    0.00000000    0.00000000
     atom    2 type  1   force =     0.00000000    0.00000000    0.00000000
     The SCF correction term to forces
     atom    1 type  1   force =     0.00000006   -0.00001700    0.00000000
     atom    2 type  1   force =     0.00000003   -0.00001653    0.00000000

     Total force =     0.009098     Total SCF correction =     0.000024
     Energy error            =      6.6E-05 Ry
     Gradient error          =      6.4E-03 Ry/Bohr

     number of scf cycles    =   2
     number of bfgs steps    =   1

     energy             old  =     -36.7474134660 Ry
     energy             new  =     -36.7474797576 Ry

     CASE: energy            _new < energy            _old

     new trust radius        =       0.0041724419 bohr
     new conv_thr            =       0.0000000007 Ry


ATOMIC_POSITIONS (crystal)
C                0.0030426260       -0.0060384346        0.0000000000    1   1   0
C                0.3302903740        0.3393714346        0.0000000000    1   1   0



     Writing config-only to output data dir ./tmp/graphene24.0.save/ :
     XML data file
     NEW-OLD atomic charge density approx. for the potential

     Check: negative core charge=   -0.000012

     negative rho (up, down):  1.937E-03 0.000E+00

     total cpu time spent up to now is       21.5 secs

     per-process dynamical memory:    44.7 Mb

     Self-consistent Calculation

     iteration #  1     ecut=    40.00 Ry     beta= 0.70
     Davidson diagonalization with overlap

---- Real-time Memory Report at c_bands before calling an iterative solver
            87 MiB given to the printing process from OS
            43 MiB allocation reported by mallinfo(arena+hblkhd)
         28594 MiB available memory on the node where the printing process lives
------------------
     ethr =  1.00E-06,  avg # of iterations =  3.3

     negative rho (up, down):  1.936E-03 0.000E+00

     total cpu time spent up to now is       23.2 secs

     total energy              =     -36.74750470 Ry
     estimated scf accuracy    <       0.00000834 Ry

     iteration #  2     ecut=    40.00 Ry     beta= 0.70
     Davidson diagonalization with overlap

---- Real-time Memory Report at c_bands before calling an iterative solver
            87 MiB given to the printing process from OS
            50 MiB allocation reported by mallinfo(arena+hblkhd)
         28591 MiB available memory on the node where the printing process lives
------------------
     ethr =  1.04E-07,  avg # of iterations =  2.1

     negative rho (up, down):  1.937E-03 0.000E+00

     total cpu time spent up to now is       24.5 secs

     total energy              =     -36.74750607 Ry
     estimated scf accuracy    <       0.00000019 Ry

     iteration #  3     ecut=    40.00 Ry     beta= 0.70
     Davidson diagonalization with overlap

---- Real-time Memory Report at c_bands before calling an iterative solver
            87 MiB given to the printing process from OS
            51 MiB allocation reported by mallinfo(arena+hblkhd)
         28608 MiB available memory on the node where the printing process lives
------------------
     ethr =  2.35E-09,  avg # of iterations =  2.2

     negative rho (up, down):  1.937E-03 0.000E+00

     total cpu time spent up to now is       25.9 secs

     total energy              =     -36.74750609 Ry
     estimated scf accuracy    <       0.00000008 Ry

     iteration #  4     ecut=    40.00 Ry     beta= 0.70
     Davidson diagonalization with overlap

---- Real-time Memory Report at c_bands before calling an iterative solver
            87 MiB given to the printing process from OS
            51 MiB allocation reported by mallinfo(arena+hblkhd)
         28586 MiB available memory on the node where the printing process lives
------------------
     ethr =  9.57E-10,  avg # of iterations =  1.9

     negative rho (up, down):  1.937E-03 0.000E+00

     total cpu time spent up to now is       27.1 secs

     total energy              =     -36.74750611 Ry
     estimated scf accuracy    <       0.00000003 Ry

     iteration #  5     ecut=    40.00 Ry     beta= 0.70
     Davidson diagonalization with overlap

---- Real-time Memory Report at c_bands before calling an iterative solver
            87 MiB given to the printing process from OS
            52 MiB allocation reported by mallinfo(arena+hblkhd)
         28608 MiB available memory on the node where the printing process lives
------------------
     ethr =  3.80E-10,  avg # of iterations =  1.0

     negative rho (up, down):  1.937E-03 0.000E+00

     total cpu time spent up to now is       28.1 secs

     End of self-consistent calculation

          k = 0.0000 0.0000 0.0000 (  2729 PWs)   bands (ev):

   -20.0943  -8.5814  -6.2418  -5.0955   1.0037   1.1146   1.7819   1.8397

     occupation numbers 
     1.0000   1.0000   1.0000   1.0000   0.0000   0.0000   0.0000   0.0000

          k = 0.0000 0.0597 0.0000 (  2728 PWs)   bands (ev):

   -20.0533  -8.5338  -6.3393  -5.2542   0.9885   1.1732   1.8961   2.0214

     occupation numbers 
     1.0000   1.0000   1.0000   1.0000   0.0000   0.0000   0.0000   0.0000

          k = 0.0000 0.1193 0.0000 (  2758 PWs)   bands (ev):

   -19.9308  -8.3915  -6.6234  -5.6710   0.9315   1.3443   2.0645   2.3655

     occupation numbers 
     1.0000   1.0000   1.0000   1.0000   0.0000   0.0000   0.0000   0.0000

          k = 0.0000 0.1790 0.0000 (  2772 PWs)   bands (ev):

   -19.7272  -8.1554  -7.0710  -6.2298   0.7973   1.6275   2.3434   2.6510

     occupation numbers 
     1.0000   1.0000   1.0000   1.0000   0.0000   0.0000   0.0000   0.0000

          k = 0.0000 0.2386 0.0000 (  2772 PWs)   bands (ev):

   -19.4438  -7.8272  -7.6548  -6.8358   0.5599   2.0244   2.7241   3.0505

     occupation numbers 
     1.0000   1.0000   1.0000   1.0000   0.0000   0.0000   0.0000   0.0000

          k = 0.0000 0.2983 0.0000 (  2788 PWs)   bands (ev):

   -19.0821  -8.3477  -7.4304  -7.4095   0.2281   2.5353   3.0788   3.5212

     occupation numbers 
     1.0000   1.0000   1.0000   1.0000   0.0000   0.0000   0.0000   0.0000

          k = 0.0000 0.3580 0.0000 (  2812 PWs)   bands (ev):

   -18.6446  -9.1247  -7.9796  -6.9060  -0.1584   2.5814   3.1597   3.9301

     occupation numbers 
     1.0000   1.0000   1.0000   1.0000   0.0000   0.0000   0.0000   0.0000

          k = 0.0000 0.4176 0.0000 (  2808 PWs)   bands (ev):

   -18.1347  -9.9613  -8.4635  -6.3213  -0.5514   1.8370   3.8970   4.6389

     occupation numbers 
     1.0000   1.0000   1.0000   1.0000   0.0000   0.0000   0.0000   0.0000

          k = 0.0000 0.4773 0.0000 (  2802 PWs)   bands (ev):

   -17.5574 -10.8343  -8.8703  -5.6617  -0.9106   1.0363   4.7458   5.4650

     occupation numbers 
     1.0000   1.0000   1.0000   1.0000   0.0000   0.0000   0.0000   0.0000

          k = 0.0000 0.5369 0.0000 (  2816 PWs)   bands (ev):

   -16.9212 -11.7192  -9.1926  -4.9358  -1.2090   0.1981   5.7037   6.3884

     occupation numbers 
     1.0000   1.0000   1.0000   1.0000   0.0000   0.0000   0.0000   0.0000

          k = 0.0000 0.5966 0.0000 (  2808 PWs)   bands (ev):

   -16.2434 -12.5848  -9.4254  -4.1548  -1.4303  -0.6642   6.7664   7.3823

     occupation numbers 
     1.0000   1.0000   1.0000   1.0000   0.0000   0.0000   0.0000   0.0000

          k = 0.0000 0.6563 0.0000 (  2800 PWs)   bands (ev):

   -15.5783 -13.3668  -9.5662  -3.3378  -1.5657  -1.5308   7.9238   8.3611

     occupation numbers 
     1.0000   1.0000   1.0000   1.0010   0.0000   0.0000   0.0000   0.0000

          k = 0.0000-0.7159 0.0000 (  2794 PWs)   bands (ev):

   -15.2014 -13.7833  -9.6132  -2.6774  -2.2078  -1.6113   8.9122   9.0468

     occupation numbers 
     1.0000   1.0000   1.0000   0.8686   0.0229   0.0000   0.0000   0.0000

          k = 0.0000-0.6563 0.0000 (  2800 PWs)   bands (ev):

   -15.5783 -13.3668  -9.5662  -3.3378  -1.5657  -1.5308   7.9238   8.3611

     occupation numbers 
     1.0000   1.0000   1.0000   1.0010   0.0000   0.0000   0.0000   0.0000

          k = 0.0000-0.5966 0.0000 (  2808 PWs)   bands (ev):

   -16.2434 -12.5848  -9.4254  -4.1548  -1.4303  -0.6642   6.7664   7.8362

     occupation numbers 
     1.0000   1.0000   1.0000   1.0000   0.0000   0.0000   0.0000   0.0000

          k = 0.0000-0.5369 0.0000 (  2816 PWs)   bands (ev):

   -16.9212 -11.7192  -9.1926  -4.9358  -1.2090   0.1981   5.7037   6.3885

     occupation numbers 
     1.0000   1.0000   1.0000   1.0000   0.0000   0.0000   0.0000   0.0000

          k = 0.0000-0.4773 0.0000 (  2802 PWs)   bands (ev):

   -17.5574 -10.8343  -8.8703  -5.6617  -0.9106   1.0363   4.7458   5.7901

     occupation numbers 
     1.0000   1.0000   1.0000   1.0000   0.0000   0.0000   0.0000   0.0000

          k = 0.0000-0.4176 0.0000 (  2808 PWs)   bands (ev):

   -18.1347  -9.9613  -8.4635  -6.3213  -0.5514   1.8370   3.8970   4.6389

     occupation numbers 
     1.0000   1.0000   1.0000   1.0000   0.0000   0.0000   0.0000   0.0000

          k = 0.0000-0.3580 0.0000 (  2812 PWs)   bands (ev):

   -18.6446  -9.1247  -7.9796  -6.9060  -0.1584   2.5814   3.1597   3.9297

     occupation numbers 
     1.0000   1.0000   1.0000   1.0000   0.0000   0.0000   0.0000   0.0000

          k = 0.0000-0.2983 0.0000 (  2788 PWs)   bands (ev):

   -19.0821  -8.3477  -7.4304  -7.4095   0.2281   2.5353   3.0788   3.5214

     occupation numbers 
     1.0000   1.0000   1.0000   1.0000   0.0000   0.0000   0.0000   0.0000

          k = 0.0000-0.2386 0.0000 (  2772 PWs)   bands (ev):

   -19.4438  -7.8272  -7.6548  -6.8358   0.5599   2.0244   2.7241   3.0505

     occupation numbers 
     1.0000   1.0000   1.0000   1.0000   0.0000   0.0000   0.0000   0.0000

          k = 0.0000-0.1790 0.0000 (  2772 PWs)   bands (ev):

   -19.7272  -8.1554  -7.0710  -6.2298   0.7973   1.6275   2.3434   2.6510

     occupation numbers 
     1.0000   1.0000   1.0000   1.0000   0.0000   0.0000   0.0000   0.0000

          k = 0.0000-0.1193 0.0000 (  2758 PWs)   bands (ev):

   -19.9308  -8.3915  -6.6234  -5.6710   0.9315   1.3443   2.0645   2.3655

     occupation numbers 
     1.0000   1.0000   1.0000   1.0000   0.0000   0.0000   0.0000   0.0000

          k = 0.0000-0.0597 0.0000 (  2728 PWs)   bands (ev):

   -20.0533  -8.5338  -6.3393  -5.2542   0.9885   1.1732   1.8960   2.0214

     occupation numbers 
     1.0000   1.0000   1.0000   1.0000   0.0000   0.0000   0.0000   0.0000

          k = 0.0417-0.0298 0.0000 (  2731 PWs)   bands (ev):

   -20.0643  -8.5474  -6.3334  -5.2489   1.1382   1.1553   1.8813   1.9069

     occupation numbers 
     1.0000   1.0000   1.0000   1.0000   0.0000   0.0000   0.0000   0.0000

          k = 0.0417 0.0298 0.0000 (  2731 PWs)   bands (ev):

   -20.0643  -8.5474  -6.3339  -5.2482   1.1377   1.1551   1.8815   1.9072

     occupation numbers 
     1.0000   1.0000   1.0000   1.0000   0.0000   0.0000   0.0000   0.0000

          k = 0.0417 0.0895 0.0000 (  2745 PWs)   bands (ev):

   -19.9826  -8.4525  -6.5615  -5.4904   1.0714   1.2701   1.9937   2.2791

     occupation numbers 
     1.0000   1.0000   1.0000   1.0000   0.0000   0.0000   0.0000   0.0000

          k = 0.0417 0.1491 0.0000 (  2761 PWs)   bands (ev):

   -19.8196  -8.2634  -6.9788  -5.9140   0.9655   1.4983   2.2175   2.5202

     occupation numbers 
     1.0000   1.0000   1.0000   1.0000   0.0000   0.0000   0.0000   0.0000

          k = 0.0417 0.2088 0.0000 (  2774 PWs)   bands (ev):

   -19.5761  -7.9815  -7.5311  -6.4495   0.7819   1.8391   2.5483   2.8639

     occupation numbers 
     1.0000   1.0000   1.0000   1.0000   0.0000   0.0000   0.0000   0.0000

          k = 0.0417 0.2685 0.0000 (  2780 PWs)   bands (ev):

   -19.2536  -8.1714  -7.6089  -7.0420   0.5004   2.2933   2.9547   3.3208

     occupation numbers 
     1.0000   1.0000   1.0000   1.0000   0.0000   0.0000   0.0000   0.0000

          k = 0.0417 0.3281 0.0000 (  2794 PWs)   bands (ev):

   -18.8542  -8.8765  -7.6420  -7.1486   0.1427   2.8575   2.8611   3.6643

     occupation numbers 
     1.0000   1.0000   1.0000   1.0000   0.0000   0.0000   0.0000   0.0000

          k = 0.0417 0.3878 0.0000 (  2806 PWs)   bands (ev):

   -18.3807  -9.6404  -8.2024  -6.6051  -0.2463   2.1688   3.5421   4.2954

     occupation numbers 
     1.0000   1.0000   1.0000   1.0000   0.0000   0.0000   0.0000   0.0000

          k = 0.0417 0.4474 0.0000 (  2804 PWs)   bands (ev):

   -17.8374 -10.4568  -8.6886  -5.9836  -0.6212   1.4001   4.3352   5.0662

     occupation numbers 
     1.0000   1.0000   1.0000   1.0000   0.0000   0.0000   0.0000   0.0000

          k = 0.0417 0.5071 0.0000 (  2812 PWs)   bands (ev):

   -17.2309 -11.3085  -9.0832  -5.2917  -0.9484   0.5877   5.2388   5.9418

     occupation numbers 
     1.0000   1.0000   1.0000   1.0000   0.0000   0.0000   0.0000   0.0000

          k = 0.0417 0.5668 0.0000 (  2802 PWs)   bands (ev):

   -16.5731 -12.1676  -9.3803  -4.5389  -1.2066  -0.2557   6.2495   6.9017

     occupation numbers 
     1.0000   1.0000   1.0000   1.0000   0.0000   0.0000   0.0000   0.0000

          k = 0.0417 0.6264 0.0000 (  2801 PWs)   bands (ev):

   -15.8937 -12.9900  -9.5786  -3.7388  -1.3836  -1.1168   7.3609   7.8949

     occupation numbers 
     1.0000   1.0000   1.0000   1.0000   0.0000   0.0000   0.0000   0.0000

          k = 0.0417-0.7457 0.0000 (  2790 PWs)   bands (ev):

   -15.3133 -13.6445  -9.6778  -2.9250  -1.9613  -1.4734   8.5538   8.7137

     occupation numbers 
     1.0000   1.0000   1.0000   1.0786   0.0004   0.0000   0.0000   0.0000

          k = 0.0417-0.6861 0.0000 (  2790 PWs)   bands (ev):

   -15.3133 -13.6444  -9.6779  -2.9251  -1.9611  -1.4733   8.5538   8.7136

     occupation numbers 
     1.0000   1.0000   1.0000   1.0786   0.0004   0.0000   0.0000   0.0000

          k = 0.0417-0.6264 0.0000 (  2801 PWs)   bands (ev):

   -15.8938 -12.9897  -9.5789  -3.7389  -1.3836  -1.1166   7.3609   7.8948

     occupation numbers 
     1.0000   1.0000   1.0000   1.0000   0.0000   0.0000   0.0000   0.0000

          k = 0.0417-0.5668 0.0000 (  2802 PWs)   bands (ev):

   -16.5732 -12.1672  -9.3808  -4.5391  -1.2064  -0.2555   6.2495   6.9017

     occupation numbers 
     1.0000   1.0000   1.0000   1.0000   0.0000   0.0000   0.0000   0.0000

          k = 0.0417-0.5071 0.0000 (  2812 PWs)   bands (ev):

   -17.2309 -11.3079  -9.0840  -5.2918  -0.9482   0.5879   5.2388   5.9417

     occupation numbers 
     1.0000   1.0000   1.0000   1.0000   0.0000   0.0000   0.0000   0.0000

          k = 0.0417-0.4474 0.0000 (  2804 PWs)   bands (ev):

   -17.8374 -10.4558  -8.6897  -5.9837  -0.6210   1.4003   4.3352   5.0662

     occupation numbers 
     1.0000   1.0000   1.0000   1.0000   0.0000   0.0000   0.0000   0.0000

          k = 0.0417-0.3878 0.0000 (  2806 PWs)   bands (ev):

   -18.3807  -9.6390  -8.2040  -6.6051  -0.2460   2.1690   3.5421   4.2954

     occupation numbers 
     1.0000   1.0000   1.0000   1.0000   0.0000   0.0000   0.0000   0.0000

          k = 0.0417-0.3281 0.0000 (  2794 PWs)   bands (ev):

   -18.8542  -8.8747  -7.6441  -7.1487   0.1431   2.8577   2.8611   3.6643

     occupation numbers 
     1.0000   1.0000   1.0000   1.0000   0.0000   0.0000   0.0000   0.0000

          k = 0.0417-0.2685 0.0000 (  2780 PWs)   bands (ev):

   -19.2537  -8.1693  -7.6089  -7.0445   0.5010   2.2933   2.9547   3.3208

     occupation numbers 
     1.0000   1.0000   1.0000   1.0000   0.0000   0.0000   0.0000   0.0000

          k = 0.0417-0.2088 0.0000 (  2774 PWs)   bands (ev):

   -19.5761  -7.9815  -7.5289  -6.4522   0.7826   1.8391   2.5482   2.8639

     occupation numbers 
     1.0000   1.0000   1.0000   1.0000   0.0000   0.0000   0.0000   0.0000

          k = 0.0417-0.1491 0.0000 (  2761 PWs)   bands (ev):

   -19.8196  -8.2635  -6.9767  -5.9166   0.9665   1.4983   2.2175   2.5202

     occupation numbers 
     1.0000   1.0000   1.0000   1.0000   0.0000   0.0000   0.0000   0.0000

          k = 0.0417-0.0895 0.0000 (  2745 PWs)   bands (ev):

   -19.9826  -8.4525  -6.5599  -5.4923   1.0725   1.2702   1.9937   2.2790

     occupation numbers 
     1.0000   1.0000   1.0000   1.0000   0.0000   0.0000   0.0000   0.0000

          k = 0.0833-0.0597 0.0000 (  2732 PWs)   bands (ev):

   -19.9747  -8.4459  -6.6533  -5.5867   1.2748   1.4395   2.0061   2.2413

     occupation numbers 
     1.0000   1.0000   1.0000   1.0000   0.0000   0.0000   0.0000   0.0000

          k = 0.0833-0.0000 0.0000 (  2733 PWs)   bands (ev):

   -20.0155  -8.4932  -6.4848  -5.5465   1.2161   1.5617   1.9500   2.0095

     occupation numbers 
     1.0000   1.0000   1.0000   1.0000   0.0000   0.0000   0.0000   0.0000

          k = 0.0833 0.0597 0.0000 (  2732 PWs)   bands (ev):

   -19.9747  -8.4459  -6.6552  -5.5843   1.2747   1.4376   2.0061   2.2421

     occupation numbers 
     1.0000   1.0000   1.0000   1.0000   0.0000   0.0000   0.0000   0.0000

          k = 0.0833 0.1193 0.0000 (  2746 PWs)   bands (ev):

   -19.8525  -8.3045  -7.0799  -5.7548   1.2882   1.4493   2.1736   2.4671

     occupation numbers 
     1.0000   1.0000   1.0000   1.0000   0.0000   0.0000   0.0000   0.0000

          k = 0.0833 0.1790 0.0000 (  2769 PWs)   bands (ev):

   -19.6497  -8.0699  -7.6378  -6.1006   1.1358   1.7359   2.4496   2.7593

     occupation numbers 
     1.0000   1.0000   1.0000   1.0000   0.0000   0.0000   0.0000   0.0000

          k = 0.0833 0.2386 0.0000 (  2778 PWs)   bands (ev):

   -19.3674  -8.2575  -7.7441  -6.5972   0.9182   2.1346   2.8173   3.1611

     occupation numbers 
     1.0000   1.0000   1.0000   1.0000   0.0000   0.0000   0.0000   0.0000

          k = 0.0833 0.2983 0.0000 (  2781 PWs)   bands (ev):

   -19.0074  -8.9055  -7.3296  -7.1924   0.6162   2.6461   2.9702   3.5146

     occupation numbers 
     1.0000   1.0000   1.0000   1.0000   0.0000   0.0000   0.0000   0.0000

          k = 0.0833 0.3580 0.0000 (  2804 PWs)   bands (ev):

   -18.5724  -9.5747  -7.8255  -6.8304   0.2574   2.3761   3.2706   4.0379

     occupation numbers 
     1.0000   1.0000   1.0000   1.0000   0.0000   0.0000   0.0000   0.0000

          k = 0.0833 0.4176 0.0000 (  2806 PWs)   bands (ev):

   -18.0661 -10.2754  -8.4336  -6.2514  -0.1125   1.6553   4.0077   4.7497

     occupation numbers 
     1.0000   1.0000   1.0000   1.0000   0.0000   0.0000   0.0000   0.0000

          k = 0.0833 0.4773 0.0000 (  2804 PWs)   bands (ev):

   -17.4942 -11.0204  -8.9617  -5.5993  -0.4534   0.8871   4.8559   5.9010

     occupation numbers 
     1.0000   1.0000   1.0000   1.0000   0.0000   0.0000   0.0000   0.0000

          k = 0.0833 0.5369 0.0000 (  2800 PWs)   bands (ev):

   -16.8662 -11.8053  -9.3771  -4.8827  -0.7380   0.0838   5.8129   6.4870

     occupation numbers 
     1.0000   1.0000   1.0000   1.0000   0.0000   0.0000   0.0000   0.0000

          k = 0.0833 0.5966 0.0000 (  2802 PWs)   bands (ev):

   -16.2019 -12.5992  -9.6706  -4.1124  -0.9497  -0.7462   6.8739   7.4527

     occupation numbers 
     1.0000   1.0000   1.0000   1.0000   0.0000   0.0000   0.0000   0.0000

          k = 0.0833-0.7756 0.0000 (  2794 PWs)   bands (ev):

   -15.5608 -13.3259  -9.8443  -3.3038  -1.5899  -1.0795   8.0275   8.3250

     occupation numbers 
     1.0000   1.0000   1.0000   1.0018   0.0000   0.0000   0.0000   0.0000

          k = 0.0833-0.7159 0.0000 (  2798 PWs)   bands (ev):

   -15.2111 -13.7056  -9.9019  -2.5855  -2.3199  -1.1231   8.6985   9.1367

     occupation numbers 
     1.0000   1.0000   1.0000   0.6333   0.0885   0.0000   0.0000   0.0000

          k = 0.0833-0.6563 0.0000 (  2794 PWs)   bands (ev):

   -15.5610 -13.3255  -9.8447  -3.3042  -1.5894  -1.0794   8.0275   8.3248

     occupation numbers 
     1.0000   1.0000   1.0000   1.0018   0.0000   0.0000   0.0000   0.0000

          k = 0.0833-0.5966 0.0000 (  2802 PWs)   bands (ev):

   -16.2020 -12.5985  -9.6714  -4.1127  -0.9495  -0.7457   6.8739   7.4526

     occupation numbers 
     1.0000   1.0000   1.0000   1.0000   0.0000   0.0000   0.0000   0.0000

          k = 0.0833-0.5369 0.0000 (  2800 PWs)   bands (ev):

   -16.8663 -11.8043  -9.3783  -4.8829  -0.7377   0.0843   5.8129   6.4869

     occupation numbers 
     1.0000   1.0000   1.0000   1.0000   0.0000   0.0000   0.0000   0.0000

          k = 0.0833-0.4773 0.0000 (  2804 PWs)   bands (ev):

   -17.4943 -11.0189  -8.9634  -5.5995  -0.4530   0.8877   4.8559   5.5726

     occupation numbers 
     1.0000   1.0000   1.0000   1.0000   0.0000   0.0000   0.0000   0.0000

          k = 0.0833-0.4176 0.0000 (  2806 PWs)   bands (ev):

   -18.0661 -10.2735  -8.4359  -6.2516  -0.1119   1.6558   4.0077   4.7496

     occupation numbers 
     1.0000   1.0000   1.0000   1.0000   0.0000   0.0000   0.0000   0.0000

          k = 0.0833-0.3580 0.0000 (  2804 PWs)   bands (ev):

   -18.5724  -9.5724  -7.8283  -6.8305   0.2581   2.3766   3.2707   4.0379

     occupation numbers 
     1.0000   1.0000   1.0000   1.0000   0.0000   0.0000   0.0000   0.0000

          k = 0.0833-0.2983 0.0000 (  2781 PWs)   bands (ev):

   -19.0074  -8.9029  -7.3297  -7.1956   0.6171   2.6461   2.9705   3.5147

     occupation numbers 
     1.0000   1.0000   1.0000   1.0000   0.0000   0.0000   0.0000   0.0000

          k = 0.0833-0.2386 0.0000 (  2778 PWs)   bands (ev):

   -19.3674  -8.2548  -7.7442  -6.6007   0.9195   2.1346   2.8173   3.1611

     occupation numbers 
     1.0000   1.0000   1.0000   1.0000   0.0000   0.0000   0.0000   0.0000

          k = 0.0833-0.1790 0.0000 (  2769 PWs)   bands (ev):

   -19.6497  -8.0700  -7.6350  -6.1042   1.1375   1.7359   2.4496   2.7593

     occupation numbers 
     1.0000   1.0000   1.0000   1.0000   0.0000   0.0000   0.0000   0.0000

          k = 0.0833-0.1193 0.0000 (  2746 PWs)   bands (ev):

   -19.8525  -8.3045  -7.0772  -5.7582   1.2902   1.4493   2.1736   2.4671

     occupation numbers 
     1.0000   1.0000   1.0000   1.0000   0.0000   0.0000   0.0000   0.0000

          k = 0.1250-0.0895 0.0000 (  2750 PWs)   bands (ev):

   -19.8260  -8.2782  -7.2579  -5.9042   1.4780   1.7723   2.2128   2.4993

     occupation numbers 
     1.0000   1.0000   1.0000   1.0000   0.0000   0.0000   0.0000   0.0000

          k = 0.1250-0.0298 0.0000 (  2735 PWs)   bands (ev):

   -19.9071  -8.3718  -6.8352  -5.9913   1.3620   2.0355   2.1018   2.3392

     occupation numbers 
     1.0000   1.0000   1.0000   1.0000   0.0000   0.0000   0.0000   0.0000

          k = 0.1250 0.0298 0.0000 (  2735 PWs)   bands (ev):

   -19.9071  -8.3718  -6.8369  -5.9893   1.3620   2.0332   2.1018   2.3401

     occupation numbers 
     1.0000   1.0000   1.0000   1.0000   0.0000   0.0000   0.0000   0.0000

          k = 0.1250 0.0895 0.0000 (  2750 PWs)   bands (ev):

   -19.8260  -8.2781  -7.2607  -5.9007   1.4779   1.7698   2.2128   2.4995

     occupation numbers 
     1.0000   1.0000   1.0000   1.0000   0.0000   0.0000   0.0000   0.0000

          k = 0.1250 0.1491 0.0000 (  2752 PWs)   bands (ev):

   -19.6641  -8.0915  -7.8346  -5.9797   1.5805   1.7176   2.4323   2.7364

     occupation numbers 
     1.0000   1.0000   1.0000   1.0000   0.0000   0.0000   0.0000   0.0000

          k = 0.1250 0.2088 0.0000 (  2765 PWs)   bands (ev):

   -19.4226  -8.4566  -7.8135  -6.2803   1.4172   2.0586   2.7462   3.0838

     occupation numbers 
     1.0000   1.0000   1.0000   1.0000   0.0000   0.0000   0.0000   0.0000

          k = 0.1250 0.2685 0.0000 (  2771 PWs)   bands (ev):

   -19.1031  -9.0864  -7.4467  -6.7689   1.1936   2.5145   2.9539   3.4497

     occupation numbers 
     1.0000   1.0000   1.0000   1.0000   0.0000   0.0000   0.0000   0.0000

          k = 0.1250 0.3281 0.0000 (  2791 PWs)   bands (ev):

   -18.7080  -9.7081  -7.3836  -6.9944   0.8961   2.4566   3.0829   3.8652

     occupation numbers 
     1.0000   1.0000   1.0000   1.0000   0.0000   0.0000   0.0000   0.0000

          k = 0.1250 0.3878 0.0000 (  2798 PWs)   bands (ev):

   -18.2408 -10.3216  -8.0559  -6.4613   0.5574   1.7898   3.7636   4.5168

     occupation numbers 
     1.0000   1.0000   1.0000   1.0000   0.0000   0.0000   0.0000   0.0000

          k = 0.1250 0.4474 0.0000 (  2806 PWs)   bands (ev):

   -17.7068 -10.9426  -8.7154  -5.8537   0.2213   1.0771   4.5559   5.2854

     occupation numbers 
     1.0000   1.0000   1.0000   1.0000   0.0000   0.0000   0.0000   0.0000

          k = 0.1250 0.5071 0.0000 (  2797 PWs)   bands (ev):

   -17.1145 -11.5929  -9.2940  -5.1798  -0.0765   0.3311   5.4580   6.1503

     occupation numbers 
     1.0000   1.0000   1.0000   1.0000   0.0000   0.0000   0.0000   0.0000

          k = 0.1250 0.5668 0.0000 (  2794 PWs)   bands (ev):

   -16.4793 -12.2803  -9.7413  -4.4497  -0.4439  -0.3138   6.4663   7.0767

     occupation numbers 
     1.0000   1.0000   1.0000   1.0000   0.0000   0.0000   0.0000   0.0000

          k = 0.1250-0.8054 0.0000 (  2798 PWs)   bands (ev):

   -15.8385 -12.9686 -10.0370  -3.6759  -1.2432  -0.4775   7.5724   7.9419

     occupation numbers 
     1.0000   1.0000   1.0000   1.0000   0.0000   0.0000   0.0000   0.0000

          k = 0.1250-0.7457 0.0000 (  2793 PWs)   bands (ev):

   -15.3222 -13.5142 -10.1824  -2.8731  -2.0574  -0.5606   8.4132   8.7516

     occupation numbers 
     1.0000   1.0000   1.0000   1.0829   0.0022   0.0000   0.0000   0.0000

          k = 0.1250-0.6861 0.0000 (  2793 PWs)   bands (ev):

   -15.3224 -13.5138 -10.1826  -2.8737  -2.0568  -0.5606   8.4130   8.7517

     occupation numbers 
     1.0000   1.0000   1.0000   1.0830   0.0022   0.0000   0.0000   0.0000

          k = 0.1250-0.6264 0.0000 (  2798 PWs)   bands (ev):

   -15.8387 -12.9678 -10.0378  -3.6764  -1.2425  -0.4773   7.5725   7.9416

     occupation numbers 
     1.0000   1.0000   1.0000   1.0000   0.0000   0.0000   0.0000   0.0000

          k = 0.1250-0.5668 0.0000 (  2794 PWs)   bands (ev):

   -16.4795 -12.2789  -9.7427  -4.4501  -0.4432  -0.3135   6.4663   7.0766

     occupation numbers 
     1.0000   1.0000   1.0000   1.0000   0.0000   0.0000   0.0000   0.0000

          k = 0.1250-0.5071 0.0000 (  2797 PWs)   bands (ev):

   -17.1146 -11.5911  -9.2961  -5.1801  -0.0761   0.3319   5.4581   6.1503

     occupation numbers 
     1.0000   1.0000   1.0000   1.0000   0.0000   0.0000   0.0000   0.0000

          k = 0.1250-0.4474 0.0000 (  2806 PWs)   bands (ev):

   -17.7069 -10.9404  -8.7180  -5.8540   0.2220   1.0779   4.5559   5.2854

     occupation numbers 
     1.0000   1.0000   1.0000   1.0000   0.0000   0.0000   0.0000   0.0000

          k = 0.1250-0.3878 0.0000 (  2798 PWs)   bands (ev):

   -18.2408 -10.3193  -8.0589  -6.4615   0.5583   1.7906   3.7636   4.5167

     occupation numbers 
     1.0000   1.0000   1.0000   1.0000   0.0000   0.0000   0.0000   0.0000

          k = 0.1250-0.3281 0.0000 (  2791 PWs)   bands (ev):

   -18.7080  -9.7056  -7.3868  -6.9945   0.8973   2.4572   3.0829   3.8652

     occupation numbers 
     1.0000   1.0000   1.0000   1.0000   0.0000   0.0000   0.0000   0.0000

          k = 0.1250-0.2685 0.0000 (  2771 PWs)   bands (ev):

   -19.1031  -9.0838  -7.4468  -6.7724   1.1952   2.5145   2.9541   3.4500

     occupation numbers 
     1.0000   1.0000   1.0000   1.0000   0.0000   0.0000   0.0000   0.0000

          k = 0.1250-0.2088 0.0000 (  2765 PWs)   bands (ev):

   -19.4226  -8.4539  -7.8136  -6.2840   1.4193   2.0585   2.7461   3.0838

     occupation numbers 
     1.0000   1.0000   1.0000   1.0000   0.0000   0.0000   0.0000   0.0000

          k = 0.1250-0.1491 0.0000 (  2752 PWs)   bands (ev):

   -19.6641  -8.0916  -7.8318  -5.9835   1.5829   1.7176   2.4322   2.7364

     occupation numbers 
     1.0000   1.0000   1.0000   1.0000   0.0000   0.0000   0.0000   0.0000

          k = 0.1667-0.1193 0.0000 (  2756 PWs)   bands (ev):

   -19.6194  -8.0647  -8.0462  -6.1593   1.7634   2.1129   2.4972   2.8053

     occupation numbers 
     1.0000   1.0000   1.0000   1.0000   0.0000   0.0000   0.0000   0.0000

          k = 0.1667-0.0597 0.0000 (  2758 PWs)   bands (ev):

   -19.7402  -8.1847  -7.4723  -6.3525   1.5923   2.3353   2.3535   2.6567

     occupation numbers 
     1.0000   1.0000   1.0000   1.0000   0.0000   0.0000   0.0000   0.0000

          k = 0.1667-0.0000 0.0000 (  2763 PWs)   bands (ev):

   -19.7805  -8.2310  -7.1202  -6.5739   1.5345   2.2805   2.4789   2.7816

     occupation numbers 
     1.0000   1.0000   1.0000   1.0000   0.0000   0.0000   0.0000   0.0000

          k = 0.1667 0.0597 0.0000 (  2758 PWs)   bands (ev):

   -19.7402  -8.1847  -7.4750  -6.3494   1.5922   2.3353   2.3513   2.6566

     occupation numbers 
     1.0000   1.0000   1.0000   1.0000   0.0000   0.0000   0.0000   0.0000

          k = 0.1667 0.1193 0.0000 (  2756 PWs)   bands (ev):

   -19.6194  -8.0675  -8.0461  -6.1557   1.7632   2.1104   2.4973   2.8053

     occupation numbers 
     1.0000   1.0000   1.0000   1.0000   0.0000   0.0000   0.0000   0.0000

          k = 0.1667 0.1790 0.0000 (  2750 PWs)   bands (ev):

   -19.4191  -8.7028  -7.8167  -6.1930   1.9165   2.0763   2.7505   3.0906

     occupation numbers 
     1.0000   1.0000   1.0000   1.0000   0.0000   0.0000   0.0000   0.0000

          k = 0.1667 0.2386 0.0000 (  2763 PWs)   bands (ev):

   -19.1407  -9.3356  -7.4986  -6.4811   1.7809   2.4662   2.8923   3.4027

     occupation numbers 
     1.0000   1.0000   1.0000   1.0000   0.0000   0.0000   0.0000   0.0000

          k = 0.1667 0.2983 0.0000 (  2774 PWs)   bands (ev):

   -18.7865  -9.9447  -7.0950  -6.9792   1.5813   2.4270   2.9785   3.7714

     occupation numbers 
     1.0000   1.0000   1.0000   1.0000   0.0000   0.0000   0.0000   0.0000

          k = 0.1667 0.3580 0.0000 (  2783 PWs)   bands (ev):

   -18.3600 -10.5214  -7.6195  -6.6106   1.3118   1.8086   3.6031   4.3665

     occupation numbers 
     1.0000   1.0000   1.0000   1.0000   0.0000   0.0000   0.0000   0.0000

          k = 0.1667 0.4176 0.0000 (  2798 PWs)   bands (ev):

   -17.8663 -11.0679  -8.3293  -6.0515   1.0087   1.1523   4.3392   5.0813

     occupation numbers 
     1.0000   1.0000   1.0000   1.0000   0.0000   0.0000   0.0000   0.0000

          k = 0.1667 0.4773 0.0000 (  2798 PWs)   bands (ev):

   -17.3136 -11.5982  -9.0344  -5.4259   0.4719   0.7158   5.1857   5.8960

     occupation numbers 
     1.0000   1.0000   1.0000   1.0000   0.0000   0.0000   0.0000   0.0000

          k = 0.1667 0.5369 0.0000 (  2806 PWs)   bands (ev):

   -16.7159 -12.1353  -9.6602  -4.7444  -0.2314   0.4649   6.1397   6.7808

     occupation numbers 
     1.0000   1.0000   1.0000   1.0000   0.0000   0.0000   0.0000   0.0000

          k = 0.1667-0.8352 0.0000 (  2800 PWs)   bands (ev):

   -16.1015 -12.6917 -10.1391  -4.0205  -0.9574   0.2756   7.1950   7.6290

     occupation numbers 
     1.0000   1.0000   1.0000   1.0000   0.0000   0.0000   0.0000   0.0000

          k = 0.1667-0.7756 0.0000 (  2795 PWs)   bands (ev):

   -15.5458 -13.2141 -10.4316  -3.2739  -1.6994   0.1587   8.1118   8.3353

     occupation numbers 
     1.0000   1.0000   1.0000   1.0029   0.0000   0.0000   0.0000   0.0000

          k = 0.1667-0.7159 0.0000 (  2786 PWs)   bands (ev):

   -15.2776 -13.4725 -10.5289  -2.6599  -2.3109   0.1193   8.1948   9.3972

     occupation numbers 
     1.0000   1.0000   1.0000   0.8281   0.0803   0.0000   0.0000   0.0000

          k = 0.1667-0.6563 0.0000 (  2795 PWs)   bands (ev):

   -15.5460 -13.2132 -10.4324  -3.2745  -1.6986   0.1589   8.1114   8.3354

     occupation numbers 
     1.0000   1.0000   1.0000   1.0028   0.0000   0.0000   0.0000   0.0000

          k = 0.1667-0.5966 0.0000 (  2800 PWs)   bands (ev):

   -16.1017 -12.6902 -10.1406  -4.0211  -0.9565   0.2760   7.1951   7.6286

     occupation numbers 
     1.0000   1.0000   1.0000   1.0000   0.0000   0.0000   0.0000   0.0000

          k = 0.1667-0.5369 0.0000 (  2806 PWs)   bands (ev):

   -16.7160 -12.1334  -9.6623  -4.7449  -0.2304   0.4655   6.1398   6.7807

     occupation numbers 
     1.0000   1.0000   1.0000   1.0000   0.0000   0.0000   0.0000   0.0000

          k = 0.1667-0.4773 0.0000 (  2798 PWs)   bands (ev):

   -17.3138 -11.5960  -9.0369  -5.4264   0.4729   0.7166   5.1857   5.8960

     occupation numbers 
     1.0000   1.0000   1.0000   1.0000   0.0000   0.0000   0.0000   0.0000

          k = 0.1667-0.4176 0.0000 (  2798 PWs)   bands (ev):

   -17.8664 -11.0656  -8.3321  -6.0518   1.0098   1.1532   4.3392   5.3789

     occupation numbers 
     1.0000   1.0000   1.0000   1.0000   0.0000   0.0000   0.0000   0.0000

          k = 0.1667-0.3580 0.0000 (  2783 PWs)   bands (ev):

   -18.3600 -10.5191  -7.6226  -6.6109   1.3132   1.8095   3.6031   4.3666

     occupation numbers 
     1.0000   1.0000   1.0000   1.0000   0.0000   0.0000   0.0000   0.0000

          k = 0.1667-0.2983 0.0000 (  2774 PWs)   bands (ev):

   -18.7865  -9.9423  -7.0952  -6.9825   1.5832   2.4277   2.9785   3.7715

     occupation numbers 
     1.0000   1.0000   1.0000   1.0000   0.0000   0.0000   0.0000   0.0000

          k = 0.1667-0.2386 0.0000 (  2763 PWs)   bands (ev):

   -19.1407  -9.3331  -7.4988  -6.4847   1.7832   2.4662   2.8926   3.4032

     occupation numbers 
     1.0000   1.0000   1.0000   1.0000   0.0000   0.0000   0.0000   0.0000

          k = 0.1667-0.1790 0.0000 (  2750 PWs)   bands (ev):

   -19.4191  -8.7002  -7.8168  -6.1967   1.9190   2.0764   2.7505   3.0906

     occupation numbers 
     1.0000   1.0000   1.0000   1.0000   0.0000   0.0000   0.0000   0.0000

          k = 0.2083-0.1491 0.0000 (  2748 PWs)   bands (ev):

   -19.3569  -8.9591  -7.7535  -6.3834   2.1267   2.4535   2.8270   3.1915

     occupation numbers 
     1.0000   1.0000   1.0000   1.0000   0.0000   0.0000   0.0000   0.0000

          k = 0.2083-0.0895 0.0000 (  2750 PWs)   bands (ev):

   -19.5160  -8.3049  -7.9342  -6.6130   1.9054   2.6447   2.6579   3.0005

     occupation numbers 
     1.0000   1.0000   1.0000   1.0000   0.0000   0.0000   0.0000   0.0000

          k = 0.2083-0.0298 0.0000 (  2757 PWs)   bands (ev):

   -19.5959  -8.0251  -7.6968  -7.0216   1.7919   2.5410   2.7483   3.1085

     occupation numbers 
     1.0000   1.0000   1.0000   1.0000   0.0000   0.0000   0.0000   0.0000

          k = 0.2083 0.0298 0.0000 (  2757 PWs)   bands (ev):

   -19.5959  -8.0251  -7.6992  -7.0189   1.7918   2.5410   2.7479   3.1075

     occupation numbers 
     1.0000   1.0000   1.0000   1.0000   0.0000   0.0000   0.0000   0.0000

          k = 0.2083 0.0895 0.0000 (  2750 PWs)   bands (ev):

   -19.5160  -8.3075  -7.9342  -6.6098   1.9054   2.6447   2.6560   3.0003

     occupation numbers 
     1.0000   1.0000   1.0000   1.0000   0.0000   0.0000   0.0000   0.0000

          k = 0.2083 0.1491 0.0000 (  2748 PWs)   bands (ev):

   -19.3569  -8.9616  -7.7534  -6.3800   2.1264   2.4512   2.8270   3.1915

     occupation numbers 
     1.0000   1.0000   1.0000   1.0000   0.0000   0.0000   0.0000   0.0000

          k = 0.2083 0.2088 0.0000 (  2756 PWs)   bands (ev):

   -19.1201  -9.6081  -7.4848  -6.4065   2.2717   2.5156   2.8008   3.3804

     occupation numbers 
     1.0000   1.0000   1.0000   1.0000   0.0000   0.0000   0.0000   0.0000

          k = 0.2083 0.2685 0.0000 (  2766 PWs)   bands (ev):

   -18.8076 -10.2232  -7.1314  -6.6996   2.1899   2.3133   2.9581   3.7516

     occupation numbers 
     1.0000   1.0000   1.0000   1.0000   0.0000   0.0000   0.0000   0.0000

          k = 0.2083 0.3281 0.0000 (  2776 PWs)   bands (ev):

   -18.4230 -10.7935  -7.2152  -6.6979   1.7305   2.0443   3.5259   4.2966

     occupation numbers 
     1.0000   1.0000   1.0000   1.0000   0.0000   0.0000   0.0000   0.0000

          k = 0.2083 0.3878 0.0000 (  2785 PWs)   bands (ev):

   -17.9716 -11.3125  -7.8814  -6.1906   1.1235   1.8245   4.2059   4.9591

     occupation numbers 
     1.0000   1.0000   1.0000   1.0000   0.0000   0.0000   0.0000   0.0000

          k = 0.2083 0.4474 0.0000 (  2796 PWs)   bands (ev):

   -17.4616 -11.7806  -8.6226  -5.6182   0.5069   1.5699   4.9964   5.7241

     occupation numbers 
     1.0000   1.0000   1.0000   1.0000   0.0000   0.0000   0.0000   0.0000

          k = 0.2083 0.5071 0.0000 (  2806 PWs)   bands (ev):

   -16.9070 -12.2057  -9.3642  -4.9924  -0.1179   1.3259   5.8953   6.5678

     occupation numbers 
     1.0000   1.0000   1.0000   1.0000   0.0000   0.0000   0.0000   0.0000

          k = 0.2083-0.8651 0.0000 (  2802 PWs)   bands (ev):

   -16.3331 -12.6029 -10.0282  -4.3292  -0.7528   1.1238   6.8977   7.4029

     occupation numbers 
     1.0000   1.0000   1.0000   1.0000   0.0000   0.0000   0.0000   0.0000

          k = 0.2083-0.8054 0.0000 (  2804 PWs)   bands (ev):

   -15.7946 -12.9766 -10.5305  -3.6545  -1.3927   0.9814   7.8979   7.9913

     occupation numbers 
     1.0000   1.0000   1.0000   1.0000   0.0000   0.0000   0.0000   0.0000

          k = 0.2083-0.7457 0.0000 (  2791 PWs)   bands (ev):

   -15.4201 -13.2545 -10.7996  -3.0494  -1.9750   0.9084   7.9480   9.1345

     occupation numbers 
     1.0000   1.0000   1.0000   1.0393   0.0005   0.0000   0.0000   0.0000

          k = 0.2083-0.6861 0.0000 (  2791 PWs)   bands (ev):

   -15.4203 -13.2538 -10.8001  -3.0501  -1.9743   0.9085   7.9478   9.1347

     occupation numbers 
     1.0000   1.0000   1.0000   1.0391   0.0005   0.0000   0.0000   0.0000

          k = 0.2083-0.6264 0.0000 (  2804 PWs)   bands (ev):

   -15.7949 -12.9750 -10.5320  -3.6552  -1.3916   0.9817   7.8974   7.9914

     occupation numbers 
     1.0000   1.0000   1.0000   1.0000   0.0000   0.0000   0.0000   0.0000

          k = 0.2083-0.5668 0.0000 (  2802 PWs)   bands (ev):

   -16.3334 -12.6008 -10.0303  -4.3299  -0.7515   1.1243   6.8977   7.4026

     occupation numbers 
     1.0000   1.0000   1.0000   1.0000   0.0000   0.0000   0.0000   0.0000

          k = 0.2083-0.5071 0.0000 (  2806 PWs)   bands (ev):

   -16.9072 -12.2035  -9.3667  -4.9930  -0.1167   1.3267   5.8953   6.5678

     occupation numbers 
     1.0000   1.0000   1.0000   1.0000   0.0000   0.0000   0.0000   0.0000

          k = 0.2083-0.4474 0.0000 (  2796 PWs)   bands (ev):

   -17.4618 -11.7783  -8.6253  -5.6187   0.5081   1.5710   4.9964   5.7240

     occupation numbers 
     1.0000   1.0000   1.0000   1.0000   0.0000   0.0000   0.0000   0.0000

          k = 0.2083-0.3878 0.0000 (  2785 PWs)   bands (ev):

   -17.9717 -11.3103  -7.8843  -6.1910   1.1247   1.8261   4.2059   4.9591

     occupation numbers 
     1.0000   1.0000   1.0000   1.0000   0.0000   0.0000   0.0000   0.0000

          k = 0.2083-0.3281 0.0000 (  2776 PWs)   bands (ev):

   -18.4231 -10.7913  -7.2183  -6.6982   1.7316   2.0463   3.5259   4.2967

     occupation numbers 
     1.0000   1.0000   1.0000   1.0000   0.0000   0.0000   0.0000   0.0000

          k = 0.2083-0.2685 0.0000 (  2766 PWs)   bands (ev):

   -18.8076 -10.2209  -7.1316  -6.7030   2.1923   2.3141   2.9581   3.7517

     occupation numbers 
     1.0000   1.0000   1.0000   1.0000   0.0000   0.0000   0.0000   0.0000

          k = 0.2083-0.2088 0.0000 (  2756 PWs)   bands (ev):

   -19.1201  -9.6057  -7.4850  -6.4099   2.2742   2.5157   2.8013   3.3803

     occupation numbers 
     1.0000   1.0000   1.0000   1.0000   0.0000   0.0000   0.0000   0.0000

          k = 0.2500-0.1790 0.0000 (  2755 PWs)   bands (ev):

   -19.0417  -9.8749  -7.4057  -6.5881   2.5443   2.6443   2.7924   3.4367

     occupation numbers 
     1.0000   1.0000   1.0000   1.0000   0.0000   0.0000   0.0000   0.0000

          k = 0.2500-0.1193 0.0000 (  2747 PWs)   bands (ev):

   -19.2369  -9.2092  -7.6245  -6.8261   2.2974   2.9352   2.9572   3.3177

     occupation numbers 
     1.0000   1.0000   1.0000   1.0000   0.0000   0.0000   0.0000   0.0000

          k = 0.2500-0.0597 0.0000 (  2761 PWs)   bands (ev):

   -19.3548  -8.5333  -7.7570  -7.2739   2.1316   2.8731   3.0729   3.4436

     occupation numbers 
     1.0000   1.0000   1.0000   1.0000   0.0000   0.0000   0.0000   0.0000

          k = 0.2500-0.0000 0.0000 (  2772 PWs)   bands (ev):

   -19.3943  -7.9667  -7.8014  -7.7703   2.0756   2.8292   3.0544   3.6035

     occupation numbers 
     1.0000   1.0000   1.0000   1.0000   0.0000   0.0000   0.0000   0.0000

          k = 0.2500 0.0597 0.0000 (  2761 PWs)   bands (ev):

   -19.3548  -8.5358  -7.7570  -7.2711   2.1316   2.8732   3.0725   3.4431

     occupation numbers 
     1.0000   1.0000   1.0000   1.0000   0.0000   0.0000   0.0000   0.0000

          k = 0.2500 0.1193 0.0000 (  2747 PWs)   bands (ev):

   -19.2369  -9.2115  -7.6244  -6.8230   2.2972   2.9352   2.9554   3.3171

     occupation numbers 
     1.0000   1.0000   1.0000   1.0000   0.0000   0.0000   0.0000   0.0000

          k = 0.2500 0.1790 0.0000 (  2755 PWs)   bands (ev):

   -19.0417  -9.8772  -7.4055  -6.5848   2.5435   2.6437   2.7908   3.4365

     occupation numbers 
     1.0000   1.0000   1.0000   1.0000   0.0000   0.0000   0.0000   0.0000

          k = 0.2500 0.2386 0.0000 (  2760 PWs)   bands (ev):

   -18.7715 -10.5077  -7.1032  -6.6159   2.1385   2.6105   3.0322   3.8065

     occupation numbers 
     1.0000   1.0000   1.0000   1.0000   0.0000   0.0000   0.0000   0.0000

          k = 0.2500 0.2983 0.0000 (  2775 PWs)   bands (ev):

   -18.4299 -11.0873  -6.9233  -6.7224   1.5816   2.5999   3.5329   4.3054

     occupation numbers 
     1.0000   1.0000   1.0000   1.0000   0.0000   0.0000   0.0000   0.0000

          k = 0.2500 0.3580 0.0000 (  2773 PWs)   bands (ev):

   -18.0223 -11.6045  -7.4591  -6.2698   1.0137   2.5379   4.1556   4.9171

     occupation numbers 
     1.0000   1.0000   1.0000   1.0000   0.0000   0.0000   0.0000   0.0000

          k = 0.2500 0.4176 0.0000 (  2797 PWs)   bands (ev):

   -17.5579 -12.0517  -8.1484  -5.7551   0.4519   2.3904   4.8901   5.6329

     occupation numbers 
     1.0000   1.0000   1.0000   1.0000   0.0000   0.0000   0.0000   0.0000

          k = 0.2500 0.4773 0.0000 (  2809 PWs)   bands (ev):

   -17.0511 -12.4231  -8.9135  -5.1915  -0.0976   2.1969   5.7334   6.4354

     occupation numbers 
     1.0000   1.0000   1.0000   1.0000   0.0000   0.0000   0.0000   0.0000

          k = 0.2500-0.8949 0.0000 (  2804 PWs)   bands (ev):

   -16.5275 -12.7144  -9.6810  -4.5981  -0.6349   2.0072   6.6816   7.2598

     occupation numbers 
     1.0000   1.0000   1.0000   1.0000   0.0000   0.0000   0.0000   0.0000

          k = 0.2500-0.8352 0.0000 (  2802 PWs)   bands (ev):

   -16.0342 -12.9225 -10.3711  -4.0055  -1.1559   1.8546   7.7250   7.7976

     occupation numbers 
     1.0000   1.0000   1.0000   1.0000   0.0000   0.0000   0.0000   0.0000

          k = 0.2500-0.7756 0.0000 (  2791 PWs)   bands (ev):

   -15.6551 -13.0454 -10.8786  -3.4793  -1.6238   1.7574   7.7934   8.8348

     occupation numbers 
     1.0000   1.0000   1.0000   1.0001   0.0000   0.0000   0.0000   0.0000

          k = 0.2500-0.7159 0.0000 (  2788 PWs)   bands (ev):

   -15.5069 -13.0849 -11.0723  -3.2227  -1.8580   1.7242   7.7338   9.7880

     occupation numbers 
     1.0000   1.0000   1.0000   1.0060   0.0000   0.0000   0.0000   0.0000

          k = 0.2500-0.6563 0.0000 (  2791 PWs)   bands (ev):

   -15.6554 -13.0439 -10.8799  -3.4800  -1.6228   1.7576   7.7930   8.8350

     occupation numbers 
     1.0000   1.0000   1.0000   1.0001   0.0000   0.0000   0.0000   0.0000

          k = 0.2500-0.5966 0.0000 (  2802 PWs)   bands (ev):

   -16.0346 -12.9203 -10.3731  -4.0064  -1.1545   1.8552   7.7251   7.7969

     occupation numbers 
     1.0000   1.0000   1.0000   1.0000   0.0000   0.0000   0.0000   0.0000

          k = 0.2500-0.5369 0.0000 (  2804 PWs)   bands (ev):

   -16.5279 -12.7121  -9.6833  -4.5989  -0.6334   2.0081   6.6816   7.2595

     occupation numbers 
     1.0000   1.0000   1.0000   1.0000   0.0000   0.0000   0.0000   0.0000

          k = 0.2500-0.4773 0.0000 (  2809 PWs)   bands (ev):

   -17.0513 -12.4209  -8.9161  -5.1921  -0.0962   2.1981   5.7334   6.4353

     occupation numbers 
     1.0000   1.0000   1.0000   1.0000   0.0000   0.0000   0.0000   0.0000

          k = 0.2500-0.4176 0.0000 (  2797 PWs)   bands (ev):

   -17.5580 -12.0496  -8.1511  -5.7556   0.4533   2.3921   4.8902   5.6329

     occupation numbers 
     1.0000   1.0000   1.0000   1.0000   0.0000   0.0000   0.0000   0.0000

          k = 0.2500-0.3580 0.0000 (  2773 PWs)   bands (ev):

   -18.0224 -11.6024  -7.4621  -6.2702   1.0150   2.5401   4.1557   5.1939

     occupation numbers 
     1.0000   1.0000   1.0000   1.0000   0.0000   0.0000   0.0000   0.0000

          k = 0.2500-0.2983 0.0000 (  2775 PWs)   bands (ev):

   -18.4299 -11.0851  -6.9265  -6.7228   1.5827   2.6025   3.5328   4.3055

     occupation numbers 
     1.0000   1.0000   1.0000   1.0000   0.0000   0.0000   0.0000   0.0000

          k = 0.2500-0.2386 0.0000 (  2760 PWs)   bands (ev):

   -18.7716 -10.5056  -7.1035  -6.6191   2.1394   2.6130   3.0322   3.8066

     occupation numbers 
     1.0000   1.0000   1.0000   1.0000   0.0000   0.0000   0.0000   0.0000

          k = 0.2917-0.2088 0.0000 (  2758 PWs)   bands (ev):

   -18.6790 -10.7742  -7.0113  -6.7719   1.9199   2.8961   3.2256   3.9394

     occupation numbers 
     1.0000   1.0000   1.0000   1.0000   0.0000   0.0000   0.0000   0.0000

          k = 0.2917-0.1491 0.0000 (  2759 PWs)   bands (ev):

   -18.9066 -10.1235  -7.2618  -7.0068   2.4111   2.7531   3.2334   3.5966

     occupation numbers 
     1.0000   1.0000   1.0000   1.0000   0.0000   0.0000   0.0000   0.0000

          k = 0.2917-0.0895 0.0000 (  2760 PWs)   bands (ev):

   -19.0601  -9.4362  -7.4628  -7.4314   2.5495   2.8092   3.3613   3.4259

     occupation numbers 
     1.0000   1.0000   1.0000   1.0000   0.0000   0.0000   0.0000   0.0000

          k = 0.2917-0.0298 0.0000 (  2760 PWs)   bands (ev):

   -19.1374  -8.7376  -8.0627  -7.5168   2.4409   3.0606   3.2190   3.4175

     occupation numbers 
     1.0000   1.0000   1.0000   1.0000   0.0000   0.0000   0.0000   0.0000

          k = 0.2917 0.0298 0.0000 (  2760 PWs)   bands (ev):

   -19.1374  -8.7400  -8.0601  -7.5168   2.4409   3.0606   3.2189   3.4174

     occupation numbers 
     1.0000   1.0000   1.0000   1.0000   0.0000   0.0000   0.0000   0.0000

          k = 0.2917 0.0895 0.0000 (  2760 PWs)   bands (ev):

   -19.0601  -9.4385  -7.4601  -7.4313   2.5494   2.8088   3.3611   3.4251

     occupation numbers 
     1.0000   1.0000   1.0000   1.0000   0.0000   0.0000   0.0000   0.0000

          k = 0.2917 0.1491 0.0000 (  2759 PWs)   bands (ev):

   -18.9066 -10.1257  -7.2616  -7.0038   2.4105   2.7528   3.2320   3.5965

     occupation numbers 
     1.0000   1.0000   1.0000   1.0000   0.0000   0.0000   0.0000   0.0000

          k = 0.2917 0.2088 0.0000 (  2758 PWs)   bands (ev):

   -18.6790 -10.7763  -7.0110  -6.7689   1.9190   2.8942   3.2253   3.9393

     occupation numbers 
     1.0000   1.0000   1.0000   1.0000   0.0000   0.0000   0.0000   0.0000

          k = 0.2917 0.2685 0.0000 (  2777 PWs)   bands (ev):

   -18.3811 -11.3728  -6.8130  -6.6843   1.3863   2.8963   3.6295   4.3923

     occupation numbers 
     1.0000   1.0000   1.0000   1.0000   0.0000   0.0000   0.0000   0.0000

          k = 0.2917 0.3281 0.0000 (  2779 PWs)   bands (ev):

   -18.0191 -11.9008  -7.1393  -6.2889   0.8497   2.9674   4.1891   4.9542

     occupation numbers 
     1.0000   1.0000   1.0000   1.0000   0.0000   0.0000   0.0000   0.0000

          k = 0.2917 0.3878 0.0000 (  2779 PWs)   bands (ev):

   -17.6027 -12.3478  -7.6951  -5.8358   0.3329   3.0132   4.8665   5.6210

     occupation numbers 
     1.0000   1.0000   1.0000   1.0000   0.0000   0.0000   0.0000   0.0000

          k = 0.2917 0.4474 0.0000 (  2793 PWs)   bands (ev):

   -17.1484 -12.6998  -8.4027  -5.3404  -0.1507   2.9621   5.6541   6.3806

     occupation numbers 
     1.0000   1.0000   1.0000   1.0000   0.0000   0.0000   0.0000   0.0000

          k = 0.2917-0.9247 0.0000 (  2809 PWs)   bands (ev):

   -16.6837 -12.9384  -9.1841  -4.8250  -0.5942   2.8436   6.5473   7.1895

     occupation numbers 
     1.0000   1.0000   1.0000   1.0000   0.0000   0.0000   0.0000   0.0000

          k = 0.2917-0.8651 0.0000 (  2806 PWs)   bands (ev):

   -16.2534 -13.0399  -9.9671  -4.3230  -0.9919   2.7141   7.5385   7.7955

     occupation numbers 
     1.0000   1.0000   1.0000   1.0000   0.0000   0.0000   0.0000   0.0000

          k = 0.2917-0.8054 0.0000 (  2807 PWs)   bands (ev):

   -15.9198 -12.9914 -10.6689  -3.8886  -1.3253   2.6117   7.7556   8.6037

     occupation numbers 
     1.0000   1.0000   1.0000   1.0000   0.0000   0.0000   0.0000   0.0000

          k = 0.2917-0.7457 0.0000 (  2801 PWs)   bands (ev):

   -15.7402 -12.8616 -11.1428  -3.6147  -1.5371   2.5564   7.5899   9.2961

     occupation numbers 
     1.0000   1.0000   1.0000   1.0000   0.0000   0.0000   0.0000   0.0000

          k = 0.2917-0.6861 0.0000 (  2801 PWs)   bands (ev):

   -15.7403 -12.8606 -11.1437  -3.6151  -1.5366   2.5566   7.5897   9.2961

     occupation numbers 
     1.0000   1.0000   1.0000   1.0000   0.0000   0.0000   0.0000   0.0000

          k = 0.2917-0.6264 0.0000 (  2807 PWs)   bands (ev):

   -15.9202 -12.9893 -10.6708  -3.8894  -1.3241   2.6122   7.7550   8.6040

     occupation numbers 
     1.0000   1.0000   1.0000   1.0000   0.0000   0.0000   0.0000   0.0000

          k = 0.2917-0.5668 0.0000 (  2806 PWs)   bands (ev):

   -16.2539 -13.0376  -9.9694  -4.3239  -0.9903   2.7150   7.5386   7.7949

     occupation numbers 
     1.0000   1.0000   1.0000   1.0000   0.0000   0.0000   0.0000   0.0000

          k = 0.2917-0.5071 0.0000 (  2809 PWs)   bands (ev):

   -16.6841 -12.9361  -9.1866  -4.8259  -0.5926   2.8449   6.5474   7.1893

     occupation numbers 
     1.0000   1.0000   1.0000   1.0000   0.0000   0.0000   0.0000   0.0000

          k = 0.2917-0.4474 0.0000 (  2793 PWs)   bands (ev):

   -17.1487 -12.6976  -8.4053  -5.3411  -0.1491   2.9639   5.6541   6.3806

     occupation numbers 
     1.0000   1.0000   1.0000   1.0000   0.0000   0.0000   0.0000   0.0000

          k = 0.2917-0.3878 0.0000 (  2779 PWs)   bands (ev):

   -17.6029 -12.3457  -7.6979  -5.8364   0.3344   3.0155   4.8665   5.6209

     occupation numbers 
     1.0000   1.0000   1.0000   1.0000   0.0000   0.0000   0.0000   0.0000

          k = 0.2917-0.3281 0.0000 (  2779 PWs)   bands (ev):

   -18.0192 -11.8988  -7.1422  -6.2894   0.8510   2.9700   4.1891   4.9543

     occupation numbers 
     1.0000   1.0000   1.0000   1.0000   0.0000   0.0000   0.0000   0.0000

          k = 0.2917-0.2685 0.0000 (  2777 PWs)   bands (ev):

   -18.3812 -11.3707  -6.8160  -6.6847   1.3874   2.8987   3.6295   4.3924

     occupation numbers 
     1.0000   1.0000   1.0000   1.0000   0.0000   0.0000   0.0000   0.0000

          k = 0.3333-0.2386 0.0000 (  2770 PWs)   bands (ev):

   -18.2780 -11.6300  -6.9303  -6.5846   1.1642   3.1037   3.8191   4.5578

     occupation numbers 
     1.0000   1.0000   1.0000   1.0000   0.0000   0.0000   0.0000   0.0000

          k = 0.3333-0.1790 0.0000 (  2758 PWs)   bands (ev):

   -18.5313 -11.0130  -7.1552  -6.8561   1.6671   3.1821   3.5532   4.1521

     occupation numbers 
     1.0000   1.0000   1.0000   1.0000   0.0000   0.0000   0.0000   0.0000

          k = 0.3333-0.1193 0.0000 (  2759 PWs)   bands (ev):

   -18.7162 -10.3403  -7.6118  -7.0552   2.1162   3.0325   3.7328   3.8528

     occupation numbers 
     1.0000   1.0000   1.0000   1.0000   0.0000   0.0000   0.0000   0.0000

          k = 0.3333-0.0597 0.0000 (  2763 PWs)   bands (ev):

   -18.8285  -9.6316  -8.2213  -7.1766   2.4445   2.8825   3.6607   3.8301

     occupation numbers 
     1.0000   1.0000   1.0000   1.0000   0.0000   0.0000   0.0000   0.0000

          k = 0.3333-0.0000 0.0000 (  2774 PWs)   bands (ev):

   -18.8661  -8.9518  -8.8734  -7.2173   2.5699   2.8296   3.5909   3.8102

     occupation numbers 
     1.0000   1.0000   1.0000   1.0000   0.0000   0.0000   0.0000   0.0000

          k = 0.3333 0.0597 0.0000 (  2763 PWs)   bands (ev):

   -18.8284  -9.6338  -8.2188  -7.1765   2.4442   2.8824   3.6607   3.8296

     occupation numbers 
     1.0000   1.0000   1.0000   1.0000   0.0000   0.0000   0.0000   0.0000

          k = 0.3333 0.1193 0.0000 (  2759 PWs)   bands (ev):

   -18.7161 -10.3424  -7.6092  -7.0550   2.1156   3.0323   3.7317   3.8527

     occupation numbers 
     1.0000   1.0000   1.0000   1.0000   0.0000   0.0000   0.0000   0.0000

          k = 0.3333 0.1790 0.0000 (  2758 PWs)   bands (ev):

   -18.5313 -11.0151  -7.1524  -6.8558   1.6661   3.1810   3.5525   4.1520

     occupation numbers 
     1.0000   1.0000   1.0000   1.0000   0.0000   0.0000   0.0000   0.0000

          k = 0.3333 0.2386 0.0000 (  2770 PWs)   bands (ev):

   -18.2779 -11.6320  -6.9274  -6.5841   1.1631   3.1017   3.8190   4.8343

     occupation numbers 
     1.0000   1.0000   1.0000   1.0000   0.0000   0.0000   0.0000   0.0000

          k = 0.3333 0.2983 0.0000 (  2773 PWs)   bands (ev):

   -17.9629 -12.1765  -6.9894  -6.2483   0.6552   3.1126   4.3087   5.0697

     occupation numbers 
     1.0000   1.0000   1.0000   1.0000   0.0000   0.0000   0.0000   0.0000

          k = 0.3333 0.3580 0.0000 (  2786 PWs)   bands (ev):

   -17.5975 -12.6323  -7.3365  -5.8607   0.1763   3.2638   4.9252   5.6870

     occupation numbers 
     1.0000   1.0000   1.0000   1.0000   0.0000   0.0000   0.0000   0.0000

          k = 0.3333 0.4176 0.0000 (  2792 PWs)   bands (ev):

   -17.2007 -12.9795  -7.9106  -5.4393  -0.2505   3.4266   5.6560   6.4019

     occupation numbers 
     1.0000   1.0000   1.0000   1.0000   0.0000   0.0000   0.0000   0.0000

          k = 0.3333-0.9546 0.0000 (  2795 PWs)   bands (ev):

   -16.8031 -13.1908  -8.6315  -5.0094  -0.6093   3.4906   6.4944   7.4117

     occupation numbers 
     1.0000   1.0000   1.0000   1.0000   0.0000   0.0000   0.0000   0.0000

          k = 0.3333-0.8949 0.0000 (  2812 PWs)   bands (ev):

   -16.4499 -13.2309  -9.4218  -4.6053  -0.8895   3.4612   7.4318   8.1967

     occupation numbers 
     1.0000   1.0000   1.0000   1.0000   0.0000   0.0000   0.0000   0.0000

          k = 0.3333-0.8352 0.0000 (  2802 PWs)   bands (ev):

   -16.1884 -13.0744 -10.2106  -4.2691  -1.0857   3.3976   7.7950   8.4233

     occupation numbers 
     1.0000   1.0000   1.0000   1.0000   0.0000   0.0000   0.0000   0.0000

          k = 0.3333-0.7756 0.0000 (  2811 PWs)   bands (ev):

   -16.0402 -12.7628 -10.9043  -4.0451  -1.1989   3.3443   7.5161   8.4345

     occupation numbers 
     1.0000   1.0000   1.0000   1.0000   0.0000   0.0000   0.0000   0.0000

          k = 0.3333-0.7159 0.0000 (  2806 PWs)   bands (ev):

   -15.9943 -12.5444 -11.2483  -3.9664  -1.2351   3.3245   7.4037   8.3871

     occupation numbers 
     1.0000   1.0000   1.0000   1.0000   0.0000   0.0000   0.0000   0.0000

          k = 0.3333-0.6563 0.0000 (  2811 PWs)   bands (ev):

   -16.0404 -12.7610 -10.9060  -4.0457  -1.1981   3.3448   7.5157   8.4345

     occupation numbers 
     1.0000   1.0000   1.0000   1.0000   0.0000   0.0000   0.0000   0.0000

          k = 0.3333-0.5966 0.0000 (  2802 PWs)   bands (ev):

   -16.1889 -13.0722 -10.2127  -4.2700  -1.0842   3.3985   7.7944   8.4236

     occupation numbers 
     1.0000   1.0000   1.0000   1.0000   0.0000   0.0000   0.0000   0.0000

          k = 0.3333-0.5369 0.0000 (  2812 PWs)   bands (ev):

   -16.4504 -13.2285  -9.4242  -4.6063  -0.8877   3.4626   7.4319   8.1945

     occupation numbers 
     1.0000   1.0000   1.0000   1.0000   0.0000   0.0000   0.0000   0.0000

          k = 0.3333-0.4773 0.0000 (  2795 PWs)   bands (ev):

   -16.8035 -13.1886  -8.6340  -5.0103  -0.6075   3.4925   6.4945   7.4086

     occupation numbers 
     1.0000   1.0000   1.0000   1.0000   0.0000   0.0000   0.0000   0.0000

          k = 0.3333-0.4176 0.0000 (  2792 PWs)   bands (ev):

   -17.2010 -12.9774  -7.9133  -5.4401  -0.2488   3.4289   5.6561   6.4019

     occupation numbers 
     1.0000   1.0000   1.0000   1.0000   0.0000   0.0000   0.0000   0.0000

          k = 0.3333-0.3580 0.0000 (  2786 PWs)   bands (ev):

   -17.5977 -12.6302  -7.3393  -5.8614   0.1779   3.2662   4.9252   5.6870

     occupation numbers 
     1.0000   1.0000   1.0000   1.0000   0.0000   0.0000   0.0000   0.0000

          k = 0.3333-0.2983 0.0000 (  2773 PWs)   bands (ev):

   -17.9630 -12.1745  -6.9923  -6.2488   0.6566   3.1148   4.3087   5.0698

     occupation numbers 
     1.0000   1.0000   1.0000   1.0000   0.0000   0.0000   0.0000   0.0000

          k = 0.3750-0.2685 0.0000 (  2777 PWs)   bands (ev):

   -17.8558 -12.4140  -7.0584  -6.1496   0.4495   3.2276   4.5149   5.2629

     occupation numbers 
     1.0000   1.0000   1.0000   1.0000   0.0000   0.0000   0.0000   0.0000

          k = 0.3750-0.2088 0.0000 (  2779 PWs)   bands (ev):

   -18.1221 -11.8513  -7.2691  -6.4238   0.9251   3.3922   4.1047   4.8004

     occupation numbers 
     1.0000   1.0000   1.0000   1.0000   0.0000   0.0000   0.0000   0.0000

          k = 0.3750-0.1491 0.0000 (  2761 PWs)   bands (ev):

   -18.3303 -11.2131  -7.7218  -6.6398   1.3867   3.5150   4.0103   4.4441

     occupation numbers 
     1.0000   1.0000   1.0000   1.0000   0.0000   0.0000   0.0000   0.0000

          k = 0.3750-0.0895 0.0000 (  2758 PWs)   bands (ev):

   -18.4727 -10.5188  -8.3369  -6.7885   1.7701   3.3859   4.1962   4.2239

     occupation numbers 
     1.0000   1.0000   1.0000   1.0000   0.0000   0.0000   0.0000   0.0000

          k = 0.3750-0.0298 0.0000 (  2768 PWs)   bands (ev):

   -18.5448  -9.7961  -9.0342  -6.8641   1.9952   3.2904   4.0653   4.2517

     occupation numbers 
     1.0000   1.0000   1.0000   1.0000   0.0000   0.0000   0.0000   0.0000

          k = 0.3750 0.0298 0.0000 (  2768 PWs)   bands (ev):

   -18.5448  -9.7981  -9.0320  -6.8640   1.9950   3.2903   4.0653   4.2515

     occupation numbers 
     1.0000   1.0000   1.0000   1.0000   0.0000   0.0000   0.0000   0.0000

          k = 0.3750 0.0895 0.0000 (  2758 PWs)   bands (ev):

   -18.4727 -10.5209  -8.3345  -6.7883   1.7695   3.3857   4.1962   4.2233

     occupation numbers 
     1.0000   1.0000   1.0000   1.0000   0.0000   0.0000   0.0000   0.0000

          k = 0.3750 0.1491 0.0000 (  2761 PWs)   bands (ev):

   -18.3303 -11.2150  -7.7192  -6.6395   1.3858   3.5144   4.0095   4.4441

     occupation numbers 
     1.0000   1.0000   1.0000   1.0000   0.0000   0.0000   0.0000   0.0000

          k = 0.3750 0.2088 0.0000 (  2779 PWs)   bands (ev):

   -18.1220 -11.8532  -7.2664  -6.4234   0.9239   3.3906   4.1046   4.8003

     occupation numbers 
     1.0000   1.0000   1.0000   1.0000   0.0000   0.0000   0.0000   0.0000

          k = 0.3750 0.2685 0.0000 (  2777 PWs)   bands (ev):

   -17.8556 -12.4160  -7.0556  -6.1490   0.4481   3.2257   4.5149   5.2629

     occupation numbers 
     1.0000   1.0000   1.0000   1.0000   0.0000   0.0000   0.0000   0.0000

          k = 0.3750 0.3281 0.0000 (  2780 PWs)   bands (ev):

   -17.5444 -12.8834  -7.1387  -5.8307   0.0049   3.2638   5.0676   5.8305

     occupation numbers 
     1.0000   1.0000   1.0000   1.0000   0.0000   0.0000   0.0000   0.0000

          k = 0.3750 0.3878 0.0000 (  2790 PWs)   bands (ev):

   -17.2106 -13.2302  -7.5066  -5.4890  -0.3712   3.4845   5.7380   6.4986

     occupation numbers 
     1.0000   1.0000   1.0000   1.0000   0.0000   0.0000   0.0000   0.0000

          k = 0.3750-0.9844 0.0000 (  2804 PWs)   bands (ev):

   -16.8891 -13.4220  -8.0962  -5.1517  -0.6541   3.7536   6.5176   7.2352

     occupation numbers 
     1.0000   1.0000   1.0000   1.0000   0.0000   0.0000   0.0000   0.0000

          k = 0.3750-0.9247 0.0000 (  2801 PWs)   bands (ev):

   -16.6245 -13.4185  -8.8254  -4.8511  -0.8283   3.9343   7.3875   7.6229

     occupation numbers 
     1.0000   1.0000   1.0000   1.0000   0.0000   0.0000   0.0000   0.0000

          k = 0.3750-0.8651 0.0000 (  2804 PWs)   bands (ev):

   -16.4500 -13.1971  -9.6181  -4.6170  -0.8971   3.9993   7.7663   7.7758

     occupation numbers 
     1.0000   1.0000   1.0000   1.0000   0.0000   0.0000   0.0000   0.0000

          k = 0.3750-0.8054 0.0000 (  2809 PWs)   bands (ev):

   -16.3616 -12.7879 -10.4028  -4.4644  -0.8923   4.0013   7.4144   7.6460

     occupation numbers 
     1.0000   1.0000   1.0000   1.0000   0.0000   0.0000   0.0000   0.0000

          k = 0.3750-0.7457 0.0000 (  2805 PWs)   bands (ev):

   -16.3291 -12.3223 -11.0508  -4.3917  -0.8679   3.9904   7.2001   7.5571

     occupation numbers 
     1.0000   1.0000   1.0000   1.0000   0.0000   0.0000   0.0000   0.0000

          k = 0.3750-0.6861 0.0000 (  2805 PWs)   bands (ev):

   -16.3292 -12.3209 -11.0521  -4.3919  -0.8675   3.9907   7.2000   7.5571

     occupation numbers 
     1.0000   1.0000   1.0000   1.0000   0.0000   0.0000   0.0000   0.0000

          k = 0.3750-0.6264 0.0000 (  2809 PWs)   bands (ev):

   -16.3619 -12.7858 -10.4048  -4.4650  -0.8912   4.0021   7.4141   7.6461

     occupation numbers 
     1.0000   1.0000   1.0000   1.0000   0.0000   0.0000   0.0000   0.0000

          k = 0.3750-0.5668 0.0000 (  2804 PWs)   bands (ev):

   -16.4505 -13.1948  -9.6203  -4.6179  -0.8955   4.0007   7.7662   7.7753

     occupation numbers 
     1.0000   1.0000   1.0000   1.0000   0.0000   0.0000   0.0000   0.0000

          k = 0.3750-0.5071 0.0000 (  2801 PWs)   bands (ev):

   -16.6251 -13.4161  -8.8278  -4.8522  -0.8264   3.9363   7.3874   7.6209

     occupation numbers 
     1.0000   1.0000   1.0000   1.0000   0.0000   0.0000   0.0000   0.0000

          k = 0.3750-0.4474 0.0000 (  2804 PWs)   bands (ev):

   -16.8896 -13.4198  -8.0987  -5.1527  -0.6522   3.7558   6.5176   7.2324

     occupation numbers 
     1.0000   1.0000   1.0000   1.0000   0.0000   0.0000   0.0000   0.0000

          k = 0.3750-0.3878 0.0000 (  2790 PWs)   bands (ev):

   -17.2110 -13.2281  -7.5093  -5.4899  -0.3694   3.4867   5.7380   6.4987

     occupation numbers 
     1.0000   1.0000   1.0000   1.0000   0.0000   0.0000   0.0000   0.0000

          k = 0.3750-0.3281 0.0000 (  2780 PWs)   bands (ev):

   -17.5447 -12.8813  -7.1414  -5.8314   0.0065   3.2658   5.0676   6.1104

     occupation numbers 
     1.0000   1.0000   1.0000   1.0000   0.0000   0.0000   0.0000   0.0000

          k = 0.4167-0.2983 0.0000 (  2781 PWs)   bands (ev):

   -17.4468 -13.0854  -7.1525  -5.7481  -0.1635   3.2978   5.2932   6.0504

     occupation numbers 
     1.0000   1.0000   1.0000   1.0000   0.0000   0.0000   0.0000   0.0000

          k = 0.4167-0.2386 0.0000 (  2781 PWs)   bands (ev):

   -17.7001 -12.6075  -7.3457  -5.9934   0.2404   3.4707   4.8094   5.5321

     occupation numbers 
     1.0000   1.0000   1.0000   1.0000   0.0000   0.0000   0.0000   0.0000

          k = 0.4167-0.1790 0.0000 (  2770 PWs)   bands (ev):

   -17.9161 -12.0272  -7.7911  -6.2045   0.6751   3.7795   4.4966   5.1187

     occupation numbers 
     1.0000   1.0000   1.0000   1.0000   0.0000   0.0000   0.0000   0.0000

          k = 0.4167-0.1193 0.0000 (  2767 PWs)   bands (ev):

   -18.0789 -11.3690  -8.4093  -6.3656   1.0796   3.8896   4.5373   4.8125

     occupation numbers 
     1.0000   1.0000   1.0000   1.0000   0.0000   0.0000   0.0000   0.0000

          k = 0.4167-0.0597 0.0000 (  2772 PWs)   bands (ev):

   -18.1797 -10.6581  -9.1198  -6.4659   1.3766   3.8016   4.6199   4.6870

     occupation numbers 
     1.0000   1.0000   1.0000   1.0000   0.0000   0.0000   0.0000   0.0000

          k = 0.4167-0.0000 0.0000 (  2764 PWs)   bands (ev):

   -18.2137 -10.0451  -9.7365  -6.4999   1.4876   3.7593   4.5531   4.7018

     occupation numbers 
     1.0000   1.0000   1.0000   1.0000   0.0000   0.0000   0.0000   0.0000

          k = 0.4167 0.0597 0.0000 (  2772 PWs)   bands (ev):

   -18.1796 -10.6601  -9.1176  -6.4658   1.3761   3.8015   4.6199   4.6866

     occupation numbers 
     1.0000   1.0000   1.0000   1.0000   0.0000   0.0000   0.0000   0.0000

          k = 0.4167 0.1193 0.0000 (  2767 PWs)   bands (ev):

   -18.0789 -11.3709  -8.4069  -6.3653   1.0788   3.8891   4.5366   4.8125

     occupation numbers 
     1.0000   1.0000   1.0000   1.0000   0.0000   0.0000   0.0000   0.0000

          k = 0.4167 0.1790 0.0000 (  2770 PWs)   bands (ev):

   -17.9160 -12.0292  -7.7885  -6.2041   0.6739   3.7782   4.4964   5.1187

     occupation numbers 
     1.0000   1.0000   1.0000   1.0000   0.0000   0.0000   0.0000   0.0000

          k = 0.4167 0.2386 0.0000 (  2781 PWs)   bands (ev):

   -17.6999 -12.6094  -7.3430  -5.9927   0.2389   3.4691   4.8094   5.5321

     occupation numbers 
     1.0000   1.0000   1.0000   1.0000   0.0000   0.0000   0.0000   0.0000

          k = 0.4167 0.2983 0.0000 (  2781 PWs)   bands (ev):

   -17.4465 -13.0874  -7.1498  -5.7473  -0.1652   3.2961   5.2932   6.0503

     occupation numbers 
     1.0000   1.0000   1.0000   1.0000   0.0000   0.0000   0.0000   0.0000

          k = 0.4167 0.3580 0.0000 (  2782 PWs)   bands (ev):

   -17.1822 -13.4322  -7.2555  -5.4909  -0.4914   3.3657   5.9002   6.6706

     occupation numbers 
     1.0000   1.0000   1.0000   1.0000   0.0000   0.0000   0.0000   0.0000

          k = 0.4167-1.0142 0.0000 (  2796 PWs)   bands (ev):

   -16.9459 -13.6035  -7.6433  -5.2524  -0.7045   3.6425   6.6134   7.3537

     occupation numbers 
     1.0000   1.0000   1.0000   1.0000   0.0000   0.0000   0.0000   0.0000

          k = 0.4167-0.9546 0.0000 (  2802 PWs)   bands (ev):

   -16.7792 -13.5613  -8.2450  -5.0595  -0.7854   3.9928   7.1608   7.4961

     occupation numbers 
     1.0000   1.0000   1.0000   1.0000   0.0000   0.0000   0.0000   0.0000

          k = 0.4167-0.8949 0.0000 (  2801 PWs)   bands (ev):

   -16.6984 -13.2951  -8.9781  -4.9284  -0.7434   4.2673   7.0696   7.5190

     occupation numbers 
     1.0000   1.0000   1.0000   1.0000   0.0000   0.0000   0.0000   0.0000

          k = 0.4167-0.8352 0.0000 (  2803 PWs)   bands (ev):

   -16.6806 -12.8399  -9.7673  -4.8553  -0.6252   4.4097   6.9276   7.1392

     occupation numbers 
     1.0000   1.0000   1.0000   1.0000   0.0000   0.0000   0.0000   0.0000

          k = 0.4167-0.7756 0.0000 (  2803 PWs)   bands (ev):

   -16.6880 -12.2684 -10.5361  -4.8229  -0.5050   4.4604   6.8168   6.8781

     occupation numbers 
     1.0000   1.0000   1.0000   1.0000   0.0000   0.0000   0.0000   0.0000

          k = 0.4167-0.7159 0.0000 (  2802 PWs)   bands (ev):

   -16.6937 -11.8538 -11.0160  -4.8145  -0.4546   4.4712   6.7767   6.7831

     occupation numbers 
     1.0000   1.0000   1.0000   1.0000   0.0000   0.0000   0.0000   0.0000

          k = 0.4167-0.6563 0.0000 (  2803 PWs)   bands (ev):

   -16.6882 -12.2666 -10.5380  -4.8233  -0.5043   4.4610   6.8168   6.8780

     occupation numbers 
     1.0000   1.0000   1.0000   1.0000   0.0000   0.0000   0.0000   0.0000

          k = 0.4167-0.5966 0.0000 (  2803 PWs)   bands (ev):

   -16.6809 -12.8378  -9.7694  -4.8560  -0.6239   4.4109   6.9277   7.1390

     occupation numbers 
     1.0000   1.0000   1.0000   1.0000   0.0000   0.0000   0.0000   0.0000

          k = 0.4167-0.5369 0.0000 (  2801 PWs)   bands (ev):

   -16.6988 -13.2929  -8.9803  -4.9293  -0.7417   4.2691   7.0694   7.5189

     occupation numbers 
     1.0000   1.0000   1.0000   1.0000   0.0000   0.0000   0.0000   0.0000

          k = 0.4167-0.4773 0.0000 (  2802 PWs)   bands (ev):

   -16.7798 -13.5591  -8.2474  -5.0606  -0.7834   3.9948   7.1599   7.4962

     occupation numbers 
     1.0000   1.0000   1.0000   1.0000   0.0000   0.0000   0.0000   0.0000

          k = 0.4167-0.4176 0.0000 (  2796 PWs)   bands (ev):

   -16.9464 -13.6013  -7.6459  -5.2534  -0.7025   3.6445   6.6134   7.3522

     occupation numbers 
     1.0000   1.0000   1.0000   1.0000   0.0000   0.0000   0.0000   0.0000

          k = 0.4167-0.3580 0.0000 (  2782 PWs)   bands (ev):

   -17.1826 -13.4301  -7.2581  -5.4919  -0.4895   3.3675   5.9003   6.6706

     occupation numbers 
     1.0000   1.0000   1.0000   1.0000   0.0000   0.0000   0.0000   0.0000

          k = 0.4583-0.3281 0.0000 (  2783 PWs)   bands (ev):

   -17.1205 -13.5706  -7.2101  -5.4480  -0.5949   3.3324   6.1395   6.9162

     occupation numbers 
     1.0000   1.0000   1.0000   1.0000   0.0000   0.0000   0.0000   0.0000

          k = 0.4583-0.2685 0.0000 (  2775 PWs)   bands (ev):

   -17.3081 -13.2331  -7.3832  -5.6135  -0.3226   3.4911   5.6016   6.3437

     occupation numbers 
     1.0000   1.0000   1.0000   1.0000   0.0000   0.0000   0.0000   0.0000

          k = 0.4583-0.2088 0.0000 (  2785 PWs)   bands (ev):

   -17.4995 -12.7483  -7.8182  -5.7825   0.0334   3.8410   5.1973   5.8731

     occupation numbers 
     1.0000   1.0000   1.0000   1.0000   0.0000   0.0000   0.0000   0.0000

          k = 0.4583-0.1491 0.0000 (  2784 PWs)   bands (ev):

   -17.6635 -12.1535  -8.4368  -5.9299   0.4134   4.1874   4.9934   5.5072

     occupation numbers 
     1.0000   1.0000   1.0000   1.0000   0.0000   0.0000   0.0000   0.0000

          k = 0.4583-0.0895 0.0000 (  2778 PWs)   bands (ev):

   -17.7812 -11.4796  -9.1578  -6.0374   0.7430   4.2798   5.0579   5.2512

     occupation numbers 
     1.0000   1.0000   1.0000   1.0000   0.0000   0.0000   0.0000   0.0000

          k = 0.4583-0.0298 0.0000 (  2782 PWs)   bands (ev):

   -17.8423 -10.7742  -9.8960  -6.0938   0.9385   4.2450   5.1167   5.1319

     occupation numbers 
     1.0000   1.0000   1.0000   1.0000   0.0000   0.0000   0.0000   0.0000

          k = 0.4583 0.0298 0.0000 (  2782 PWs)   bands (ev):

   -17.8423 -10.7760  -9.8942  -6.0937   0.9382   4.2449   5.1167   5.1317

     occupation numbers 
     1.0000   1.0000   1.0000   1.0000   0.0000   0.0000   0.0000   0.0000

          k = 0.4583 0.0895 0.0000 (  2778 PWs)   bands (ev):

   -17.7812 -11.4816  -9.1556  -6.0371   0.7423   4.2794   5.0574   5.2512

     occupation numbers 
     1.0000   1.0000   1.0000   1.0000   0.0000   0.0000   0.0000   0.0000

          k = 0.4583 0.1491 0.0000 (  2784 PWs)   bands (ev):

   -17.6634 -12.1554  -8.4345  -5.9294   0.4123   4.1863   4.9932   5.5072

     occupation numbers 
     1.0000   1.0000   1.0000   1.0000   0.0000   0.0000   0.0000   0.0000

          k = 0.4583 0.2088 0.0000 (  2785 PWs)   bands (ev):

   -17.4993 -12.7502  -7.8157  -5.7819   0.0319   3.8395   5.1973   5.8731

     occupation numbers 
     1.0000   1.0000   1.0000   1.0000   0.0000   0.0000   0.0000   0.0000

          k = 0.4583 0.2685 0.0000 (  2775 PWs)   bands (ev):

   -17.3078 -13.2351  -7.3806  -5.6127  -0.3243   3.4895   5.6017   6.3437

     occupation numbers 
     1.0000   1.0000   1.0000   1.0000   0.0000   0.0000   0.0000   0.0000

          k = 0.4583 0.3281 0.0000 (  2783 PWs)   bands (ev):

   -17.1200 -13.5727  -7.2074  -5.4470  -0.5968   3.3307   6.1395   6.9162

     occupation numbers 
     1.0000   1.0000   1.0000   1.0000   0.0000   0.0000   0.0000   0.0000

          k = 0.4583-1.0440 0.0000 (  2788 PWs)   bands (ev):

   -16.9778 -13.7186  -7.3361  -5.3124  -0.7422   3.4331   6.7744   7.3048

     occupation numbers 
     1.0000   1.0000   1.0000   1.0000   0.0000   0.0000   0.0000   0.0000

          k = 0.4583-0.9844 0.0000 (  2796 PWs)   bands (ev):

   -16.9146 -13.6391  -7.7420  -5.2293  -0.7406   3.7520   6.8038   7.5730

     occupation numbers 
     1.0000   1.0000   1.0000   1.0000   0.0000   0.0000   0.0000   0.0000

          k = 0.4583-0.9247 0.0000 (  2795 PWs)   bands (ev):

   -16.9280 -13.3397  -8.3527  -5.2002  -0.6063   4.1521   6.4791   7.1131

     occupation numbers 
     1.0000   1.0000   1.0000   1.0000   0.0000   0.0000   0.0000   0.0000

          k = 0.4583-0.8651 0.0000 (  2801 PWs)   bands (ev):

   -16.9828 -12.8625  -9.0854  -5.2090  -0.3902   4.4734   6.2702   6.7193

     occupation numbers 
     1.0000   1.0000   1.0000   1.0000   0.0000   0.0000   0.0000   0.0000

          k = 0.4583-0.8054 0.0000 (  2792 PWs)   bands (ev):

   -17.0405 -12.2616  -9.8656  -5.2316  -0.1701   4.6394   6.1591   6.4323

     occupation numbers 
     1.0000   1.0000   1.0000   1.0000   0.0000   0.0000   0.0000   0.0000

          k = 0.4583-0.7457 0.0000 (  2795 PWs)   bands (ev):

   -17.0753 -11.6252 -10.5944  -5.2484  -0.0304   4.6931   6.1102   6.2761

     occupation numbers 
     1.0000   1.0000   1.0000   1.0000   0.0000   0.0000   0.0000   0.0000

          k = 0.4583-0.6861 0.0000 (  2795 PWs)   bands (ev):

   -17.0753 -11.6237 -10.5960  -5.2485  -0.0301   4.6934   6.1103   6.2761

     occupation numbers 
     1.0000   1.0000   1.0000   1.0000   0.0000   0.0000   0.0000   0.0000

          k = 0.4583-0.6264 0.0000 (  2792 PWs)   bands (ev):

   -17.0407 -12.2597  -9.8676  -5.2321  -0.1692   4.6403   6.1593   6.4323

     occupation numbers 
     1.0000   1.0000   1.0000   1.0000   0.0000   0.0000   0.0000   0.0000

          k = 0.4583-0.5668 0.0000 (  2801 PWs)   bands (ev):

   -16.9831 -12.8604  -9.0876  -5.2097  -0.3889   4.4749   6.2702   6.7192

     occupation numbers 
     1.0000   1.0000   1.0000   1.0000   0.0000   0.0000   0.0000   0.0000

          k = 0.4583-0.5071 0.0000 (  2795 PWs)   bands (ev):

   -16.9284 -13.3375  -8.3551  -5.2011  -0.6045   4.1539   6.4789   7.1131

     occupation numbers 
     1.0000   1.0000   1.0000   1.0000   0.0000   0.0000   0.0000   0.0000

          k = 0.4583-0.4474 0.0000 (  2796 PWs)   bands (ev):

   -16.9151 -13.6369  -7.7446  -5.2304  -0.7386   3.7538   6.8035   7.5731

     occupation numbers 
     1.0000   1.0000   1.0000   1.0000   0.0000   0.0000   0.0000   0.0000

          k = 0.4583-0.3878 0.0000 (  2788 PWs)   bands (ev):

   -16.9783 -13.7164  -7.3387  -5.3134  -0.7402   3.4348   6.7744   7.3045

     occupation numbers 
     1.0000   1.0000   1.0000   1.0000   0.0000   0.0000   0.0000   0.0000

          k =-0.5000 0.3580 0.0000 (  2788 PWs)   bands (ev):

   -16.9886 -13.7557  -7.2295  -5.3334  -0.7542   3.3427   6.9113   7.1657

     occupation numbers 
     1.0000   1.0000   1.0000   1.0000   0.0000   0.0000   0.0000   0.0000

          k =-0.5000 0.4176 0.0000 (  2781 PWs)   bands (ev):

   -17.0298 -13.6410  -7.3808  -5.3601  -0.6780   3.4760   6.4474   7.2313

     occupation numbers 
     1.0000   1.0000   1.0000   1.0000   0.0000   0.0000   0.0000   0.0000

          k =-0.5000 0.4773 0.0000 (  2788 PWs)   bands (ev):

   -17.1334 -13.3182  -7.8026  -5.4302  -0.4683   3.8214   5.9945   6.7037

     occupation numbers 
     1.0000   1.0000   1.0000   1.0000   0.0000   0.0000   0.0000   0.0000

          k =-0.5000 0.5369 0.0000 (  2791 PWs)   bands (ev):

   -17.2585 -12.8327  -8.4187  -5.5200  -0.1737   4.2317   5.6857   6.2766

     occupation numbers 
     1.0000   1.0000   1.0000   1.0000   0.0000   0.0000   0.0000   0.0000

          k =-0.5000 0.5966 0.0000 (  2788 PWs)   bands (ev):

   -17.3693 -12.2292  -9.1470  -5.6038   0.1348   4.5149   5.5580   5.9542

     occupation numbers 
     1.0000   1.0000   1.0000   1.0000   0.0000   0.0000   0.0000   0.0000

          k =-0.5000 0.6563 0.0000 (  2784 PWs)   bands (ev):

   -17.4434 -11.5519  -9.9120  -5.6618   0.3730   4.6007   5.5587   5.7479

     occupation numbers 
     1.0000   1.0000   1.0000   1.0000   0.0000   0.0000   0.0000   0.0000

          k =-0.5000 0.7159 0.0000 (  2790 PWs)   bands (ev):

   -17.4693 -11.0178 -10.4775  -5.6823   0.4633   4.6072   5.5681   5.6756

     occupation numbers 
     1.0000   1.0000   1.0000   1.0000   0.0000   0.0000   0.0000   0.0000

          k =-0.5000 0.7756 0.0000 (  2784 PWs)   bands (ev):

   -17.4433 -11.5538  -9.9100  -5.6615   0.3724   4.6002   5.5584   5.7479

     occupation numbers 
     1.0000   1.0000   1.0000   1.0000   0.0000   0.0000   0.0000   0.0000

          k =-0.5000 0.8352 0.0000 (  2788 PWs)   bands (ev):

   -17.3692 -12.2311  -9.1449  -5.6033   0.1337   4.5138   5.5577   5.9542

     occupation numbers 
     1.0000   1.0000   1.0000   1.0000   0.0000   0.0000   0.0000   0.0000

          k =-0.5000 0.8949 0.0000 (  2791 PWs)   bands (ev):

   -17.2583 -12.8347  -8.4163  -5.5193  -0.1751   4.2302   5.6857   6.2766

     occupation numbers 
     1.0000   1.0000   1.0000   1.0000   0.0000   0.0000   0.0000   0.0000

          k =-0.5000 0.9546 0.0000 (  2788 PWs)   bands (ev):

   -17.1331 -13.3202  -7.8001  -5.4294  -0.4700   3.8197   5.9946   6.7038

     occupation numbers 
     1.0000   1.0000   1.0000   1.0000   0.0000   0.0000   0.0000   0.0000

          k =-0.5000 1.0142 0.0000 (  2781 PWs)   bands (ev):

   -17.0293 -13.6432  -7.3782  -5.3591  -0.6800   3.4744   6.4475   7.2313

     occupation numbers 
     1.0000   1.0000   1.0000   1.0000   0.0000   0.0000   0.0000   0.0000

          k =-0.5000-0.3580 0.0000 (  2788 PWs)   bands (ev):

   -16.9880 -13.7579  -7.2268  -5.3323  -0.7562   3.3411   6.9114   7.1657

     occupation numbers 
     1.0000   1.0000   1.0000   1.0000   0.0000   0.0000   0.0000   0.0000

          k =-0.5000-0.2983 0.0000 (  2781 PWs)   bands (ev):

   -17.0293 -13.6432  -7.3782  -5.3591  -0.6800   3.4744   6.4475   7.2314

     occupation numbers 
     1.0000   1.0000   1.0000   1.0000   0.0000   0.0000   0.0000   0.0000

          k =-0.5000-0.2386 0.0000 (  2788 PWs)   bands (ev):

   -17.1331 -13.3202  -7.8001  -5.4294  -0.4700   3.8197   5.9946   6.7038

     occupation numbers 
     1.0000   1.0000   1.0000   1.0000   0.0000   0.0000   0.0000   0.0000

          k =-0.5000-0.1790 0.0000 (  2791 PWs)   bands (ev):

   -17.2583 -12.8347  -8.4163  -5.5193  -0.1751   4.2302   5.6857   6.2766

     occupation numbers 
     1.0000   1.0000   1.0000   1.0000   0.0000   0.0000   0.0000   0.0000

          k =-0.5000-0.1193 0.0000 (  2788 PWs)   bands (ev):

   -17.3692 -12.2311  -9.1449  -5.6033   0.1337   4.5138   5.5577   5.9543

     occupation numbers 
     1.0000   1.0000   1.0000   1.0000   0.0000   0.0000   0.0000   0.0000

          k =-0.5000-0.0597 0.0000 (  2784 PWs)   bands (ev):

   -17.4433 -11.5538  -9.9100  -5.6615   0.3724   4.6002   5.5584   5.7479

     occupation numbers 
     1.0000   1.0000   1.0000   1.0000   0.0000   0.0000   0.0000   0.0000

          k =-0.5000 0.0000 0.0000 (  2790 PWs)   bands (ev):

   -17.4693 -11.0178 -10.4775  -5.6823   0.4633   4.6072   5.5681   5.6756

     occupation numbers 
     1.0000   1.0000   1.0000   1.0000   0.0000   0.0000   0.0000   0.0000

          k =-0.5000 0.0597 0.0000 (  2784 PWs)   bands (ev):

   -17.4434 -11.5519  -9.9120  -5.6618   0.3730   4.6007   5.5587   5.7478

     occupation numbers 
     1.0000   1.0000   1.0000   1.0000   0.0000   0.0000   0.0000   0.0000

          k =-0.5000 0.1193 0.0000 (  2788 PWs)   bands (ev):

   -17.3693 -12.2292  -9.1470  -5.6038   0.1348   4.5149   5.5580   5.9542

     occupation numbers 
     1.0000   1.0000   1.0000   1.0000   0.0000   0.0000   0.0000   0.0000

          k =-0.5000 0.1790 0.0000 (  2791 PWs)   bands (ev):

   -17.2585 -12.8327  -8.4187  -5.5200  -0.1737   4.2317   5.6857   6.2766

     occupation numbers 
     1.0000   1.0000   1.0000   1.0000   0.0000   0.0000   0.0000   0.0000

          k =-0.5000 0.2386 0.0000 (  2788 PWs)   bands (ev):

   -17.1334 -13.3182  -7.8026  -5.4302  -0.4683   3.8214   5.9945   6.7038

     occupation numbers 
     1.0000   1.0000   1.0000   1.0000   0.0000   0.0000   0.0000   0.0000

          k =-0.5000 0.2983 0.0000 (  2781 PWs)   bands (ev):

   -17.0298 -13.6410  -7.3808  -5.3601  -0.6780   3.4760   6.4474   7.2313

     occupation numbers 
     1.0000   1.0000   1.0000   1.0000   0.0000   0.0000   0.0000   0.0000

          k =-0.4583 0.3281 0.0000 (  2783 PWs)   bands (ev):

   -17.1205 -13.5706  -7.2101  -5.4480  -0.5949   3.3324   6.1395   6.9163

     occupation numbers 
     1.0000   1.0000   1.0000   1.0000   0.0000   0.0000   0.0000   0.0000

          k =-0.4583 0.3878 0.0000 (  2788 PWs)   bands (ev):

   -16.9783 -13.7164  -7.3387  -5.3134  -0.7402   3.4348   6.7744   7.3045

     occupation numbers 
     1.0000   1.0000   1.0000   1.0000   0.0000   0.0000   0.0000   0.0000

          k =-0.4583 0.4474 0.0000 (  2796 PWs)   bands (ev):

   -16.9151 -13.6369  -7.7446  -5.2304  -0.7386   3.7538   6.8035   7.5731

     occupation numbers 
     1.0000   1.0000   1.0000   1.0000   0.0000   0.0000   0.0000   0.0000

          k =-0.4583 0.5071 0.0000 (  2795 PWs)   bands (ev):

   -16.9284 -13.3375  -8.3551  -5.2011  -0.6045   4.1539   6.4789   7.1130

     occupation numbers 
     1.0000   1.0000   1.0000   1.0000   0.0000   0.0000   0.0000   0.0000

          k =-0.4583 0.5668 0.0000 (  2801 PWs)   bands (ev):

   -16.9831 -12.8604  -9.0876  -5.2097  -0.3889   4.4749   6.2702   6.7192

     occupation numbers 
     1.0000   1.0000   1.0000   1.0000   0.0000   0.0000   0.0000   0.0000

          k =-0.4583 0.6264 0.0000 (  2792 PWs)   bands (ev):

   -17.0407 -12.2597  -9.8676  -5.2321  -0.1692   4.6403   6.1593   6.4323

     occupation numbers 
     1.0000   1.0000   1.0000   1.0000   0.0000   0.0000   0.0000   0.0000

          k =-0.4583 0.6861 0.0000 (  2795 PWs)   bands (ev):

   -17.0753 -11.6237 -10.5960  -5.2485  -0.0301   4.6934   6.1103   6.2761

     occupation numbers 
     1.0000   1.0000   1.0000   1.0000   0.0000   0.0000   0.0000   0.0000

          k =-0.4583 0.7457 0.0000 (  2795 PWs)   bands (ev):

   -17.0753 -11.6252 -10.5944  -5.2484  -0.0304   4.6931   6.1102   6.2761

     occupation numbers 
     1.0000   1.0000   1.0000   1.0000   0.0000   0.0000   0.0000   0.0000

          k =-0.4583 0.8054 0.0000 (  2792 PWs)   bands (ev):

   -17.0405 -12.2616  -9.8656  -5.2316  -0.1701   4.6394   6.1591   6.4323

     occupation numbers 
     1.0000   1.0000   1.0000   1.0000   0.0000   0.0000   0.0000   0.0000

          k =-0.4583 0.8651 0.0000 (  2801 PWs)   bands (ev):

   -16.9828 -12.8625  -9.0854  -5.2090  -0.3902   4.4734   6.2702   6.7193

     occupation numbers 
     1.0000   1.0000   1.0000   1.0000   0.0000   0.0000   0.0000   0.0000

          k =-0.4583 0.9247 0.0000 (  2795 PWs)   bands (ev):

   -16.9280 -13.3397  -8.3527  -5.2002  -0.6063   4.1521   6.4791   7.1131

     occupation numbers 
     1.0000   1.0000   1.0000   1.0000   0.0000   0.0000   0.0000   0.0000

          k =-0.4583 0.9844 0.0000 (  2796 PWs)   bands (ev):

   -16.9146 -13.6391  -7.7420  -5.2293  -0.7406   3.7520   6.8038   7.5730

     occupation numbers 
     1.0000   1.0000   1.0000   1.0000   0.0000   0.0000   0.0000   0.0000

          k =-0.4583-0.3878 0.0000 (  2788 PWs)   bands (ev):

   -16.9778 -13.7186  -7.3361  -5.3124  -0.7422   3.4331   6.7744   7.3048

     occupation numbers 
     1.0000   1.0000   1.0000   1.0000   0.0000   0.0000   0.0000   0.0000

          k =-0.4583-0.3281 0.0000 (  2783 PWs)   bands (ev):

   -17.1200 -13.5727  -7.2074  -5.4470  -0.5968   3.3307   6.1395   6.9162

     occupation numbers 
     1.0000   1.0000   1.0000   1.0000   0.0000   0.0000   0.0000   0.0000

          k =-0.4583-0.2685 0.0000 (  2775 PWs)   bands (ev):

   -17.3078 -13.2351  -7.3806  -5.6127  -0.3243   3.4895   5.6017   6.3438

     occupation numbers 
     1.0000   1.0000   1.0000   1.0000   0.0000   0.0000   0.0000   0.0000

          k =-0.4583-0.2088 0.0000 (  2785 PWs)   bands (ev):

   -17.4993 -12.7502  -7.8157  -5.7819   0.0319   3.8395   5.1973   5.8730

     occupation numbers 
     1.0000   1.0000   1.0000   1.0000   0.0000   0.0000   0.0000   0.0000

          k =-0.4583-0.1491 0.0000 (  2784 PWs)   bands (ev):

   -17.6634 -12.1554  -8.4345  -5.9294   0.4123   4.1863   4.9932   5.5072

     occupation numbers 
     1.0000   1.0000   1.0000   1.0000   0.0000   0.0000   0.0000   0.0000

          k =-0.4583-0.0895 0.0000 (  2778 PWs)   bands (ev):

   -17.7812 -11.4816  -9.1556  -6.0371   0.7423   4.2794   5.0574   5.2512

     occupation numbers 
     1.0000   1.0000   1.0000   1.0000   0.0000   0.0000   0.0000   0.0000

          k =-0.4583-0.0298 0.0000 (  2782 PWs)   bands (ev):

   -17.8423 -10.7760  -9.8942  -6.0937   0.9382   4.2449   5.1167   5.1317

     occupation numbers 
     1.0000   1.0000   1.0000   1.0000   0.0000   0.0000   0.0000   0.0000

          k =-0.4583 0.0298 0.0000 (  2782 PWs)   bands (ev):

   -17.8423 -10.7742  -9.8960  -6.0938   0.9385   4.2450   5.1167   5.1319

     occupation numbers 
     1.0000   1.0000   1.0000   1.0000   0.0000   0.0000   0.0000   0.0000

          k =-0.4583 0.0895 0.0000 (  2778 PWs)   bands (ev):

   -17.7812 -11.4796  -9.1578  -6.0374   0.7430   4.2798   5.0579   5.2512

     occupation numbers 
     1.0000   1.0000   1.0000   1.0000   0.0000   0.0000   0.0000   0.0000

          k =-0.4583 0.1491 0.0000 (  2784 PWs)   bands (ev):

   -17.6635 -12.1535  -8.4368  -5.9299   0.4134   4.1874   4.9934   5.5072

     occupation numbers 
     1.0000   1.0000   1.0000   1.0000   0.0000   0.0000   0.0000   0.0000

          k =-0.4583 0.2088 0.0000 (  2785 PWs)   bands (ev):

   -17.4995 -12.7483  -7.8182  -5.7825   0.0334   3.8410   5.1973   5.8731

     occupation numbers 
     1.0000   1.0000   1.0000   1.0000   0.0000   0.0000   0.0000   0.0000

          k =-0.4583 0.2685 0.0000 (  2775 PWs)   bands (ev):

   -17.3081 -13.2331  -7.3832  -5.6135  -0.3226   3.4911   5.6016   6.3437

     occupation numbers 
     1.0000   1.0000   1.0000   1.0000   0.0000   0.0000   0.0000   0.0000

          k =-0.4167 0.2983 0.0000 (  2781 PWs)   bands (ev):

   -17.4468 -13.0854  -7.1525  -5.7481  -0.1635   3.2978   5.2932   6.0504

     occupation numbers 
     1.0000   1.0000   1.0000   1.0000   0.0000   0.0000   0.0000   0.0000

          k =-0.4167 0.3580 0.0000 (  2782 PWs)   bands (ev):

   -17.1826 -13.4301  -7.2581  -5.4919  -0.4895   3.3675   5.9003   6.6705

     occupation numbers 
     1.0000   1.0000   1.0000   1.0000   0.0000   0.0000   0.0000   0.0000

          k =-0.4167 0.4176 0.0000 (  2796 PWs)   bands (ev):

   -16.9464 -13.6013  -7.6459  -5.2534  -0.7025   3.6445   6.6134   7.3522

     occupation numbers 
     1.0000   1.0000   1.0000   1.0000   0.0000   0.0000   0.0000   0.0000

          k =-0.4167 0.4773 0.0000 (  2802 PWs)   bands (ev):

   -16.7798 -13.5591  -8.2474  -5.0606  -0.7834   3.9948   7.1599   7.4962

     occupation numbers 
     1.0000   1.0000   1.0000   1.0000   0.0000   0.0000   0.0000   0.0000

          k =-0.4167 0.5369 0.0000 (  2801 PWs)   bands (ev):

   -16.6988 -13.2929  -8.9803  -4.9293  -0.7417   4.2691   7.0694   7.5189

     occupation numbers 
     1.0000   1.0000   1.0000   1.0000   0.0000   0.0000   0.0000   0.0000

          k =-0.4167 0.5966 0.0000 (  2803 PWs)   bands (ev):

   -16.6809 -12.8378  -9.7694  -4.8560  -0.6239   4.4109   6.9277   7.1390

     occupation numbers 
     1.0000   1.0000   1.0000   1.0000   0.0000   0.0000   0.0000   0.0000

          k =-0.4167 0.6563 0.0000 (  2803 PWs)   bands (ev):

   -16.6882 -12.2666 -10.5380  -4.8233  -0.5043   4.4610   6.8168   6.8780

     occupation numbers 
     1.0000   1.0000   1.0000   1.0000   0.0000   0.0000   0.0000   0.0000

          k =-0.4167 0.7159 0.0000 (  2802 PWs)   bands (ev):

   -16.6937 -11.8538 -11.0160  -4.8145  -0.4546   4.4712   6.7767   6.7831

     occupation numbers 
     1.0000   1.0000   1.0000   1.0000   0.0000   0.0000   0.0000   0.0000

          k =-0.4167 0.7756 0.0000 (  2803 PWs)   bands (ev):

   -16.6880 -12.2684 -10.5361  -4.8229  -0.5050   4.4604   6.8168   6.8781

     occupation numbers 
     1.0000   1.0000   1.0000   1.0000   0.0000   0.0000   0.0000   0.0000

          k =-0.4167 0.8352 0.0000 (  2803 PWs)   bands (ev):

   -16.6806 -12.8399  -9.7673  -4.8553  -0.6252   4.4097   6.9276   7.1392

     occupation numbers 
     1.0000   1.0000   1.0000   1.0000   0.0000   0.0000   0.0000   0.0000

          k =-0.4167 0.8949 0.0000 (  2801 PWs)   bands (ev):

   -16.6984 -13.2951  -8.9781  -4.9284  -0.7434   4.2673   7.0696   7.5190

     occupation numbers 
     1.0000   1.0000   1.0000   1.0000   0.0000   0.0000   0.0000   0.0000

          k =-0.4167 0.9546 0.0000 (  2802 PWs)   bands (ev):

   -16.7792 -13.5613  -8.2450  -5.0595  -0.7854   3.9928   7.1608   7.4961

     occupation numbers 
     1.0000   1.0000   1.0000   1.0000   0.0000   0.0000   0.0000   0.0000

          k =-0.4167-0.4176 0.0000 (  2796 PWs)   bands (ev):

   -16.9459 -13.6035  -7.6433  -5.2524  -0.7045   3.6425   6.6134   7.3537

     occupation numbers 
     1.0000   1.0000   1.0000   1.0000   0.0000   0.0000   0.0000   0.0000

          k =-0.4167-0.3580 0.0000 (  2782 PWs)   bands (ev):

   -17.1822 -13.4322  -7.2555  -5.4909  -0.4914   3.3657   5.9002   6.6705

     occupation numbers 
     1.0000   1.0000   1.0000   1.0000   0.0000   0.0000   0.0000   0.0000

          k =-0.4167-0.2983 0.0000 (  2781 PWs)   bands (ev):

   -17.4465 -13.0874  -7.1498  -5.7473  -0.1652   3.2961   5.2932   6.0503

     occupation numbers 
     1.0000   1.0000   1.0000   1.0000   0.0000   0.0000   0.0000   0.0000

          k =-0.4167-0.2386 0.0000 (  2781 PWs)   bands (ev):

   -17.6999 -12.6094  -7.3430  -5.9927   0.2389   3.4691   4.8094   5.5323

     occupation numbers 
     1.0000   1.0000   1.0000   1.0000   0.0000   0.0000   0.0000   0.0000

          k =-0.4167-0.1790 0.0000 (  2770 PWs)   bands (ev):

   -17.9160 -12.0292  -7.7885  -6.2041   0.6739   3.7782   4.4964   5.1187

     occupation numbers 
     1.0000   1.0000   1.0000   1.0000   0.0000   0.0000   0.0000   0.0000

          k =-0.4167-0.1193 0.0000 (  2767 PWs)   bands (ev):

   -18.0789 -11.3709  -8.4069  -6.3653   1.0788   3.8891   4.5366   4.8125

     occupation numbers 
     1.0000   1.0000   1.0000   1.0000   0.0000   0.0000   0.0000   0.0000

          k =-0.4167-0.0597 0.0000 (  2772 PWs)   bands (ev):

   -18.1796 -10.6601  -9.1176  -6.4658   1.3761   3.8015   4.6199   4.6866

     occupation numbers 
     1.0000   1.0000   1.0000   1.0000   0.0000   0.0000   0.0000   0.0000

          k =-0.4167 0.0000 0.0000 (  2764 PWs)   bands (ev):

   -18.2137 -10.0451  -9.7365  -6.4999   1.4876   3.7593   4.5531   4.7019

     occupation numbers 
     1.0000   1.0000   1.0000   1.0000   0.0000   0.0000   0.0000   0.0000

          k =-0.4167 0.0597 0.0000 (  2772 PWs)   bands (ev):

   -18.1797 -10.6581  -9.1198  -6.4659   1.3766   3.8016   4.6199   4.6870

     occupation numbers 
     1.0000   1.0000   1.0000   1.0000   0.0000   0.0000   0.0000   0.0000

          k =-0.4167 0.1193 0.0000 (  2767 PWs)   bands (ev):

   -18.0789 -11.3690  -8.4093  -6.3656   1.0796   3.8896   4.5373   4.8125

     occupation numbers 
     1.0000   1.0000   1.0000   1.0000   0.0000   0.0000   0.0000   0.0000

          k =-0.4167 0.1790 0.0000 (  2770 PWs)   bands (ev):

   -17.9161 -12.0272  -7.7911  -6.2045   0.6751   3.7795   4.4966   5.1187

     occupation numbers 
     1.0000   1.0000   1.0000   1.0000   0.0000   0.0000   0.0000   0.0000

          k =-0.4167 0.2386 0.0000 (  2781 PWs)   bands (ev):

   -17.7001 -12.6075  -7.3457  -5.9934   0.2404   3.4707   4.8094   5.5321

     occupation numbers 
     1.0000   1.0000   1.0000   1.0000   0.0000   0.0000   0.0000   0.0000

          k =-0.3750 0.2685 0.0000 (  2777 PWs)   bands (ev):

   -17.8558 -12.4140  -7.0584  -6.1496   0.4495   3.2276   4.5149   5.5445

     occupation numbers 
     1.0000   1.0000   1.0000   1.0000   0.0000   0.0000   0.0000   0.0000

          k =-0.3750 0.3281 0.0000 (  2780 PWs)   bands (ev):

   -17.5447 -12.8813  -7.1414  -5.8314   0.0065   3.2658   5.0676   5.8305

     occupation numbers 
     1.0000   1.0000   1.0000   1.0000   0.0000   0.0000   0.0000   0.0000

          k =-0.3750 0.3878 0.0000 (  2790 PWs)   bands (ev):

   -17.2110 -13.2281  -7.5093  -5.4899  -0.3694   3.4867   5.7380   6.4986

     occupation numbers 
     1.0000   1.0000   1.0000   1.0000   0.0000   0.0000   0.0000   0.0000

          k =-0.3750 0.4474 0.0000 (  2804 PWs)   bands (ev):

   -16.8896 -13.4198  -8.0987  -5.1527  -0.6522   3.7558   6.5176   7.2324

     occupation numbers 
     1.0000   1.0000   1.0000   1.0000   0.0000   0.0000   0.0000   0.0000

          k =-0.3750 0.5071 0.0000 (  2801 PWs)   bands (ev):

   -16.6251 -13.4161  -8.8278  -4.8522  -0.8264   3.9363   7.3874   7.6209

     occupation numbers 
     1.0000   1.0000   1.0000   1.0000   0.0000   0.0000   0.0000   0.0000

          k =-0.3750 0.5668 0.0000 (  2804 PWs)   bands (ev):

   -16.4505 -13.1948  -9.6203  -4.6179  -0.8955   4.0007   7.7662   7.7753

     occupation numbers 
     1.0000   1.0000   1.0000   1.0000   0.0000   0.0000   0.0000   0.0000

          k =-0.3750 0.6264 0.0000 (  2809 PWs)   bands (ev):

   -16.3619 -12.7858 -10.4048  -4.4650  -0.8912   4.0021   7.4141   7.6461

     occupation numbers 
     1.0000   1.0000   1.0000   1.0000   0.0000   0.0000   0.0000   0.0000

          k =-0.3750 0.6861 0.0000 (  2805 PWs)   bands (ev):

   -16.3292 -12.3209 -11.0521  -4.3919  -0.8675   3.9907   7.2000   7.5571

     occupation numbers 
     1.0000   1.0000   1.0000   1.0000   0.0000   0.0000   0.0000   0.0000

          k =-0.3750 0.7457 0.0000 (  2805 PWs)   bands (ev):

   -16.3291 -12.3223 -11.0508  -4.3917  -0.8679   3.9904   7.2001   7.5571

     occupation numbers 
     1.0000   1.0000   1.0000   1.0000   0.0000   0.0000   0.0000   0.0000

          k =-0.3750 0.8054 0.0000 (  2809 PWs)   bands (ev):

   -16.3616 -12.7879 -10.4028  -4.4644  -0.8923   4.0013   7.4144   7.6460

     occupation numbers 
     1.0000   1.0000   1.0000   1.0000   0.0000   0.0000   0.0000   0.0000

          k =-0.3750 0.8651 0.0000 (  2804 PWs)   bands (ev):

   -16.4500 -13.1971  -9.6181  -4.6170  -0.8971   3.9993   7.7663   7.7758

     occupation numbers 
     1.0000   1.0000   1.0000   1.0000   0.0000   0.0000   0.0000   0.0000

          k =-0.3750 0.9247 0.0000 (  2801 PWs)   bands (ev):

   -16.6245 -13.4185  -8.8254  -4.8511  -0.8283   3.9343   7.3875   7.6229

     occupation numbers 
     1.0000   1.0000   1.0000   1.0000   0.0000   0.0000   0.0000   0.0000

          k =-0.3750-0.4474 0.0000 (  2804 PWs)   bands (ev):

   -16.8891 -13.4220  -8.0962  -5.1517  -0.6541   3.7536   6.5176   7.2352

     occupation numbers 
     1.0000   1.0000   1.0000   1.0000   0.0000   0.0000   0.0000   0.0000

          k =-0.3750-0.3878 0.0000 (  2790 PWs)   bands (ev):

   -17.2106 -13.2302  -7.5066  -5.4890  -0.3712   3.4845   5.7380   6.4987

     occupation numbers 
     1.0000   1.0000   1.0000   1.0000   0.0000   0.0000   0.0000   0.0000

          k =-0.3750-0.3281 0.0000 (  2780 PWs)   bands (ev):

   -17.5444 -12.8834  -7.1387  -5.8307   0.0049   3.2638   5.0676   5.8306

     occupation numbers 
     1.0000   1.0000   1.0000   1.0000   0.0000   0.0000   0.0000   0.0000

          k =-0.3750-0.2685 0.0000 (  2777 PWs)   bands (ev):

   -17.8556 -12.4160  -7.0556  -6.1490   0.4481   3.2257   4.5149   5.2629

     occupation numbers 
     1.0000   1.0000   1.0000   1.0000   0.0000   0.0000   0.0000   0.0000

          k =-0.3750-0.2088 0.0000 (  2779 PWs)   bands (ev):

   -18.1220 -11.8532  -7.2664  -6.4234   0.9239   3.3906   4.1046   4.8003

     occupation numbers 
     1.0000   1.0000   1.0000   1.0000   0.0000   0.0000   0.0000   0.0000

          k =-0.3750-0.1491 0.0000 (  2761 PWs)   bands (ev):

   -18.3303 -11.2150  -7.7192  -6.6395   1.3858   3.5144   4.0095   4.4441

     occupation numbers 
     1.0000   1.0000   1.0000   1.0000   0.0000   0.0000   0.0000   0.0000

          k =-0.3750-0.0895 0.0000 (  2758 PWs)   bands (ev):

   -18.4727 -10.5209  -8.3345  -6.7883   1.7695   3.3857   4.1962   4.2233

     occupation numbers 
     1.0000   1.0000   1.0000   1.0000   0.0000   0.0000   0.0000   0.0000

          k =-0.3750-0.0298 0.0000 (  2768 PWs)   bands (ev):

   -18.5448  -9.7981  -9.0320  -6.8640   1.9950   3.2903   4.0653   4.2515

     occupation numbers 
     1.0000   1.0000   1.0000   1.0000   0.0000   0.0000   0.0000   0.0000

          k =-0.3750 0.0298 0.0000 (  2768 PWs)   bands (ev):

   -18.5448  -9.7961  -9.0342  -6.8641   1.9952   3.2904   4.0653   4.2516

     occupation numbers 
     1.0000   1.0000   1.0000   1.0000   0.0000   0.0000   0.0000   0.0000

          k =-0.3750 0.0895 0.0000 (  2758 PWs)   bands (ev):

   -18.4727 -10.5188  -8.3369  -6.7885   1.7701   3.3859   4.1962   4.2239

     occupation numbers 
     1.0000   1.0000   1.0000   1.0000   0.0000   0.0000   0.0000   0.0000

          k =-0.3750 0.1491 0.0000 (  2761 PWs)   bands (ev):

   -18.3303 -11.2131  -7.7218  -6.6398   1.3867   3.5150   4.0103   4.4441

     occupation numbers 
     1.0000   1.0000   1.0000   1.0000   0.0000   0.0000   0.0000   0.0000

          k =-0.3750 0.2088 0.0000 (  2779 PWs)   bands (ev):

   -18.1221 -11.8513  -7.2691  -6.4238   0.9251   3.3922   4.1047   4.8008

     occupation numbers 
     1.0000   1.0000   1.0000   1.0000   0.0000   0.0000   0.0000   0.0000

          k =-0.3333 0.2386 0.0000 (  2770 PWs)   bands (ev):

   -18.2780 -11.6300  -6.9303  -6.5846   1.1642   3.1037   3.8191   4.5575

     occupation numbers 
     1.0000   1.0000   1.0000   1.0000   0.0000   0.0000   0.0000   0.0000

          k =-0.3333 0.2983 0.0000 (  2773 PWs)   bands (ev):

   -17.9630 -12.1745  -6.9923  -6.2488   0.6566   3.1148   4.3087   5.0698

     occupation numbers 
     1.0000   1.0000   1.0000   1.0000   0.0000   0.0000   0.0000   0.0000

          k =-0.3333 0.3580 0.0000 (  2786 PWs)   bands (ev):

   -17.5977 -12.6302  -7.3393  -5.8614   0.1779   3.2662   4.9252   5.6870

     occupation numbers 
     1.0000   1.0000   1.0000   1.0000   0.0000   0.0000   0.0000   0.0000

          k =-0.3333 0.4176 0.0000 (  2792 PWs)   bands (ev):

   -17.2010 -12.9774  -7.9133  -5.4401  -0.2488   3.4289   5.6561   6.4019

     occupation numbers 
     1.0000   1.0000   1.0000   1.0000   0.0000   0.0000   0.0000   0.0000

          k =-0.3333 0.4773 0.0000 (  2795 PWs)   bands (ev):

   -16.8035 -13.1886  -8.6340  -5.0103  -0.6075   3.4925   6.4945   7.4083

     occupation numbers 
     1.0000   1.0000   1.0000   1.0000   0.0000   0.0000   0.0000   0.0000

          k =-0.3333 0.5369 0.0000 (  2812 PWs)   bands (ev):

   -16.4504 -13.2285  -9.4242  -4.6063  -0.8877   3.4626   7.4320   8.1945

     occupation numbers 
     1.0000   1.0000   1.0000   1.0000   0.0000   0.0000   0.0000   0.0000

          k =-0.3333 0.5966 0.0000 (  2802 PWs)   bands (ev):

   -16.1889 -13.0722 -10.2127  -4.2700  -1.0842   3.3985   7.7944   8.4236

     occupation numbers 
     1.0000   1.0000   1.0000   1.0000   0.0000   0.0000   0.0000   0.0000

          k =-0.3333 0.6563 0.0000 (  2811 PWs)   bands (ev):

   -16.0404 -12.7610 -10.9060  -4.0457  -1.1981   3.3448   7.5157   8.4345

     occupation numbers 
     1.0000   1.0000   1.0000   1.0000   0.0000   0.0000   0.0000   0.0000

          k =-0.3333 0.7159 0.0000 (  2806 PWs)   bands (ev):

   -15.9943 -12.5444 -11.2483  -3.9664  -1.2351   3.3245   7.4037   8.3871

     occupation numbers 
     1.0000   1.0000   1.0000   1.0000   0.0000   0.0000   0.0000   0.0000

          k =-0.3333 0.7756 0.0000 (  2811 PWs)   bands (ev):

   -16.0402 -12.7628 -10.9043  -4.0451  -1.1989   3.3443   7.5161   8.4345

     occupation numbers 
     1.0000   1.0000   1.0000   1.0000   0.0000   0.0000   0.0000   0.0000

          k =-0.3333 0.8352 0.0000 (  2802 PWs)   bands (ev):

   -16.1884 -13.0744 -10.2106  -4.2691  -1.0857   3.3976   7.7950   8.4234

     occupation numbers 
     1.0000   1.0000   1.0000   1.0000   0.0000   0.0000   0.0000   0.0000

          k =-0.3333 0.8949 0.0000 (  2812 PWs)   bands (ev):

   -16.4499 -13.2309  -9.4218  -4.6053  -0.8895   3.4612   7.4318   8.1982

     occupation numbers 
     1.0000   1.0000   1.0000   1.0000   0.0000   0.0000   0.0000   0.0000

          k =-0.3333-0.4773 0.0000 (  2795 PWs)   bands (ev):

   -16.8031 -13.1908  -8.6315  -5.0094  -0.6093   3.4906   6.4944   7.4118

     occupation numbers 
     1.0000   1.0000   1.0000   1.0000   0.0000   0.0000   0.0000   0.0000

          k =-0.3333-0.4176 0.0000 (  2792 PWs)   bands (ev):

   -17.2007 -12.9795  -7.9106  -5.4393  -0.2505   3.4266   5.6560   6.4020

     occupation numbers 
     1.0000   1.0000   1.0000   1.0000   0.0000   0.0000   0.0000   0.0000

          k =-0.3333-0.3580 0.0000 (  2786 PWs)   bands (ev):

   -17.5975 -12.6323  -7.3365  -5.8607   0.1763   3.2638   4.9252   5.6870

     occupation numbers 
     1.0000   1.0000   1.0000   1.0000   0.0000   0.0000   0.0000   0.0000

          k =-0.3333-0.2983 0.0000 (  2773 PWs)   bands (ev):

   -17.9629 -12.1765  -6.9894  -6.2483   0.6552   3.1126   4.3087   5.0697

     occupation numbers 
     1.0000   1.0000   1.0000   1.0000   0.0000   0.0000   0.0000   0.0000

          k =-0.3333-0.2386 0.0000 (  2770 PWs)   bands (ev):

   -18.2779 -11.6320  -6.9274  -6.5841   1.1631   3.1017   3.8190   4.5575

     occupation numbers 
     1.0000   1.0000   1.0000   1.0000   0.0000   0.0000   0.0000   0.0000

          k =-0.3333-0.1790 0.0000 (  2758 PWs)   bands (ev):

   -18.5313 -11.0151  -7.1524  -6.8558   1.6661   3.1810   3.5525   4.1520

     occupation numbers 
     1.0000   1.0000   1.0000   1.0000   0.0000   0.0000   0.0000   0.0000

          k =-0.3333-0.1193 0.0000 (  2759 PWs)   bands (ev):

   -18.7161 -10.3424  -7.6092  -7.0550   2.1156   3.0323   3.7317   3.8527

     occupation numbers 
     1.0000   1.0000   1.0000   1.0000   0.0000   0.0000   0.0000   0.0000

          k =-0.3333-0.0597 0.0000 (  2763 PWs)   bands (ev):

   -18.8284  -9.6338  -8.2188  -7.1765   2.4442   2.8824   3.6607   3.8299

     occupation numbers 
     1.0000   1.0000   1.0000   1.0000   0.0000   0.0000   0.0000   0.0000

          k =-0.3333 0.0000 0.0000 (  2774 PWs)   bands (ev):

   -18.8661  -8.9518  -8.8734  -7.2173   2.5699   2.8296   3.5909   3.8102

     occupation numbers 
     1.0000   1.0000   1.0000   1.0000   0.0000   0.0000   0.0000   0.0000

          k =-0.3333 0.0597 0.0000 (  2763 PWs)   bands (ev):

   -18.8285  -9.6316  -8.2213  -7.1766   2.4445   2.8825   3.6607   3.8301

     occupation numbers 
     1.0000   1.0000   1.0000   1.0000   0.0000   0.0000   0.0000   0.0000

          k =-0.3333 0.1193 0.0000 (  2759 PWs)   bands (ev):

   -18.7162 -10.3403  -7.6118  -7.0552   2.1162   3.0325   3.7328   3.8528

     occupation numbers 
     1.0000   1.0000   1.0000   1.0000   0.0000   0.0000   0.0000   0.0000

          k =-0.3333 0.1790 0.0000 (  2758 PWs)   bands (ev):

   -18.5313 -11.0130  -7.1552  -6.8561   1.6671   3.1821   3.5532   4.1521

     occupation numbers 
     1.0000   1.0000   1.0000   1.0000   0.0000   0.0000   0.0000   0.0000

          k =-0.2917 0.2088 0.0000 (  2758 PWs)   bands (ev):

   -18.6790 -10.7742  -7.0113  -6.7719   1.9199   2.8961   3.2256   3.9394

     occupation numbers 
     1.0000   1.0000   1.0000   1.0000   0.0000   0.0000   0.0000   0.0000

          k =-0.2917 0.2685 0.0000 (  2777 PWs)   bands (ev):

   -18.3812 -11.3707  -6.8160  -6.6847   1.3874   2.8987   3.6295   4.3924

     occupation numbers 
     1.0000   1.0000   1.0000   1.0000   0.0000   0.0000   0.0000   0.0000

          k =-0.2917 0.3281 0.0000 (  2779 PWs)   bands (ev):

   -18.0192 -11.8988  -7.1422  -6.2894   0.8510   2.9700   4.1891   4.9543

     occupation numbers 
     1.0000   1.0000   1.0000   1.0000   0.0000   0.0000   0.0000   0.0000

          k =-0.2917 0.3878 0.0000 (  2779 PWs)   bands (ev):

   -17.6029 -12.3457  -7.6979  -5.8364   0.3344   3.0155   4.8665   5.6209

     occupation numbers 
     1.0000   1.0000   1.0000   1.0000   0.0000   0.0000   0.0000   0.0000

          k =-0.2917 0.4474 0.0000 (  2793 PWs)   bands (ev):

   -17.1487 -12.6976  -8.4053  -5.3411  -0.1491   2.9639   5.6541   6.3806

     occupation numbers 
     1.0000   1.0000   1.0000   1.0000   0.0000   0.0000   0.0000   0.0000

          k =-0.2917 0.5071 0.0000 (  2809 PWs)   bands (ev):

   -16.6841 -12.9361  -9.1866  -4.8259  -0.5926   2.8449   6.5474   7.1893

     occupation numbers 
     1.0000   1.0000   1.0000   1.0000   0.0000   0.0000   0.0000   0.0000

          k =-0.2917 0.5668 0.0000 (  2806 PWs)   bands (ev):

   -16.2539 -13.0376  -9.9694  -4.3239  -0.9903   2.7150   7.5386   7.7949

     occupation numbers 
     1.0000   1.0000   1.0000   1.0000   0.0000   0.0000   0.0000   0.0000

          k =-0.2917 0.6264 0.0000 (  2807 PWs)   bands (ev):

   -15.9202 -12.9893 -10.6708  -3.8894  -1.3241   2.6122   7.7550   8.6040

     occupation numbers 
     1.0000   1.0000   1.0000   1.0000   0.0000   0.0000   0.0000   0.0000

          k =-0.2917 0.6861 0.0000 (  2801 PWs)   bands (ev):

   -15.7403 -12.8606 -11.1437  -3.6151  -1.5366   2.5566   7.5897   9.2961

     occupation numbers 
     1.0000   1.0000   1.0000   1.0000   0.0000   0.0000   0.0000   0.0000

          k =-0.2917 0.7457 0.0000 (  2801 PWs)   bands (ev):

   -15.7402 -12.8616 -11.1428  -3.6147  -1.5371   2.5564   7.5899   9.2961

     occupation numbers 
     1.0000   1.0000   1.0000   1.0000   0.0000   0.0000   0.0000   0.0000

          k =-0.2917 0.8054 0.0000 (  2807 PWs)   bands (ev):

   -15.9198 -12.9914 -10.6689  -3.8886  -1.3253   2.6117   7.7556   8.6037

     occupation numbers 
     1.0000   1.0000   1.0000   1.0000   0.0000   0.0000   0.0000   0.0000

          k =-0.2917 0.8651 0.0000 (  2806 PWs)   bands (ev):

   -16.2534 -13.0399  -9.9671  -4.3230  -0.9919   2.7141   7.5385   7.7955

     occupation numbers 
     1.0000   1.0000   1.0000   1.0000   0.0000   0.0000   0.0000   0.0000

          k =-0.2917-0.5071 0.0000 (  2809 PWs)   bands (ev):

   -16.6837 -12.9384  -9.1841  -4.8250  -0.5942   2.8436   6.5473   7.1895

     occupation numbers 
     1.0000   1.0000   1.0000   1.0000   0.0000   0.0000   0.0000   0.0000

          k =-0.2917-0.4474 0.0000 (  2793 PWs)   bands (ev):

   -17.1484 -12.6998  -8.4027  -5.3404  -0.1507   2.9621   5.6541   6.3807

     occupation numbers 
     1.0000   1.0000   1.0000   1.0000   0.0000   0.0000   0.0000   0.0000

          k =-0.2917-0.3878 0.0000 (  2779 PWs)   bands (ev):

   -17.6027 -12.3478  -7.6951  -5.8358   0.3329   3.0132   4.8665   5.9106

     occupation numbers 
     1.0000   1.0000   1.0000   1.0000   0.0000   0.0000   0.0000   0.0000

          k =-0.2917-0.3281 0.0000 (  2779 PWs)   bands (ev):

   -18.0191 -11.9008  -7.1393  -6.2889   0.8497   2.9674   4.1891   4.9542

     occupation numbers 
     1.0000   1.0000   1.0000   1.0000   0.0000   0.0000   0.0000   0.0000

          k =-0.2917-0.2685 0.0000 (  2777 PWs)   bands (ev):

   -18.3811 -11.3728  -6.8130  -6.6843   1.3863   2.8963   3.6295   4.3923

     occupation numbers 
     1.0000   1.0000   1.0000   1.0000   0.0000   0.0000   0.0000   0.0000

          k =-0.2917-0.2088 0.0000 (  2758 PWs)   bands (ev):

   -18.6790 -10.7763  -7.0110  -6.7689   1.9190   2.8942   3.2253   3.9393

     occupation numbers 
     1.0000   1.0000   1.0000   1.0000   0.0000   0.0000   0.0000   0.0000

          k =-0.2917-0.1491 0.0000 (  2759 PWs)   bands (ev):

   -18.9066 -10.1257  -7.2616  -7.0038   2.4105   2.7528   3.2319   3.5965

     occupation numbers 
     1.0000   1.0000   1.0000   1.0000   0.0000   0.0000   0.0000   0.0000

          k =-0.2917-0.0895 0.0000 (  2760 PWs)   bands (ev):

   -19.0601  -9.4385  -7.4601  -7.4313   2.5494   2.8088   3.3611   3.4251

     occupation numbers 
     1.0000   1.0000   1.0000   1.0000   0.0000   0.0000   0.0000   0.0000

          k =-0.2917-0.0298 0.0000 (  2760 PWs)   bands (ev):

   -19.1374  -8.7400  -8.0601  -7.5168   2.4409   3.0606   3.2189   3.4174

     occupation numbers 
     1.0000   1.0000   1.0000   1.0000   0.0000   0.0000   0.0000   0.0000

          k =-0.2917 0.0298 0.0000 (  2760 PWs)   bands (ev):

   -19.1374  -8.7376  -8.0627  -7.5168   2.4409   3.0606   3.2190   3.4175

     occupation numbers 
     1.0000   1.0000   1.0000   1.0000   0.0000   0.0000   0.0000   0.0000

          k =-0.2917 0.0895 0.0000 (  2760 PWs)   bands (ev):

   -19.0601  -9.4362  -7.4628  -7.4314   2.5495   2.8092   3.3613   3.4259

     occupation numbers 
     1.0000   1.0000   1.0000   1.0000   0.0000   0.0000   0.0000   0.0000

          k =-0.2917 0.1491 0.0000 (  2759 PWs)   bands (ev):

   -18.9066 -10.1235  -7.2618  -7.0068   2.4111   2.7531   3.2335   3.5966

     occupation numbers 
     1.0000   1.0000   1.0000   1.0000   0.0000   0.0000   0.0000   0.0000

          k =-0.2500 0.1790 0.0000 (  2755 PWs)   bands (ev):

   -19.0417  -9.8749  -7.4057  -6.5881   2.5443   2.6443   2.7924   3.4367

     occupation numbers 
     1.0000   1.0000   1.0000   1.0000   0.0000   0.0000   0.0000   0.0000

          k =-0.2500 0.2386 0.0000 (  2760 PWs)   bands (ev):

   -18.7716 -10.5056  -7.1035  -6.6191   2.1394   2.6130   3.0322   3.8067

     occupation numbers 
     1.0000   1.0000   1.0000   1.0000   0.0000   0.0000   0.0000   0.0000

          k =-0.2500 0.2983 0.0000 (  2775 PWs)   bands (ev):

   -18.4299 -11.0851  -6.9265  -6.7228   1.5827   2.6025   3.5328   4.3054

     occupation numbers 
     1.0000   1.0000   1.0000   1.0000   0.0000   0.0000   0.0000   0.0000

          k =-0.2500 0.3580 0.0000 (  2773 PWs)   bands (ev):

   -18.0224 -11.6024  -7.4621  -6.2702   1.0150   2.5401   4.1557   4.9172

     occupation numbers 
     1.0000   1.0000   1.0000   1.0000   0.0000   0.0000   0.0000   0.0000

          k =-0.2500 0.4176 0.0000 (  2797 PWs)   bands (ev):

   -17.5580 -12.0496  -8.1511  -5.7556   0.4533   2.3921   4.8902   5.6329

     occupation numbers 
     1.0000   1.0000   1.0000   1.0000   0.0000   0.0000   0.0000   0.0000

          k =-0.2500 0.4773 0.0000 (  2809 PWs)   bands (ev):

   -17.0513 -12.4209  -8.9161  -5.1921  -0.0962   2.1981   5.7334   6.7875

     occupation numbers 
     1.0000   1.0000   1.0000   1.0000   0.0000   0.0000   0.0000   0.0000

          k =-0.2500 0.5369 0.0000 (  2804 PWs)   bands (ev):

   -16.5279 -12.7121  -9.6833  -4.5989  -0.6334   2.0081   6.6816   7.2595

     occupation numbers 
     1.0000   1.0000   1.0000   1.0000   0.0000   0.0000   0.0000   0.0000

          k =-0.2500 0.5966 0.0000 (  2802 PWs)   bands (ev):

   -16.0346 -12.9203 -10.3731  -4.0064  -1.1545   1.8552   7.7251   7.7969

     occupation numbers 
     1.0000   1.0000   1.0000   1.0000   0.0000   0.0000   0.0000   0.0000

          k =-0.2500 0.6563 0.0000 (  2791 PWs)   bands (ev):

   -15.6554 -13.0439 -10.8799  -3.4800  -1.6228   1.7576   7.7930   8.8350

     occupation numbers 
     1.0000   1.0000   1.0000   1.0001   0.0000   0.0000   0.0000   0.0000

          k =-0.2500 0.7159 0.0000 (  2788 PWs)   bands (ev):

   -15.5069 -13.0849 -11.0723  -3.2227  -1.8580   1.7242   7.7338   9.7879

     occupation numbers 
     1.0000   1.0000   1.0000   1.0060   0.0000   0.0000   0.0000   0.0000

          k =-0.2500 0.7756 0.0000 (  2791 PWs)   bands (ev):

   -15.6551 -13.0454 -10.8786  -3.4793  -1.6238   1.7574   7.7934   8.8348

     occupation numbers 
     1.0000   1.0000   1.0000   1.0001   0.0000   0.0000   0.0000   0.0000

          k =-0.2500 0.8352 0.0000 (  2802 PWs)   bands (ev):

   -16.0342 -12.9225 -10.3711  -4.0055  -1.1559   1.8546   7.7250   7.7976

     occupation numbers 
     1.0000   1.0000   1.0000   1.0000   0.0000   0.0000   0.0000   0.0000

          k =-0.2500-0.5369 0.0000 (  2804 PWs)   bands (ev):

   -16.5275 -12.7144  -9.6810  -4.5981  -0.6349   2.0072   6.6816   7.2598

     occupation numbers 
     1.0000   1.0000   1.0000   1.0000   0.0000   0.0000   0.0000   0.0000

          k =-0.2500-0.4773 0.0000 (  2809 PWs)   bands (ev):

   -17.0511 -12.4231  -8.9135  -5.1915  -0.0976   2.1969   5.7334   6.4354

     occupation numbers 
     1.0000   1.0000   1.0000   1.0000   0.0000   0.0000   0.0000   0.0000

          k =-0.2500-0.4176 0.0000 (  2797 PWs)   bands (ev):

   -17.5579 -12.0517  -8.1484  -5.7551   0.4519   2.3904   4.8901   5.6329

     occupation numbers 
     1.0000   1.0000   1.0000   1.0000   0.0000   0.0000   0.0000   0.0000

          k =-0.2500-0.3580 0.0000 (  2773 PWs)   bands (ev):

   -18.0223 -11.6045  -7.4591  -6.2698   1.0137   2.5379   4.1556   4.9171

     occupation numbers 
     1.0000   1.0000   1.0000   1.0000   0.0000   0.0000   0.0000   0.0000

          k =-0.2500-0.2983 0.0000 (  2775 PWs)   bands (ev):

   -18.4299 -11.0873  -6.9233  -6.7224   1.5816   2.5999   3.5329   4.3054

     occupation numbers 
     1.0000   1.0000   1.0000   1.0000   0.0000   0.0000   0.0000   0.0000

          k =-0.2500-0.2386 0.0000 (  2760 PWs)   bands (ev):

   -18.7715 -10.5077  -7.1032  -6.6159   2.1385   2.6105   3.0322   3.8065

     occupation numbers 
     1.0000   1.0000   1.0000   1.0000   0.0000   0.0000   0.0000   0.0000

          k =-0.2500-0.1790 0.0000 (  2755 PWs)   bands (ev):

   -19.0417  -9.8772  -7.4055  -6.5848   2.5435   2.6437   2.7908   3.4365

     occupation numbers 
     1.0000   1.0000   1.0000   1.0000   0.0000   0.0000   0.0000   0.0000

          k =-0.2500-0.1193 0.0000 (  2747 PWs)   bands (ev):

   -19.2369  -9.2115  -7.6244  -6.8230   2.2972   2.9352   2.9554   3.3170

     occupation numbers 
     1.0000   1.0000   1.0000   1.0000   0.0000   0.0000   0.0000   0.0000

          k =-0.2500-0.0597 0.0000 (  2761 PWs)   bands (ev):

   -19.3548  -8.5358  -7.7570  -7.2711   2.1316   2.8732   3.0725   3.4426

     occupation numbers 
     1.0000   1.0000   1.0000   1.0000   0.0000   0.0000   0.0000   0.0000

          k =-0.2500 0.0000 0.0000 (  2772 PWs)   bands (ev):

   -19.3943  -7.9667  -7.8014  -7.7703   2.0756   2.8292   3.0544   3.6035

     occupation numbers 
     1.0000   1.0000   1.0000   1.0000   0.0000   0.0000   0.0000   0.0000

          k =-0.2500 0.0597 0.0000 (  2761 PWs)   bands (ev):

   -19.3548  -8.5333  -7.7570  -7.2739   2.1316   2.8731   3.0729   3.4435

     occupation numbers 
     1.0000   1.0000   1.0000   1.0000   0.0000   0.0000   0.0000   0.0000

          k =-0.2500 0.1193 0.0000 (  2747 PWs)   bands (ev):

   -19.2369  -9.2092  -7.6245  -6.8261   2.2974   2.9352   2.9572   3.3177

     occupation numbers 
     1.0000   1.0000   1.0000   1.0000   0.0000   0.0000   0.0000   0.0000

          k =-0.2083 0.1491 0.0000 (  2748 PWs)   bands (ev):

   -19.3569  -8.9591  -7.7535  -6.3834   2.1267   2.4535   2.8270   3.1915

     occupation numbers 
     1.0000   1.0000   1.0000   1.0000   0.0000   0.0000   0.0000   0.0000

          k =-0.2083 0.2088 0.0000 (  2756 PWs)   bands (ev):

   -19.1201  -9.6057  -7.4850  -6.4099   2.2742   2.5157   2.8013   3.3807

     occupation numbers 
     1.0000   1.0000   1.0000   1.0000   0.0000   0.0000   0.0000   0.0000

          k =-0.2083 0.2685 0.0000 (  2766 PWs)   bands (ev):

   -18.8076 -10.2209  -7.1316  -6.7030   2.1923   2.3141   2.9581   3.7517

     occupation numbers 
     1.0000   1.0000   1.0000   1.0000   0.0000   0.0000   0.0000   0.0000

          k =-0.2083 0.3281 0.0000 (  2776 PWs)   bands (ev):

   -18.4231 -10.7913  -7.2183  -6.6982   1.7316   2.0463   3.5259   4.2967

     occupation numbers 
     1.0000   1.0000   1.0000   1.0000   0.0000   0.0000   0.0000   0.0000

          k =-0.2083 0.3878 0.0000 (  2785 PWs)   bands (ev):

   -17.9717 -11.3103  -7.8843  -6.1910   1.1247   1.8261   4.2059   4.9591

     occupation numbers 
     1.0000   1.0000   1.0000   1.0000   0.0000   0.0000   0.0000   0.0000

          k =-0.2083 0.4474 0.0000 (  2796 PWs)   bands (ev):

   -17.4618 -11.7783  -8.6253  -5.6187   0.5081   1.5710   4.9964   5.7240

     occupation numbers 
     1.0000   1.0000   1.0000   1.0000   0.0000   0.0000   0.0000   0.0000

          k =-0.2083 0.5071 0.0000 (  2806 PWs)   bands (ev):

   -16.9072 -12.2035  -9.3667  -4.9930  -0.1167   1.3267   5.8953   6.5677

     occupation numbers 
     1.0000   1.0000   1.0000   1.0000   0.0000   0.0000   0.0000   0.0000

          k =-0.2083 0.5668 0.0000 (  2802 PWs)   bands (ev):

   -16.3334 -12.6008 -10.0303  -4.3299  -0.7515   1.1243   6.8977   7.4026

     occupation numbers 
     1.0000   1.0000   1.0000   1.0000   0.0000   0.0000   0.0000   0.0000

          k =-0.2083 0.6264 0.0000 (  2804 PWs)   bands (ev):

   -15.7949 -12.9750 -10.5320  -3.6552  -1.3916   0.9817   7.8974   7.9914

     occupation numbers 
     1.0000   1.0000   1.0000   1.0000   0.0000   0.0000   0.0000   0.0000

          k =-0.2083 0.6861 0.0000 (  2791 PWs)   bands (ev):

   -15.4203 -13.2538 -10.8001  -3.0501  -1.9743   0.9085   7.9478   9.1347

     occupation numbers 
     1.0000   1.0000   1.0000   1.0391   0.0005   0.0000   0.0000   0.0000

          k =-0.2083 0.7457 0.0000 (  2791 PWs)   bands (ev):

   -15.4201 -13.2545 -10.7996  -3.0494  -1.9750   0.9084   7.9480   9.1345

     occupation numbers 
     1.0000   1.0000   1.0000   1.0393   0.0005   0.0000   0.0000   0.0000

          k =-0.2083 0.8054 0.0000 (  2804 PWs)   bands (ev):

   -15.7946 -12.9766 -10.5305  -3.6545  -1.3927   0.9814   7.8979   7.9913

     occupation numbers 
     1.0000   1.0000   1.0000   1.0000   0.0000   0.0000   0.0000   0.0000

          k =-0.2083-0.5668 0.0000 (  2802 PWs)   bands (ev):

   -16.3331 -12.6029 -10.0282  -4.3292  -0.7528   1.1238   6.8977   7.4029

     occupation numbers 
     1.0000   1.0000   1.0000   1.0000   0.0000   0.0000   0.0000   0.0000

          k =-0.2083-0.5071 0.0000 (  2806 PWs)   bands (ev):

   -16.9070 -12.2057  -9.3642  -4.9924  -0.1179   1.3259   5.8953   6.5678

     occupation numbers 
     1.0000   1.0000   1.0000   1.0000   0.0000   0.0000   0.0000   0.0000

          k =-0.2083-0.4474 0.0000 (  2796 PWs)   bands (ev):

   -17.4616 -11.7806  -8.6226  -5.6182   0.5069   1.5699   4.9964   5.7241

     occupation numbers 
     1.0000   1.0000   1.0000   1.0000   0.0000   0.0000   0.0000   0.0000

          k =-0.2083-0.3878 0.0000 (  2785 PWs)   bands (ev):

   -17.9716 -11.3125  -7.8814  -6.1906   1.1235   1.8245   4.2059   4.9591

     occupation numbers 
     1.0000   1.0000   1.0000   1.0000   0.0000   0.0000   0.0000   0.0000

          k =-0.2083-0.3281 0.0000 (  2776 PWs)   bands (ev):

   -18.4230 -10.7935  -7.2152  -6.6979   1.7305   2.0443   3.5259   4.2966

     occupation numbers 
     1.0000   1.0000   1.0000   1.0000   0.0000   0.0000   0.0000   0.0000

          k =-0.2083-0.2685 0.0000 (  2766 PWs)   bands (ev):

   -18.8076 -10.2232  -7.1314  -6.6996   2.1899   2.3133   2.9581   3.7516

     occupation numbers 
     1.0000   1.0000   1.0000   1.0000   0.0000   0.0000   0.0000   0.0000

          k =-0.2083-0.2088 0.0000 (  2756 PWs)   bands (ev):

   -19.1201  -9.6081  -7.4848  -6.4065   2.2717   2.5156   2.8008   3.3800

     occupation numbers 
     1.0000   1.0000   1.0000   1.0000   0.0000   0.0000   0.0000   0.0000

          k =-0.2083-0.1491 0.0000 (  2748 PWs)   bands (ev):

   -19.3569  -8.9616  -7.7534  -6.3800   2.1264   2.4512   2.8270   3.1915

     occupation numbers 
     1.0000   1.0000   1.0000   1.0000   0.0000   0.0000   0.0000   0.0000

          k =-0.2083-0.0895 0.0000 (  2750 PWs)   bands (ev):

   -19.5160  -8.3075  -7.9342  -6.6098   1.9054   2.6447   2.6560   3.0003

     occupation numbers 
     1.0000   1.0000   1.0000   1.0000   0.0000   0.0000   0.0000   0.0000

          k =-0.2083-0.0298 0.0000 (  2757 PWs)   bands (ev):

   -19.5959  -8.0251  -7.6992  -7.0189   1.7918   2.5410   2.7479   3.1075

     occupation numbers 
     1.0000   1.0000   1.0000   1.0000   0.0000   0.0000   0.0000   0.0000

          k =-0.2083 0.0298 0.0000 (  2757 PWs)   bands (ev):

   -19.5959  -8.0251  -7.6968  -7.0216   1.7919   2.5410   2.7483   3.1085

     occupation numbers 
     1.0000   1.0000   1.0000   1.0000   0.0000   0.0000   0.0000   0.0000

          k =-0.2083 0.0895 0.0000 (  2750 PWs)   bands (ev):

   -19.5160  -8.3049  -7.9342  -6.6130   1.9054   2.6447   2.6579   3.0006

     occupation numbers 
     1.0000   1.0000   1.0000   1.0000   0.0000   0.0000   0.0000   0.0000

          k =-0.1667 0.1193 0.0000 (  2756 PWs)   bands (ev):

   -19.6194  -8.0647  -8.0462  -6.1593   1.7634   2.1129   2.4972   2.8053

     occupation numbers 
     1.0000   1.0000   1.0000   1.0000   0.0000   0.0000   0.0000   0.0000

          k =-0.1667 0.1790 0.0000 (  2750 PWs)   bands (ev):

   -19.4191  -8.7002  -7.8168  -6.1967   1.9190   2.0764   2.7505   3.0906

     occupation numbers 
     1.0000   1.0000   1.0000   1.0000   0.0000   0.0000   0.0000   0.0000

          k =-0.1667 0.2386 0.0000 (  2763 PWs)   bands (ev):

   -19.1407  -9.3331  -7.4988  -6.4847   1.7832   2.4662   2.8926   3.4032

     occupation numbers 
     1.0000   1.0000   1.0000   1.0000   0.0000   0.0000   0.0000   0.0000

          k =-0.1667 0.2983 0.0000 (  2774 PWs)   bands (ev):

   -18.7865  -9.9423  -7.0952  -6.9825   1.5832   2.4277   2.9785   3.7715

     occupation numbers 
     1.0000   1.0000   1.0000   1.0000   0.0000   0.0000   0.0000   0.0000

          k =-0.1667 0.3580 0.0000 (  2783 PWs)   bands (ev):

   -18.3600 -10.5191  -7.6226  -6.6109   1.3132   1.8095   3.6031   4.3666

     occupation numbers 
     1.0000   1.0000   1.0000   1.0000   0.0000   0.0000   0.0000   0.0000

          k =-0.1667 0.4176 0.0000 (  2798 PWs)   bands (ev):

   -17.8664 -11.0656  -8.3321  -6.0518   1.0098   1.1532   4.3392   5.0813

     occupation numbers 
     1.0000   1.0000   1.0000   1.0000   0.0000   0.0000   0.0000   0.0000

          k =-0.1667 0.4773 0.0000 (  2798 PWs)   bands (ev):

   -17.3138 -11.5960  -9.0369  -5.4264   0.4729   0.7166   5.1857   5.8962

     occupation numbers 
     1.0000   1.0000   1.0000   1.0000   0.0000   0.0000   0.0000   0.0000

          k =-0.1667 0.5369 0.0000 (  2806 PWs)   bands (ev):

   -16.7160 -12.1334  -9.6623  -4.7449  -0.2304   0.4655   6.1398   6.7807

     occupation numbers 
     1.0000   1.0000   1.0000   1.0000   0.0000   0.0000   0.0000   0.0000

          k =-0.1667 0.5966 0.0000 (  2800 PWs)   bands (ev):

   -16.1017 -12.6902 -10.1406  -4.0211  -0.9565   0.2760   7.1951   7.6286

     occupation numbers 
     1.0000   1.0000   1.0000   1.0000   0.0000   0.0000   0.0000   0.0000

          k =-0.1667 0.6563 0.0000 (  2795 PWs)   bands (ev):

   -15.5460 -13.2132 -10.4324  -3.2745  -1.6986   0.1589   8.1114   8.3354

     occupation numbers 
     1.0000   1.0000   1.0000   1.0028   0.0000   0.0000   0.0000   0.0000

          k =-0.1667 0.7159 0.0000 (  2786 PWs)   bands (ev):

   -15.2776 -13.4725 -10.5289  -2.6599  -2.3109   0.1193   8.1948   9.3972

     occupation numbers 
     1.0000   1.0000   1.0000   0.8281   0.0803   0.0000   0.0000   0.0000

          k =-0.1667 0.7756 0.0000 (  2795 PWs)   bands (ev):

   -15.5458 -13.2141 -10.4316  -3.2739  -1.6994   0.1587   8.1118   8.3353

     occupation numbers 
     1.0000   1.0000   1.0000   1.0029   0.0000   0.0000   0.0000   0.0000

          k =-0.1667-0.5966 0.0000 (  2800 PWs)   bands (ev):

   -16.1015 -12.6917 -10.1391  -4.0205  -0.9574   0.2756   7.1950   7.6290

     occupation numbers 
     1.0000   1.0000   1.0000   1.0000   0.0000   0.0000   0.0000   0.0000

          k =-0.1667-0.5369 0.0000 (  2806 PWs)   bands (ev):

   -16.7159 -12.1353  -9.6602  -4.7444  -0.2314   0.4649   6.1397   6.7809

     occupation numbers 
     1.0000   1.0000   1.0000   1.0000   0.0000   0.0000   0.0000   0.0000

          k =-0.1667-0.4773 0.0000 (  2798 PWs)   bands (ev):

   -17.3136 -11.5982  -9.0344  -5.4259   0.4719   0.7158   5.1857   5.8960

     occupation numbers 
     1.0000   1.0000   1.0000   1.0000   0.0000   0.0000   0.0000   0.0000

          k =-0.1667-0.4176 0.0000 (  2798 PWs)   bands (ev):

   -17.8663 -11.0679  -8.3293  -6.0515   1.0087   1.1523   4.3392   5.0813

     occupation numbers 
     1.0000   1.0000   1.0000   1.0000   0.0000   0.0000   0.0000   0.0000

          k =-0.1667-0.3580 0.0000 (  2783 PWs)   bands (ev):

   -18.3600 -10.5214  -7.6195  -6.6106   1.3118   1.8086   3.6031   4.3665

     occupation numbers 
     1.0000   1.0000   1.0000   1.0000   0.0000   0.0000   0.0000   0.0000

          k =-0.1667-0.2983 0.0000 (  2774 PWs)   bands (ev):

   -18.7865  -9.9447  -7.0950  -6.9792   1.5813   2.4270   2.9785   3.7714

     occupation numbers 
     1.0000   1.0000   1.0000   1.0000   0.0000   0.0000   0.0000   0.0000

          k =-0.1667-0.2386 0.0000 (  2763 PWs)   bands (ev):

   -19.1407  -9.3356  -7.4986  -6.4811   1.7809   2.4662   2.8923   3.4027

     occupation numbers 
     1.0000   1.0000   1.0000   1.0000   0.0000   0.0000   0.0000   0.0000

          k =-0.1667-0.1790 0.0000 (  2750 PWs)   bands (ev):

   -19.4191  -8.7028  -7.8167  -6.1930   1.9165   2.0763   2.7505   3.0906

     occupation numbers 
     1.0000   1.0000   1.0000   1.0000   0.0000   0.0000   0.0000   0.0000

          k =-0.1667-0.1193 0.0000 (  2756 PWs)   bands (ev):

   -19.6194  -8.0675  -8.0461  -6.1557   1.7632   2.1104   2.4973   2.8053

     occupation numbers 
     1.0000   1.0000   1.0000   1.0000   0.0000   0.0000   0.0000   0.0000

          k =-0.1667-0.0597 0.0000 (  2758 PWs)   bands (ev):

   -19.7402  -8.1847  -7.4750  -6.3494   1.5922   2.3353   2.3513   2.6566

     occupation numbers 
     1.0000   1.0000   1.0000   1.0000   0.0000   0.0000   0.0000   0.0000

          k =-0.1667 0.0000 0.0000 (  2763 PWs)   bands (ev):

   -19.7805  -8.2310  -7.1202  -6.5739   1.5345   2.2805   2.4789   2.7817

     occupation numbers 
     1.0000   1.0000   1.0000   1.0000   0.0000   0.0000   0.0000   0.0000

          k =-0.1667 0.0597 0.0000 (  2758 PWs)   bands (ev):

   -19.7402  -8.1847  -7.4723  -6.3525   1.5923   2.3353   2.3535   2.6567

     occupation numbers 
     1.0000   1.0000   1.0000   1.0000   0.0000   0.0000   0.0000   0.0000

          k =-0.1250 0.0895 0.0000 (  2750 PWs)   bands (ev):

   -19.8260  -8.2782  -7.2579  -5.9042   1.4780   1.7723   2.2128   2.4993

     occupation numbers 
     1.0000   1.0000   1.0000   1.0000   0.0000   0.0000   0.0000   0.0000

          k =-0.1250 0.1491 0.0000 (  2752 PWs)   bands (ev):

   -19.6641  -8.0916  -7.8318  -5.9835   1.5829   1.7176   2.4322   2.7364

     occupation numbers 
     1.0000   1.0000   1.0000   1.0000   0.0000   0.0000   0.0000   0.0000

          k =-0.1250 0.2088 0.0000 (  2765 PWs)   bands (ev):

   -19.4226  -8.4539  -7.8136  -6.2840   1.4193   2.0585   2.7461   3.0838

     occupation numbers 
     1.0000   1.0000   1.0000   1.0000   0.0000   0.0000   0.0000   0.0000

          k =-0.1250 0.2685 0.0000 (  2771 PWs)   bands (ev):

   -19.1031  -9.0838  -7.4468  -6.7724   1.1952   2.5146   2.9541   3.4508

     occupation numbers 
     1.0000   1.0000   1.0000   1.0000   0.0000   0.0000   0.0000   0.0000

          k =-0.1250 0.3281 0.0000 (  2791 PWs)   bands (ev):

   -18.7080  -9.7056  -7.3868  -6.9945   0.8973   2.4572   3.0829   3.8652

     occupation numbers 
     1.0000   1.0000   1.0000   1.0000   0.0000   0.0000   0.0000   0.0000

          k =-0.1250 0.3878 0.0000 (  2798 PWs)   bands (ev):

   -18.2408 -10.3193  -8.0589  -6.4615   0.5583   1.7906   3.7636   4.5167

     occupation numbers 
     1.0000   1.0000   1.0000   1.0000   0.0000   0.0000   0.0000   0.0000

          k =-0.1250 0.4474 0.0000 (  2806 PWs)   bands (ev):

   -17.7069 -10.9404  -8.7180  -5.8540   0.2220   1.0779   4.5559   5.2854

     occupation numbers 
     1.0000   1.0000   1.0000   1.0000   0.0000   0.0000   0.0000   0.0000

          k =-0.1250 0.5071 0.0000 (  2797 PWs)   bands (ev):

   -17.1146 -11.5911  -9.2961  -5.1801  -0.0761   0.3319   5.4581   6.1503

     occupation numbers 
     1.0000   1.0000   1.0000   1.0000   0.0000   0.0000   0.0000   0.0000

          k =-0.1250 0.5668 0.0000 (  2794 PWs)   bands (ev):

   -16.4795 -12.2789  -9.7427  -4.4501  -0.4432  -0.3135   6.4663   7.0766

     occupation numbers 
     1.0000   1.0000   1.0000   1.0000   0.0000   0.0000   0.0000   0.0000

          k =-0.1250 0.6264 0.0000 (  2798 PWs)   bands (ev):

   -15.8387 -12.9678 -10.0378  -3.6764  -1.2425  -0.4773   7.5725   7.9416

     occupation numbers 
     1.0000   1.0000   1.0000   1.0000   0.0000   0.0000   0.0000   0.0000

          k =-0.1250 0.6861 0.0000 (  2793 PWs)   bands (ev):

   -15.3224 -13.5138 -10.1826  -2.8737  -2.0568  -0.5606   8.4130   8.7517

     occupation numbers 
     1.0000   1.0000   1.0000   1.0830   0.0022   0.0000   0.0000   0.0000

          k =-0.1250 0.7457 0.0000 (  2793 PWs)   bands (ev):

   -15.3222 -13.5142 -10.1824  -2.8731  -2.0574  -0.5606   8.4132   8.7516

     occupation numbers 
     1.0000   1.0000   1.0000   1.0829   0.0022   0.0000   0.0000   0.0000

          k =-0.1250-0.6264 0.0000 (  2798 PWs)   bands (ev):

   -15.8385 -12.9686 -10.0370  -3.6759  -1.2432  -0.4775   7.5725   7.9419

     occupation numbers 
     1.0000   1.0000   1.0000   1.0000   0.0000   0.0000   0.0000   0.0000

          k =-0.1250-0.5668 0.0000 (  2794 PWs)   bands (ev):

   -16.4793 -12.2803  -9.7413  -4.4497  -0.4439  -0.3138   6.4663   7.0767

     occupation numbers 
     1.0000   1.0000   1.0000   1.0000   0.0000   0.0000   0.0000   0.0000

          k =-0.1250-0.5071 0.0000 (  2797 PWs)   bands (ev):

   -17.1145 -11.5929  -9.2940  -5.1798  -0.0765   0.3311   5.4580   6.1503

     occupation numbers 
     1.0000   1.0000   1.0000   1.0000   0.0000   0.0000   0.0000   0.0000

          k =-0.1250-0.4474 0.0000 (  2806 PWs)   bands (ev):

   -17.7068 -10.9426  -8.7154  -5.8537   0.2213   1.0771   4.5559   5.2855

     occupation numbers 
     1.0000   1.0000   1.0000   1.0000   0.0000   0.0000   0.0000   0.0000

          k =-0.1250-0.3878 0.0000 (  2798 PWs)   bands (ev):

   -18.2408 -10.3216  -8.0559  -6.4613   0.5574   1.7898   3.7636   4.5167

     occupation numbers 
     1.0000   1.0000   1.0000   1.0000   0.0000   0.0000   0.0000   0.0000

          k =-0.1250-0.3281 0.0000 (  2791 PWs)   bands (ev):

   -18.7080  -9.7081  -7.3836  -6.9944   0.8961   2.4566   3.0829   3.8652

     occupation numbers 
     1.0000   1.0000   1.0000   1.0000   0.0000   0.0000   0.0000   0.0000

          k =-0.1250-0.2685 0.0000 (  2771 PWs)   bands (ev):

   -19.1031  -9.0864  -7.4467  -6.7689   1.1936   2.5146   2.9539   3.4512

     occupation numbers 
     1.0000   1.0000   1.0000   1.0000   0.0000   0.0000   0.0000   0.0000

          k =-0.1250-0.2088 0.0000 (  2765 PWs)   bands (ev):

   -19.4226  -8.4566  -7.8135  -6.2803   1.4172   2.0586   2.7462   3.0838

     occupation numbers 
     1.0000   1.0000   1.0000   1.0000   0.0000   0.0000   0.0000   0.0000

          k =-0.1250-0.1491 0.0000 (  2752 PWs)   bands (ev):

   -19.6641  -8.0915  -7.8346  -5.9797   1.5805   1.7176   2.4323   2.7364

     occupation numbers 
     1.0000   1.0000   1.0000   1.0000   0.0000   0.0000   0.0000   0.0000

          k =-0.1250-0.0895 0.0000 (  2750 PWs)   bands (ev):

   -19.8260  -8.2781  -7.2607  -5.9007   1.4779   1.7698   2.2128   2.4995

     occupation numbers 
     1.0000   1.0000   1.0000   1.0000   0.0000   0.0000   0.0000   0.0000

          k =-0.1250-0.0298 0.0000 (  2735 PWs)   bands (ev):

   -19.9071  -8.3718  -6.8369  -5.9893   1.3620   2.0332   2.1018   2.3402

     occupation numbers 
     1.0000   1.0000   1.0000   1.0000   0.0000   0.0000   0.0000   0.0000

          k =-0.1250 0.0298 0.0000 (  2735 PWs)   bands (ev):

   -19.9071  -8.3718  -6.8352  -5.9913   1.3620   2.0355   2.1018   2.3392

     occupation numbers 
     1.0000   1.0000   1.0000   1.0000   0.0000   0.0000   0.0000   0.0000

          k =-0.0833 0.0597 0.0000 (  2732 PWs)   bands (ev):

   -19.9747  -8.4459  -6.6533  -5.5867   1.2748   1.4395   2.0061   2.2413

     occupation numbers 
     1.0000   1.0000   1.0000   1.0000   0.0000   0.0000   0.0000   0.0000

          k =-0.0833 0.1193 0.0000 (  2746 PWs)   bands (ev):

   -19.8525  -8.3045  -7.0772  -5.7582   1.2902   1.4493   2.1736   2.4671

     occupation numbers 
     1.0000   1.0000   1.0000   1.0000   0.0000   0.0000   0.0000   0.0000

          k =-0.0833 0.1790 0.0000 (  2769 PWs)   bands (ev):

   -19.6497  -8.0700  -7.6350  -6.1042   1.1375   1.7359   2.4496   2.7593

     occupation numbers 
     1.0000   1.0000   1.0000   1.0000   0.0000   0.0000   0.0000   0.0000

          k =-0.0833 0.2386 0.0000 (  2778 PWs)   bands (ev):

   -19.3674  -8.2548  -7.7442  -6.6007   0.9195   2.1346   2.8173   3.1611

     occupation numbers 
     1.0000   1.0000   1.0000   1.0000   0.0000   0.0000   0.0000   0.0000

          k =-0.0833 0.2983 0.0000 (  2781 PWs)   bands (ev):

   -19.0074  -8.9029  -7.3297  -7.1956   0.6171   2.6461   2.9705   3.5147

     occupation numbers 
     1.0000   1.0000   1.0000   1.0000   0.0000   0.0000   0.0000   0.0000

          k =-0.0833 0.3580 0.0000 (  2804 PWs)   bands (ev):

   -18.5724  -9.5724  -7.8283  -6.8305   0.2581   2.3766   3.2706   4.0379

     occupation numbers 
     1.0000   1.0000   1.0000   1.0000   0.0000   0.0000   0.0000   0.0000

          k =-0.0833 0.4176 0.0000 (  2806 PWs)   bands (ev):

   -18.0661 -10.2735  -8.4359  -6.2516  -0.1119   1.6558   4.0077   4.7496

     occupation numbers 
     1.0000   1.0000   1.0000   1.0000   0.0000   0.0000   0.0000   0.0000

          k =-0.0833 0.4773 0.0000 (  2804 PWs)   bands (ev):

   -17.4943 -11.0189  -8.9634  -5.5995  -0.4530   0.8877   4.8559   5.5726

     occupation numbers 
     1.0000   1.0000   1.0000   1.0000   0.0000   0.0000   0.0000   0.0000

          k =-0.0833 0.5369 0.0000 (  2800 PWs)   bands (ev):

   -16.8663 -11.8043  -9.3783  -4.8829  -0.7377   0.0843   5.8129   6.4869

     occupation numbers 
     1.0000   1.0000   1.0000   1.0000   0.0000   0.0000   0.0000   0.0000

          k =-0.0833 0.5966 0.0000 (  2802 PWs)   bands (ev):

   -16.2020 -12.5985  -9.6714  -4.1127  -0.9495  -0.7457   6.8739   7.4526

     occupation numbers 
     1.0000   1.0000   1.0000   1.0000   0.0000   0.0000   0.0000   0.0000

          k =-0.0833 0.6563 0.0000 (  2794 PWs)   bands (ev):

   -15.5610 -13.3255  -9.8447  -3.3042  -1.5894  -1.0794   8.0275   8.3248

     occupation numbers 
     1.0000   1.0000   1.0000   1.0018   0.0000   0.0000   0.0000   0.0000

          k =-0.0833 0.7159 0.0000 (  2798 PWs)   bands (ev):

   -15.2111 -13.7056  -9.9019  -2.5855  -2.3199  -1.1231   8.6985   9.1367

     occupation numbers 
     1.0000   1.0000   1.0000   0.6333   0.0885   0.0000   0.0000   0.0000

          k =-0.0833-0.6563 0.0000 (  2794 PWs)   bands (ev):

   -15.5608 -13.3259  -9.8443  -3.3038  -1.5899  -1.0795   8.0275   8.3250

     occupation numbers 
     1.0000   1.0000   1.0000   1.0018   0.0000   0.0000   0.0000   0.0000

          k =-0.0833-0.5966 0.0000 (  2802 PWs)   bands (ev):

   -16.2019 -12.5992  -9.6706  -4.1124  -0.9497  -0.7462   6.8739   7.4527

     occupation numbers 
     1.0000   1.0000   1.0000   1.0000   0.0000   0.0000   0.0000   0.0000

          k =-0.0833-0.5369 0.0000 (  2800 PWs)   bands (ev):

   -16.8662 -11.8053  -9.3771  -4.8827  -0.7380   0.0838   5.8129   6.4870

     occupation numbers 
     1.0000   1.0000   1.0000   1.0000   0.0000   0.0000   0.0000   0.0000

          k =-0.0833-0.4773 0.0000 (  2804 PWs)   bands (ev):

   -17.4942 -11.0204  -8.9617  -5.5993  -0.4534   0.8871   4.8559   5.5727

     occupation numbers 
     1.0000   1.0000   1.0000   1.0000   0.0000   0.0000   0.0000   0.0000

          k =-0.0833-0.4176 0.0000 (  2806 PWs)   bands (ev):

   -18.0661 -10.2754  -8.4336  -6.2514  -0.1125   1.6553   4.0077   5.0451

     occupation numbers 
     1.0000   1.0000   1.0000   1.0000   0.0000   0.0000   0.0000   0.0000

          k =-0.0833-0.3580 0.0000 (  2804 PWs)   bands (ev):

   -18.5724  -9.5747  -7.8255  -6.8304   0.2574   2.3761   3.2706   4.0379

     occupation numbers 
     1.0000   1.0000   1.0000   1.0000   0.0000   0.0000   0.0000   0.0000

          k =-0.0833-0.2983 0.0000 (  2781 PWs)   bands (ev):

   -19.0074  -8.9055  -7.3296  -7.1924   0.6162   2.6461   2.9702   3.5145

     occupation numbers 
     1.0000   1.0000   1.0000   1.0000   0.0000   0.0000   0.0000   0.0000

          k =-0.0833-0.2386 0.0000 (  2778 PWs)   bands (ev):

   -19.3674  -8.2575  -7.7441  -6.5972   0.9182   2.1346   2.8173   3.1611

     occupation numbers 
     1.0000   1.0000   1.0000   1.0000   0.0000   0.0000   0.0000   0.0000

          k =-0.0833-0.1790 0.0000 (  2769 PWs)   bands (ev):

   -19.6497  -8.0699  -7.6378  -6.1006   1.1358   1.7359   2.4496   2.7593

     occupation numbers 
     1.0000   1.0000   1.0000   1.0000   0.0000   0.0000   0.0000   0.0000

          k =-0.0833-0.1193 0.0000 (  2746 PWs)   bands (ev):

   -19.8525  -8.3045  -7.0799  -5.7548   1.2882   1.4493   2.1736   2.4671

     occupation numbers 
     1.0000   1.0000   1.0000   1.0000   0.0000   0.0000   0.0000   0.0000

          k =-0.0833-0.0597 0.0000 (  2732 PWs)   bands (ev):

   -19.9747  -8.4459  -6.6552  -5.5843   1.2747   1.4376   2.0061   2.2421

     occupation numbers 
     1.0000   1.0000   1.0000   1.0000   0.0000   0.0000   0.0000   0.0000

          k =-0.0833 0.0000 0.0000 (  2733 PWs)   bands (ev):

   -20.0155  -8.4932  -6.4848  -5.5465   1.2161   1.5617   1.9500   2.0096

     occupation numbers 
     1.0000   1.0000   1.0000   1.0000   0.0000   0.0000   0.0000   0.0000

          k =-0.0417 0.0298 0.0000 (  2731 PWs)   bands (ev):

   -20.0643  -8.5474  -6.3334  -5.2489   1.1382   1.1553   1.8813   1.9069

     occupation numbers 
     1.0000   1.0000   1.0000   1.0000   0.0000   0.0000   0.0000   0.0000

          k =-0.0417 0.0895 0.0000 (  2745 PWs)   bands (ev):

   -19.9826  -8.4525  -6.5599  -5.4923   1.0725   1.2702   1.9937   2.2790

     occupation numbers 
     1.0000   1.0000   1.0000   1.0000   0.0000   0.0000   0.0000   0.0000

          k =-0.0417 0.1491 0.0000 (  2761 PWs)   bands (ev):

   -19.8196  -8.2635  -6.9767  -5.9166   0.9665   1.4983   2.2175   2.5202

     occupation numbers 
     1.0000   1.0000   1.0000   1.0000   0.0000   0.0000   0.0000   0.0000

          k =-0.0417 0.2088 0.0000 (  2774 PWs)   bands (ev):

   -19.5761  -7.9815  -7.5289  -6.4522   0.7826   1.8391   2.5482   2.8639

     occupation numbers 
     1.0000   1.0000   1.0000   1.0000   0.0000   0.0000   0.0000   0.0000

          k =-0.0417 0.2685 0.0000 (  2780 PWs)   bands (ev):

   -19.2537  -8.1693  -7.6089  -7.0445   0.5010   2.2933   2.9547   3.3208

     occupation numbers 
     1.0000   1.0000   1.0000   1.0000   0.0000   0.0000   0.0000   0.0000

          k =-0.0417 0.3281 0.0000 (  2794 PWs)   bands (ev):

   -18.8542  -8.8747  -7.6441  -7.1487   0.1431   2.8577   2.8611   3.6643

     occupation numbers 
     1.0000   1.0000   1.0000   1.0000   0.0000   0.0000   0.0000   0.0000

          k =-0.0417 0.3878 0.0000 (  2806 PWs)   bands (ev):

   -18.3807  -9.6390  -8.2040  -6.6051  -0.2460   2.1690   3.5421   4.2954

     occupation numbers 
     1.0000   1.0000   1.0000   1.0000   0.0000   0.0000   0.0000   0.0000

          k =-0.0417 0.4474 0.0000 (  2804 PWs)   bands (ev):

   -17.8374 -10.4558  -8.6897  -5.9837  -0.6210   1.4003   4.3352   5.0662

     occupation numbers 
     1.0000   1.0000   1.0000   1.0000   0.0000   0.0000   0.0000   0.0000

          k =-0.0417 0.5071 0.0000 (  2812 PWs)   bands (ev):

   -17.2309 -11.3079  -9.0840  -5.2918  -0.9482   0.5879   5.2388   5.9417

     occupation numbers 
     1.0000   1.0000   1.0000   1.0000   0.0000   0.0000   0.0000   0.0000

          k =-0.0417 0.5668 0.0000 (  2802 PWs)   bands (ev):

   -16.5732 -12.1672  -9.3808  -4.5391  -1.2064  -0.2555   6.2495   6.9017

     occupation numbers 
     1.0000   1.0000   1.0000   1.0000   0.0000   0.0000   0.0000   0.0000

          k =-0.0417 0.6264 0.0000 (  2801 PWs)   bands (ev):

   -15.8938 -12.9897  -9.5789  -3.7389  -1.3836  -1.1166   7.3609   7.8948

     occupation numbers 
     1.0000   1.0000   1.0000   1.0000   0.0000   0.0000   0.0000   0.0000

          k =-0.0417 0.6861 0.0000 (  2790 PWs)   bands (ev):

   -15.3133 -13.6444  -9.6779  -2.9251  -1.9611  -1.4733   8.5538   8.7136

     occupation numbers 
     1.0000   1.0000   1.0000   1.0786   0.0004   0.0000   0.0000   0.0000

          k =-0.0417-0.6861 0.0000 (  2790 PWs)   bands (ev):

   -15.3133 -13.6445  -9.6778  -2.9250  -1.9613  -1.4734   8.5538   8.7137

     occupation numbers 
     1.0000   1.0000   1.0000   1.0786   0.0004   0.0000   0.0000   0.0000

          k =-0.0417-0.6264 0.0000 (  2801 PWs)   bands (ev):

   -15.8937 -12.9900  -9.5786  -3.7388  -1.3836  -1.1168   7.3609   7.8949

     occupation numbers 
     1.0000   1.0000   1.0000   1.0000   0.0000   0.0000   0.0000   0.0000

          k =-0.0417-0.5668 0.0000 (  2802 PWs)   bands (ev):

   -16.5731 -12.1676  -9.3803  -4.5389  -1.2066  -0.2557   6.2495   6.9017

     occupation numbers 
     1.0000   1.0000   1.0000   1.0000   0.0000   0.0000   0.0000   0.0000

          k =-0.0417-0.5071 0.0000 (  2812 PWs)   bands (ev):

   -17.2309 -11.3085  -9.0832  -5.2917  -0.9484   0.5877   5.2388   5.9418

     occupation numbers 
     1.0000   1.0000   1.0000   1.0000   0.0000   0.0000   0.0000   0.0000

          k =-0.0417-0.4474 0.0000 (  2804 PWs)   bands (ev):

   -17.8374 -10.4568  -8.6886  -5.9836  -0.6212   1.4001   4.3352   5.0662

     occupation numbers 
     1.0000   1.0000   1.0000   1.0000   0.0000   0.0000   0.0000   0.0000

          k =-0.0417-0.3878 0.0000 (  2806 PWs)   bands (ev):

   -18.3807  -9.6404  -8.2024  -6.6051  -0.2463   2.1688   3.5421   4.2954

     occupation numbers 
     1.0000   1.0000   1.0000   1.0000   0.0000   0.0000   0.0000   0.0000

          k =-0.0417-0.3281 0.0000 (  2794 PWs)   bands (ev):

   -18.8542  -8.8765  -7.6420  -7.1486   0.1427   2.8575   2.8611   3.6643

     occupation numbers 
     1.0000   1.0000   1.0000   1.0000   0.0000   0.0000   0.0000   0.0000

          k =-0.0417-0.2685 0.0000 (  2780 PWs)   bands (ev):

   -19.2536  -8.1714  -7.6089  -7.0420   0.5004   2.2933   2.9547   3.3208

     occupation numbers 
     1.0000   1.0000   1.0000   1.0000   0.0000   0.0000   0.0000   0.0000

          k =-0.0417-0.2088 0.0000 (  2774 PWs)   bands (ev):

   -19.5761  -7.9815  -7.5311  -6.4495   0.7819   1.8391   2.5483   2.8639

     occupation numbers 
     1.0000   1.0000   1.0000   1.0000   0.0000   0.0000   0.0000   0.0000

          k =-0.0417-0.1491 0.0000 (  2761 PWs)   bands (ev):

   -19.8196  -8.2634  -6.9788  -5.9140   0.9655   1.4983   2.2175   2.5202

     occupation numbers 
     1.0000   1.0000   1.0000   1.0000   0.0000   0.0000   0.0000   0.0000

          k =-0.0417-0.0895 0.0000 (  2745 PWs)   bands (ev):

   -19.9826  -8.4525  -6.5615  -5.4904   1.0714   1.2701   1.9937   2.2792

     occupation numbers 
     1.0000   1.0000   1.0000   1.0000   0.0000   0.0000   0.0000   0.0000

          k =-0.0417-0.0298 0.0000 (  2731 PWs)   bands (ev):

   -20.0643  -8.5474  -6.3339  -5.2482   1.1377   1.1551   1.8813   1.9074

     occupation numbers 
     1.0000   1.0000   1.0000   1.0000   0.0000   0.0000   0.0000   0.0000

     the Fermi energy is    -2.4992 ev

!    total energy              =     -36.74750612 Ry
     total all-electron energy =      -152.275701 Ry
     estimated scf accuracy    <          7.2E-11 Ry
     smearing contrib. (-TS)   =       0.00007288 Ry
     internal energy E=F+TS    =     -36.74757900 Ry

     The total energy is F=E-TS. E is the sum of the following terms:
     one-electron contribution =    -128.07864617 Ry
     hartree contribution      =      65.44028460 Ry
     xc contribution           =      -8.89066368 Ry
     ewald contribution        =      47.10703483 Ry
     one-center paw contrib.   =     -12.32558859 Ry
      -> PAW hartree energy AE =       7.50195808 Ry
      -> PAW hartree energy PS =      -7.49413953 Ry
      -> PAW xc energy AE      =     -10.17847398 Ry
      -> PAW xc energy PS      =       4.00785768 Ry
      -> total E_H with PAW    =      65.44810316 Ry
      -> total E_XC with PAW   =     -15.06127998 Ry

     convergence has been achieved in   5 iterations

     negative rho (up, down):  1.937E-03 0.000E+00

     Forces acting on atoms (cartesian axes, Ry/au):

     atom    1 type  1   force =    -0.00000242   -0.00009639   -0.00000001
     atom    2 type  1   force =     0.00000242    0.00009639    0.00000001
     The non-local contrib.  to forces
     atom    1 type  1   force =    -0.00023427    0.23539536    0.00000005
     atom    2 type  1   force =    -0.00031821   -0.23575321    0.00000011
     The ionic contribution  to forces
     atom    1 type  1   force =    -0.00048857    1.70650943   -0.00000000
     atom    2 type  1   force =     0.00048857   -1.70650943    0.00000000
     The local contribution  to forces
     atom    1 type  1   force =     0.00068942   -1.93319528   -0.00000041
     atom    2 type  1   force =    -0.00006358    1.93367013   -0.00000045
     The core correction contribution to forces
     atom    1 type  1   force =    -0.00051907   -0.00932507   -0.00000001
     atom    2 type  1   force =    -0.00065446    0.00816767   -0.00000001
     The Hubbard contrib.    to forces
     atom    1 type  1   force =     0.00000000    0.00000000    0.00000000
     atom    2 type  1   force =     0.00000000    0.00000000    0.00000000
     The SCF correction term to forces
     atom    1 type  1   force =    -0.00000002   -0.00000130    0.00000000
     atom    2 type  1   force =     0.00000003    0.00000074    0.00000000

     Total force =     0.000136     Total SCF correction =     0.000001
     Energy error            =      2.6E-05 Ry
     Gradient error          =      9.6E-05 Ry/Bohr

     number of scf cycles    =   3
     number of bfgs steps    =   2

     energy             old  =     -36.7474797576 Ry
     energy             new  =     -36.7475061179 Ry

     CASE: energy            _new < energy            _old

     small trust_radius: resetting bfgs history

     new trust radius        =       0.0000964175 bohr
     new conv_thr            =            1.0E-10 Ry


ATOMIC_POSITIONS (crystal)
C                0.0030542338       -0.0060624943        0.0000000000    1   1   0
C                0.3302787662        0.3393954943        0.0000000000    1   1   0



     Writing config-only to output data dir ./tmp/graphene24.0.save/ :
     XML data file
     NEW-OLD atomic charge density approx. for the potential

     Check: negative core charge=   -0.000012

     negative rho (up, down):  1.937E-03 0.000E+00

     total cpu time spent up to now is       28.4 secs

     per-process dynamical memory:    44.7 Mb

     Self-consistent Calculation

     iteration #  1     ecut=    40.00 Ry     beta= 0.70
     Davidson diagonalization with overlap

---- Real-time Memory Report at c_bands before calling an iterative solver
            87 MiB given to the printing process from OS
            43 MiB allocation reported by mallinfo(arena+hblkhd)
         28599 MiB available memory on the node where the printing process lives
------------------
     ethr =  1.00E-06,  avg # of iterations =  2.0

     Threshold (ethr) on eigenvalues was too large:
     Diagonalizing with lowered threshold

     Davidson diagonalization with overlap

---- Real-time Memory Report at c_bands before calling an iterative solver
            87 MiB given to the printing process from OS
            43 MiB allocation reported by mallinfo(arena+hblkhd)
         28601 MiB available memory on the node where the printing process lives
------------------
     ethr =  4.96E-11,  avg # of iterations =  2.6

     negative rho (up, down):  1.937E-03 0.000E+00

     total cpu time spent up to now is       31.1 secs

     total energy              =     -36.74750612 Ry
     estimated scf accuracy    <          4.8E-09 Ry

     iteration #  2     ecut=    40.00 Ry     beta= 0.70
     Davidson diagonalization with overlap

---- Real-time Memory Report at c_bands before calling an iterative solver
            87 MiB given to the printing process from OS
            50 MiB allocation reported by mallinfo(arena+hblkhd)
         28598 MiB available memory on the node where the printing process lives
------------------
     ethr =  5.98E-11,  avg # of iterations =  2.0

     negative rho (up, down):  1.937E-03 0.000E+00

     total cpu time spent up to now is       32.3 secs

     total energy              =     -36.74750612 Ry
     estimated scf accuracy    <          7.8E-10 Ry

     iteration #  3     ecut=    40.00 Ry     beta= 0.70
     Davidson diagonalization with overlap

---- Real-time Memory Report at c_bands before calling an iterative solver
            87 MiB given to the printing process from OS
            51 MiB allocation reported by mallinfo(arena+hblkhd)
         28591 MiB available memory on the node where the printing process lives
------------------
     ethr =  9.73E-12,  avg # of iterations =  2.0

     negative rho (up, down):  1.937E-03 0.000E+00

     total cpu time spent up to now is       33.6 secs

     total energy              =     -36.74750612 Ry
     estimated scf accuracy    <          6.6E-10 Ry

     iteration #  4     ecut=    40.00 Ry     beta= 0.70
     Davidson diagonalization with overlap

---- Real-time Memory Report at c_bands before calling an iterative solver
            87 MiB given to the printing process from OS
            51 MiB allocation reported by mallinfo(arena+hblkhd)
         28595 MiB available memory on the node where the printing process lives
------------------
     ethr =  8.26E-12,  avg # of iterations =  1.0

     negative rho (up, down):  1.937E-03 0.000E+00

     total cpu time spent up to now is       34.7 secs

     End of self-consistent calculation

          k = 0.0000 0.0000 0.0000 (  2729 PWs)   bands (ev):

   -20.0943  -8.5814  -6.2428  -5.0943   1.0038   1.1146   1.7804   1.8396

     occupation numbers 
     1.0000   1.0000   1.0000   1.0000   0.0000   0.0000   0.0000   0.0000

          k = 0.0000 0.0597 0.0000 (  2728 PWs)   bands (ev):

   -20.0534  -8.5338  -6.3403  -5.2531   0.9886   1.1732   1.8960   2.0200

     occupation numbers 
     1.0000   1.0000   1.0000   1.0000   0.0000   0.0000   0.0000   0.0000

          k = 0.0000 0.1193 0.0000 (  2758 PWs)   bands (ev):

   -19.9309  -8.3915  -6.6243  -5.6701   0.9317   1.3443   2.0645   2.3655

     occupation numbers 
     1.0000   1.0000   1.0000   1.0000   0.0000   0.0000   0.0000   0.0000

          k = 0.0000 0.1790 0.0000 (  2772 PWs)   bands (ev):

   -19.7273  -8.1554  -7.0718  -6.2290   0.7975   1.6275   2.3433   2.6510

     occupation numbers 
     1.0000   1.0000   1.0000   1.0000   0.0000   0.0000   0.0000   0.0000

          k = 0.0000 0.2386 0.0000 (  2772 PWs)   bands (ev):

   -19.4439  -7.8272  -7.6555  -6.8351   0.5602   2.0244   2.7241   3.0505

     occupation numbers 
     1.0000   1.0000   1.0000   1.0000   0.0000   0.0000   0.0000   0.0000

          k = 0.0000 0.2983 0.0000 (  2788 PWs)   bands (ev):

   -19.0822  -8.3483  -7.4298  -7.4096   0.2285   2.5352   3.0788   3.5214

     occupation numbers 
     1.0000   1.0000   1.0000   1.0000   0.0000   0.0000   0.0000   0.0000

          k = 0.0000 0.3580 0.0000 (  2812 PWs)   bands (ev):

   -18.6448  -9.1252  -7.9791  -6.9060  -0.1579   2.5815   3.1597   3.9300

     occupation numbers 
     1.0000   1.0000   1.0000   1.0000   0.0000   0.0000   0.0000   0.0000

          k = 0.0000 0.4176 0.0000 (  2808 PWs)   bands (ev):

   -18.1349  -9.9617  -8.4631  -6.3213  -0.5508   1.8371   3.8970   4.6389

     occupation numbers 
     1.0000   1.0000   1.0000   1.0000   0.0000   0.0000   0.0000   0.0000

          k = 0.0000 0.4773 0.0000 (  2802 PWs)   bands (ev):

   -17.5576 -10.8346  -8.8699  -5.6617  -0.9100   1.0363   4.7458   5.4650

     occupation numbers 
     1.0000   1.0000   1.0000   1.0000   0.0000   0.0000   0.0000   0.0000

          k = 0.0000 0.5369 0.0000 (  2816 PWs)   bands (ev):

   -16.9215 -11.7194  -9.1922  -4.9359  -1.2084   0.1980   5.7037   6.3884

     occupation numbers 
     1.0000   1.0000   1.0000   1.0000   0.0000   0.0000   0.0000   0.0000

          k = 0.0000 0.5966 0.0000 (  2808 PWs)   bands (ev):

   -16.2438 -12.5849  -9.4251  -4.1548  -1.4297  -0.6643   6.7664   7.3824

     occupation numbers 
     1.0000   1.0000   1.0000   1.0000   0.0000   0.0000   0.0000   0.0000

          k = 0.0000 0.6563 0.0000 (  2800 PWs)   bands (ev):

   -15.5789 -13.3666  -9.5658  -3.3377  -1.5651  -1.5310   7.9238   8.3613

     occupation numbers 
     1.0000   1.0000   1.0000   1.0010   0.0000   0.0000   0.0000   0.0000

          k = 0.0000-0.7159 0.0000 (  2794 PWs)   bands (ev):

   -15.2024 -13.7829  -9.6129  -2.6767  -2.2086  -1.6107   8.9125   9.0466

     occupation numbers 
     1.0000   1.0000   1.0000   0.8673   0.0232   0.0000   0.0000   0.0000

          k = 0.0000-0.6563 0.0000 (  2800 PWs)   bands (ev):

   -15.5789 -13.3666  -9.5658  -3.3377  -1.5651  -1.5310   7.9238   8.3613

     occupation numbers 
     1.0000   1.0000   1.0000   1.0010   0.0000   0.0000   0.0000   0.0000

          k = 0.0000-0.5966 0.0000 (  2808 PWs)   bands (ev):

   -16.2438 -12.5849  -9.4251  -4.1548  -1.4297  -0.6643   6.7664   7.8356

     occupation numbers 
     1.0000   1.0000   1.0000   1.0000   0.0000   0.0000   0.0000   0.0000

          k = 0.0000-0.5369 0.0000 (  2816 PWs)   bands (ev):

   -16.9215 -11.7194  -9.1922  -4.9359  -1.2084   0.1980   5.7037   6.3885

     occupation numbers 
     1.0000   1.0000   1.0000   1.0000   0.0000   0.0000   0.0000   0.0000

          k = 0.0000-0.4773 0.0000 (  2802 PWs)   bands (ev):

   -17.5576 -10.8346  -8.8699  -5.6617  -0.9100   1.0363   4.7458   5.7901

     occupation numbers 
     1.0000   1.0000   1.0000   1.0000   0.0000   0.0000   0.0000   0.0000

          k = 0.0000-0.4176 0.0000 (  2808 PWs)   bands (ev):

   -18.1349  -9.9617  -8.4631  -6.3213  -0.5508   1.8371   3.8970   4.6389

     occupation numbers 
     1.0000   1.0000   1.0000   1.0000   0.0000   0.0000   0.0000   0.0000

          k = 0.0000-0.3580 0.0000 (  2812 PWs)   bands (ev):

   -18.6448  -9.1252  -7.9791  -6.9060  -0.1579   2.5815   3.1597   3.9297

     occupation numbers 
     1.0000   1.0000   1.0000   1.0000   0.0000   0.0000   0.0000   0.0000

          k = 0.0000-0.2983 0.0000 (  2788 PWs)   bands (ev):

   -19.0822  -8.3483  -7.4298  -7.4096   0.2285   2.5352   3.0788   3.5215

     occupation numbers 
     1.0000   1.0000   1.0000   1.0000   0.0000   0.0000   0.0000   0.0000

          k = 0.0000-0.2386 0.0000 (  2772 PWs)   bands (ev):

   -19.4439  -7.8272  -7.6555  -6.8351   0.5602   2.0244   2.7241   3.0505

     occupation numbers 
     1.0000   1.0000   1.0000   1.0000   0.0000   0.0000   0.0000   0.0000

          k = 0.0000-0.1790 0.0000 (  2772 PWs)   bands (ev):

   -19.7273  -8.1554  -7.0718  -6.2290   0.7975   1.6275   2.3433   2.6510

     occupation numbers 
     1.0000   1.0000   1.0000   1.0000   0.0000   0.0000   0.0000   0.0000

          k = 0.0000-0.1193 0.0000 (  2758 PWs)   bands (ev):

   -19.9309  -8.3915  -6.6243  -5.6701   0.9317   1.3443   2.0645   2.3655

     occupation numbers 
     1.0000   1.0000   1.0000   1.0000   0.0000   0.0000   0.0000   0.0000

          k = 0.0000-0.0597 0.0000 (  2728 PWs)   bands (ev):

   -20.0534  -8.5338  -6.3403  -5.2531   0.9886   1.1732   1.8959   2.0200

     occupation numbers 
     1.0000   1.0000   1.0000   1.0000   0.0000   0.0000   0.0000   0.0000

          k = 0.0417-0.0298 0.0000 (  2731 PWs)   bands (ev):

   -20.0644  -8.5474  -6.3343  -5.2477   1.1383   1.1552   1.8813   1.9054

     occupation numbers 
     1.0000   1.0000   1.0000   1.0000   0.0000   0.0000   0.0000   0.0000

          k = 0.0417 0.0298 0.0000 (  2731 PWs)   bands (ev):

   -20.0644  -8.5474  -6.3348  -5.2470   1.1378   1.1551   1.8814   1.9058

     occupation numbers 
     1.0000   1.0000   1.0000   1.0000   0.0000   0.0000   0.0000   0.0000

          k = 0.0417 0.0895 0.0000 (  2745 PWs)   bands (ev):

   -19.9827  -8.4526  -6.5623  -5.4895   1.0714   1.2701   1.9937   2.2789

     occupation numbers 
     1.0000   1.0000   1.0000   1.0000   0.0000   0.0000   0.0000   0.0000

          k = 0.0417 0.1491 0.0000 (  2761 PWs)   bands (ev):

   -19.8197  -8.2635  -6.9795  -5.9133   0.9656   1.4983   2.2174   2.5202

     occupation numbers 
     1.0000   1.0000   1.0000   1.0000   0.0000   0.0000   0.0000   0.0000

          k = 0.0417 0.2088 0.0000 (  2774 PWs)   bands (ev):

   -19.5762  -7.9815  -7.5317  -6.4490   0.7821   1.8391   2.5482   2.8639

     occupation numbers 
     1.0000   1.0000   1.0000   1.0000   0.0000   0.0000   0.0000   0.0000

          k = 0.0417 0.2685 0.0000 (  2780 PWs)   bands (ev):

   -19.2538  -8.1719  -7.6089  -7.0416   0.5008   2.2933   2.9546   3.3208

     occupation numbers 
     1.0000   1.0000   1.0000   1.0000   0.0000   0.0000   0.0000   0.0000

          k = 0.0417 0.3281 0.0000 (  2794 PWs)   bands (ev):

   -18.8543  -8.8770  -7.6416  -7.1487   0.1431   2.8576   2.8611   3.6643

     occupation numbers 
     1.0000   1.0000   1.0000   1.0000   0.0000   0.0000   0.0000   0.0000

          k = 0.0417 0.3878 0.0000 (  2806 PWs)   bands (ev):

   -18.3809  -9.6408  -8.2020  -6.6051  -0.2458   2.1689   3.5420   4.2954

     occupation numbers 
     1.0000   1.0000   1.0000   1.0000   0.0000   0.0000   0.0000   0.0000

          k = 0.0417 0.4474 0.0000 (  2804 PWs)   bands (ev):

   -17.8376 -10.4572  -8.6882  -5.9836  -0.6207   1.4001   4.3352   5.0662

     occupation numbers 
     1.0000   1.0000   1.0000   1.0000   0.0000   0.0000   0.0000   0.0000

          k = 0.0417 0.5071 0.0000 (  2812 PWs)   bands (ev):

   -17.2311 -11.3088  -9.0829  -5.2917  -0.9478   0.5877   5.2387   5.9418

     occupation numbers 
     1.0000   1.0000   1.0000   1.0000   0.0000   0.0000   0.0000   0.0000

          k = 0.0417 0.5668 0.0000 (  2802 PWs)   bands (ev):

   -16.5735 -12.1678  -9.3800  -4.5389  -1.2060  -0.2558   6.2495   6.9017

     occupation numbers 
     1.0000   1.0000   1.0000   1.0000   0.0000   0.0000   0.0000   0.0000

          k = 0.0417 0.6264 0.0000 (  2801 PWs)   bands (ev):

   -15.8943 -12.9899  -9.5783  -3.7387  -1.3830  -1.1169   7.3609   7.8950

     occupation numbers 
     1.0000   1.0000   1.0000   1.0000   0.0000   0.0000   0.0000   0.0000

          k = 0.0417-0.7457 0.0000 (  2790 PWs)   bands (ev):

   -15.3141 -13.6441  -9.6775  -2.9247  -1.9617  -1.4728   8.5537   8.7139

     occupation numbers 
     1.0000   1.0000   1.0000   1.0786   0.0004   0.0000   0.0000   0.0000

          k = 0.0417-0.6861 0.0000 (  2790 PWs)   bands (ev):

   -15.3142 -13.6440  -9.6775  -2.9248  -1.9615  -1.4727   8.5538   8.7138

     occupation numbers 
     1.0000   1.0000   1.0000   1.0786   0.0004   0.0000   0.0000   0.0000

          k = 0.0417-0.6264 0.0000 (  2801 PWs)   bands (ev):

   -15.8943 -12.9897  -9.5785  -3.7389  -1.3830  -1.1167   7.3609   7.8949

     occupation numbers 
     1.0000   1.0000   1.0000   1.0000   0.0000   0.0000   0.0000   0.0000

          k = 0.0417-0.5668 0.0000 (  2802 PWs)   bands (ev):

   -16.5735 -12.1674  -9.3805  -4.5391  -1.2059  -0.2555   6.2495   6.9017

     occupation numbers 
     1.0000   1.0000   1.0000   1.0000   0.0000   0.0000   0.0000   0.0000

          k = 0.0417-0.5071 0.0000 (  2812 PWs)   bands (ev):

   -17.2312 -11.3082  -9.0836  -5.2918  -0.9477   0.5879   5.2387   5.9417

     occupation numbers 
     1.0000   1.0000   1.0000   1.0000   0.0000   0.0000   0.0000   0.0000

          k = 0.0417-0.4474 0.0000 (  2804 PWs)   bands (ev):

   -17.8376 -10.4562  -8.6893  -5.9837  -0.6204   1.4004   4.3352   5.0662

     occupation numbers 
     1.0000   1.0000   1.0000   1.0000   0.0000   0.0000   0.0000   0.0000

          k = 0.0417-0.3878 0.0000 (  2806 PWs)   bands (ev):

   -18.3809  -9.6394  -8.2036  -6.6052  -0.2455   2.1691   3.5420   4.2954

     occupation numbers 
     1.0000   1.0000   1.0000   1.0000   0.0000   0.0000   0.0000   0.0000

          k = 0.0417-0.3281 0.0000 (  2794 PWs)   bands (ev):

   -18.8544  -8.8752  -7.6437  -7.1487   0.1435   2.8578   2.8611   3.6643

     occupation numbers 
     1.0000   1.0000   1.0000   1.0000   0.0000   0.0000   0.0000   0.0000

          k = 0.0417-0.2685 0.0000 (  2780 PWs)   bands (ev):

   -19.2538  -8.1698  -7.6089  -7.0441   0.5013   2.2933   2.9546   3.3208

     occupation numbers 
     1.0000   1.0000   1.0000   1.0000   0.0000   0.0000   0.0000   0.0000

          k = 0.0417-0.2088 0.0000 (  2774 PWs)   bands (ev):

   -19.5762  -7.9816  -7.5294  -6.4517   0.7828   1.8391   2.5482   2.8639

     occupation numbers 
     1.0000   1.0000   1.0000   1.0000   0.0000   0.0000   0.0000   0.0000

          k = 0.0417-0.1491 0.0000 (  2761 PWs)   bands (ev):

   -19.8197  -8.2635  -6.9774  -5.9159   0.9666   1.4983   2.2174   2.5202

     occupation numbers 
     1.0000   1.0000   1.0000   1.0000   0.0000   0.0000   0.0000   0.0000

          k = 0.0417-0.0895 0.0000 (  2745 PWs)   bands (ev):

   -19.9827  -8.4526  -6.5607  -5.4914   1.0725   1.2702   1.9937   2.2788

     occupation numbers 
     1.0000   1.0000   1.0000   1.0000   0.0000   0.0000   0.0000   0.0000

          k = 0.0833-0.0597 0.0000 (  2732 PWs)   bands (ev):

   -19.9748  -8.4460  -6.6540  -5.5858   1.2747   1.4394   2.0060   2.2407

     occupation numbers 
     1.0000   1.0000   1.0000   1.0000   0.0000   0.0000   0.0000   0.0000

          k = 0.0833-0.0000 0.0000 (  2733 PWs)   bands (ev):

   -20.0155  -8.4932  -6.4857  -5.5454   1.2161   1.5619   1.9500   2.0078

     occupation numbers 
     1.0000   1.0000   1.0000   1.0000   0.0000   0.0000   0.0000   0.0000

          k = 0.0833 0.0597 0.0000 (  2732 PWs)   bands (ev):

   -19.9748  -8.4460  -6.6559  -5.5834   1.2747   1.4376   2.0060   2.2415

     occupation numbers 
     1.0000   1.0000   1.0000   1.0000   0.0000   0.0000   0.0000   0.0000

          k = 0.0833 0.1193 0.0000 (  2746 PWs)   bands (ev):

   -19.8526  -8.3045  -7.0804  -5.7543   1.2881   1.4493   2.1736   2.4671

     occupation numbers 
     1.0000   1.0000   1.0000   1.0000   0.0000   0.0000   0.0000   0.0000

          k = 0.0833 0.1790 0.0000 (  2769 PWs)   bands (ev):

   -19.6498  -8.0700  -7.6382  -6.1003   1.1359   1.7359   2.4496   2.7593

     occupation numbers 
     1.0000   1.0000   1.0000   1.0000   0.0000   0.0000   0.0000   0.0000

          k = 0.0833 0.2386 0.0000 (  2778 PWs)   bands (ev):

   -19.3675  -8.2578  -7.7441  -6.5970   0.9184   2.1346   2.8173   3.1611

     occupation numbers 
     1.0000   1.0000   1.0000   1.0000   0.0000   0.0000   0.0000   0.0000

          k = 0.0833 0.2983 0.0000 (  2781 PWs)   bands (ev):

   -19.0076  -8.9057  -7.3297  -7.1922   0.6165   2.6461   2.9703   3.5147

     occupation numbers 
     1.0000   1.0000   1.0000   1.0000   0.0000   0.0000   0.0000   0.0000

          k = 0.0833 0.3580 0.0000 (  2804 PWs)   bands (ev):

   -18.5726  -9.5750  -7.8253  -6.8305   0.2578   2.3763   3.2706   4.0379

     occupation numbers 
     1.0000   1.0000   1.0000   1.0000   0.0000   0.0000   0.0000   0.0000

          k = 0.0833 0.4176 0.0000 (  2806 PWs)   bands (ev):

   -18.0663 -10.2757  -8.4334  -6.2515  -0.1120   1.6554   4.0077   4.7497

     occupation numbers 
     1.0000   1.0000   1.0000   1.0000   0.0000   0.0000   0.0000   0.0000

          k = 0.0833 0.4773 0.0000 (  2804 PWs)   bands (ev):

   -17.4945 -11.0207  -8.9614  -5.5994  -0.4529   0.8872   4.8559   5.9009

     occupation numbers 
     1.0000   1.0000   1.0000   1.0000   0.0000   0.0000   0.0000   0.0000

          k = 0.0833 0.5369 0.0000 (  2800 PWs)   bands (ev):

   -16.8666 -11.8055  -9.3768  -4.8827  -0.7374   0.0838   5.8129   6.4870

     occupation numbers 
     1.0000   1.0000   1.0000   1.0000   0.0000   0.0000   0.0000   0.0000

          k = 0.0833 0.5966 0.0000 (  2802 PWs)   bands (ev):

   -16.2024 -12.5992  -9.6703  -4.1124  -0.9491  -0.7462   6.8739   7.4527

     occupation numbers 
     1.0000   1.0000   1.0000   1.0000   0.0000   0.0000   0.0000   0.0000

          k = 0.0833-0.7756 0.0000 (  2794 PWs)   bands (ev):

   -15.5615 -13.3257  -9.8440  -3.3038  -1.5900  -1.0789   8.0274   8.3252

     occupation numbers 
     1.0000   1.0000   1.0000   1.0018   0.0000   0.0000   0.0000   0.0000

          k = 0.0833-0.7159 0.0000 (  2798 PWs)   bands (ev):

   -15.2120 -13.7051  -9.9016  -2.5847  -2.3208  -1.1225   8.6988   9.1365

     occupation numbers 
     1.0000   1.0000   1.0000   0.6317   0.0894   0.0000   0.0000   0.0000

          k = 0.0833-0.6563 0.0000 (  2794 PWs)   bands (ev):

   -15.5616 -13.3253  -9.8443  -3.3041  -1.5896  -1.0788   8.0275   8.3250

     occupation numbers 
     1.0000   1.0000   1.0000   1.0018   0.0000   0.0000   0.0000   0.0000

          k = 0.0833-0.5966 0.0000 (  2802 PWs)   bands (ev):

   -16.2025 -12.5986  -9.6710  -4.1127  -0.9490  -0.7457   6.8739   7.4526

     occupation numbers 
     1.0000   1.0000   1.0000   1.0000   0.0000   0.0000   0.0000   0.0000

          k = 0.0833-0.5369 0.0000 (  2800 PWs)   bands (ev):

   -16.8667 -11.8045  -9.3780  -4.8830  -0.7372   0.0843   5.8129   6.4869

     occupation numbers 
     1.0000   1.0000   1.0000   1.0000   0.0000   0.0000   0.0000   0.0000

          k = 0.0833-0.4773 0.0000 (  2804 PWs)   bands (ev):

   -17.4945 -11.0192  -8.9631  -5.5996  -0.4525   0.8877   4.8559   5.5726

     occupation numbers 
     1.0000   1.0000   1.0000   1.0000   0.0000   0.0000   0.0000   0.0000

          k = 0.0833-0.4176 0.0000 (  2806 PWs)   bands (ev):

   -18.0663 -10.2738  -8.4356  -6.2516  -0.1115   1.6559   4.0077   4.7496

     occupation numbers 
     1.0000   1.0000   1.0000   1.0000   0.0000   0.0000   0.0000   0.0000

          k = 0.0833-0.3580 0.0000 (  2804 PWs)   bands (ev):

   -18.5726  -9.5727  -7.8281  -6.8306   0.2585   2.3767   3.2706   4.0380

     occupation numbers 
     1.0000   1.0000   1.0000   1.0000   0.0000   0.0000   0.0000   0.0000

          k = 0.0833-0.2983 0.0000 (  2781 PWs)   bands (ev):

   -19.0076  -8.9032  -7.3298  -7.1953   0.6174   2.6461   2.9706   3.5148

     occupation numbers 
     1.0000   1.0000   1.0000   1.0000   0.0000   0.0000   0.0000   0.0000

          k = 0.0833-0.2386 0.0000 (  2778 PWs)   bands (ev):

   -19.3675  -8.2551  -7.7442  -6.6004   0.9197   2.1346   2.8172   3.1611

     occupation numbers 
     1.0000   1.0000   1.0000   1.0000   0.0000   0.0000   0.0000   0.0000

          k = 0.0833-0.1790 0.0000 (  2769 PWs)   bands (ev):

   -19.6498  -8.0700  -7.6354  -6.1038   1.1375   1.7359   2.4496   2.7593

     occupation numbers 
     1.0000   1.0000   1.0000   1.0000   0.0000   0.0000   0.0000   0.0000

          k = 0.0833-0.1193 0.0000 (  2746 PWs)   bands (ev):

   -19.8526  -8.3046  -7.0777  -5.7577   1.2901   1.4493   2.1736   2.4670

     occupation numbers 
     1.0000   1.0000   1.0000   1.0000   0.0000   0.0000   0.0000   0.0000

          k = 0.1250-0.0895 0.0000 (  2750 PWs)   bands (ev):

   -19.8261  -8.2782  -7.2584  -5.9037   1.4779   1.7719   2.2127   2.4993

     occupation numbers 
     1.0000   1.0000   1.0000   1.0000   0.0000   0.0000   0.0000   0.0000

          k = 0.1250-0.0298 0.0000 (  2735 PWs)   bands (ev):

   -19.9072  -8.3718  -6.8360  -5.9904   1.3619   2.0352   2.1017   2.3389

     occupation numbers 
     1.0000   1.0000   1.0000   1.0000   0.0000   0.0000   0.0000   0.0000

          k = 0.1250 0.0298 0.0000 (  2735 PWs)   bands (ev):

   -19.9072  -8.3718  -6.8377  -5.9885   1.3619   2.0328   2.1017   2.3399

     occupation numbers 
     1.0000   1.0000   1.0000   1.0000   0.0000   0.0000   0.0000   0.0000

          k = 0.1250 0.0895 0.0000 (  2750 PWs)   bands (ev):

   -19.8261  -8.2782  -7.2611  -5.9003   1.4778   1.7695   2.2128   2.4994

     occupation numbers 
     1.0000   1.0000   1.0000   1.0000   0.0000   0.0000   0.0000   0.0000

          k = 0.1250 0.1491 0.0000 (  2752 PWs)   bands (ev):

   -19.6642  -8.0916  -7.8348  -5.9795   1.5803   1.7176   2.4322   2.7364

     occupation numbers 
     1.0000   1.0000   1.0000   1.0000   0.0000   0.0000   0.0000   0.0000

          k = 0.1250 0.2088 0.0000 (  2765 PWs)   bands (ev):

   -19.4227  -8.4568  -7.8136  -6.2802   1.4172   2.0585   2.7461   3.0838

     occupation numbers 
     1.0000   1.0000   1.0000   1.0000   0.0000   0.0000   0.0000   0.0000

          k = 0.1250 0.2685 0.0000 (  2771 PWs)   bands (ev):

   -19.1032  -9.0866  -7.4467  -6.7688   1.1937   2.5145   2.9540   3.4499

     occupation numbers 
     1.0000   1.0000   1.0000   1.0000   0.0000   0.0000   0.0000   0.0000

          k = 0.1250 0.3281 0.0000 (  2791 PWs)   bands (ev):

   -18.7082  -9.7082  -7.3836  -6.9944   0.8964   2.4568   3.0829   3.8652

     occupation numbers 
     1.0000   1.0000   1.0000   1.0000   0.0000   0.0000   0.0000   0.0000

          k = 0.1250 0.3878 0.0000 (  2798 PWs)   bands (ev):

   -18.2410 -10.3218  -8.0558  -6.4613   0.5577   1.7900   3.7636   4.5168

     occupation numbers 
     1.0000   1.0000   1.0000   1.0000   0.0000   0.0000   0.0000   0.0000

          k = 0.1250 0.4474 0.0000 (  2806 PWs)   bands (ev):

   -17.7071 -10.9427  -8.7152  -5.8538   0.2218   1.0773   4.5559   5.2854

     occupation numbers 
     1.0000   1.0000   1.0000   1.0000   0.0000   0.0000   0.0000   0.0000

          k = 0.1250 0.5071 0.0000 (  2797 PWs)   bands (ev):

   -17.1148 -11.5930  -9.2938  -5.1798  -0.0761   0.3312   5.4580   6.1504

     occupation numbers 
     1.0000   1.0000   1.0000   1.0000   0.0000   0.0000   0.0000   0.0000

          k = 0.1250 0.5668 0.0000 (  2794 PWs)   bands (ev):

   -16.4797 -12.2803  -9.7410  -4.4497  -0.4438  -0.3133   6.4662   7.0767

     occupation numbers 
     1.0000   1.0000   1.0000   1.0000   0.0000   0.0000   0.0000   0.0000

          k = 0.1250-0.8054 0.0000 (  2798 PWs)   bands (ev):

   -15.8391 -12.9685 -10.0367  -3.6760  -1.2432  -0.4770   7.5724   7.9420

     occupation numbers 
     1.0000   1.0000   1.0000   1.0000   0.0000   0.0000   0.0000   0.0000

          k = 0.1250-0.7457 0.0000 (  2793 PWs)   bands (ev):

   -15.3231 -13.5138 -10.1820  -2.8732  -2.0574  -0.5601   8.4135   8.7515

     occupation numbers 
     1.0000   1.0000   1.0000   1.0829   0.0022   0.0000   0.0000   0.0000

          k = 0.1250-0.6861 0.0000 (  2793 PWs)   bands (ev):

   -15.3232 -13.5134 -10.1823  -2.8737  -2.0568  -0.5601   8.4133   8.7516

     occupation numbers 
     1.0000   1.0000   1.0000   1.0830   0.0022   0.0000   0.0000   0.0000

          k = 0.1250-0.6264 0.0000 (  2798 PWs)   bands (ev):

   -15.8393 -12.9677 -10.0375  -3.6764  -1.2425  -0.4768   7.5724   7.9417

     occupation numbers 
     1.0000   1.0000   1.0000   1.0000   0.0000   0.0000   0.0000   0.0000

          k = 0.1250-0.5668 0.0000 (  2794 PWs)   bands (ev):

   -16.4799 -12.2790  -9.7424  -4.4501  -0.4431  -0.3130   6.4663   7.0766

     occupation numbers 
     1.0000   1.0000   1.0000   1.0000   0.0000   0.0000   0.0000   0.0000

          k = 0.1250-0.5071 0.0000 (  2797 PWs)   bands (ev):

   -17.1149 -11.5913  -9.2958  -5.1801  -0.0756   0.3320   5.4580   6.1503

     occupation numbers 
     1.0000   1.0000   1.0000   1.0000   0.0000   0.0000   0.0000   0.0000

          k = 0.1250-0.4474 0.0000 (  2806 PWs)   bands (ev):

   -17.7071 -10.9406  -8.7177  -5.8541   0.2224   1.0780   4.5559   5.2854

     occupation numbers 
     1.0000   1.0000   1.0000   1.0000   0.0000   0.0000   0.0000   0.0000

          k = 0.1250-0.3878 0.0000 (  2798 PWs)   bands (ev):

   -18.2410 -10.3195  -8.0587  -6.4615   0.5586   1.7907   3.7636   4.5167

     occupation numbers 
     1.0000   1.0000   1.0000   1.0000   0.0000   0.0000   0.0000   0.0000

          k = 0.1250-0.3281 0.0000 (  2791 PWs)   bands (ev):

   -18.7082  -9.7057  -7.3867  -6.9946   0.8976   2.4574   3.0829   3.8652

     occupation numbers 
     1.0000   1.0000   1.0000   1.0000   0.0000   0.0000   0.0000   0.0000

          k = 0.1250-0.2685 0.0000 (  2771 PWs)   bands (ev):

   -19.1033  -9.0840  -7.4469  -6.7723   1.1953   2.5145   2.9542   3.4502

     occupation numbers 
     1.0000   1.0000   1.0000   1.0000   0.0000   0.0000   0.0000   0.0000

          k = 0.1250-0.2088 0.0000 (  2765 PWs)   bands (ev):

   -19.4228  -8.4541  -7.8137  -6.2839   1.4192   2.0585   2.7461   3.0838

     occupation numbers 
     1.0000   1.0000   1.0000   1.0000   0.0000   0.0000   0.0000   0.0000

          k = 0.1250-0.1491 0.0000 (  2752 PWs)   bands (ev):

   -19.6642  -8.0916  -7.8320  -5.9832   1.5826   1.7176   2.4322   2.7364

     occupation numbers 
     1.0000   1.0000   1.0000   1.0000   0.0000   0.0000   0.0000   0.0000

          k = 0.1667-0.1193 0.0000 (  2756 PWs)   bands (ev):

   -19.6195  -8.0649  -8.0463  -6.1590   1.7633   2.1123   2.4972   2.8053

     occupation numbers 
     1.0000   1.0000   1.0000   1.0000   0.0000   0.0000   0.0000   0.0000

          k = 0.1667-0.0597 0.0000 (  2758 PWs)   bands (ev):

   -19.7403  -8.1848  -7.4727  -6.3520   1.5922   2.3352   2.3527   2.6567

     occupation numbers 
     1.0000   1.0000   1.0000   1.0000   0.0000   0.0000   0.0000   0.0000

          k = 0.1667-0.0000 0.0000 (  2763 PWs)   bands (ev):

   -19.7806  -8.2310  -7.1210  -6.5729   1.5345   2.2805   2.4784   2.7806

     occupation numbers 
     1.0000   1.0000   1.0000   1.0000   0.0000   0.0000   0.0000   0.0000

          k = 0.1667 0.0597 0.0000 (  2758 PWs)   bands (ev):

   -19.7403  -8.1847  -7.4753  -6.3489   1.5922   2.3353   2.3505   2.6565

     occupation numbers 
     1.0000   1.0000   1.0000   1.0000   0.0000   0.0000   0.0000   0.0000

          k = 0.1667 0.1193 0.0000 (  2756 PWs)   bands (ev):

   -19.6195  -8.0676  -8.0462  -6.1555   1.7632   2.1099   2.4972   2.8053

     occupation numbers 
     1.0000   1.0000   1.0000   1.0000   0.0000   0.0000   0.0000   0.0000

          k = 0.1667 0.1790 0.0000 (  2750 PWs)   bands (ev):

   -19.4192  -8.7028  -7.8168  -6.1929   1.9161   2.0763   2.7505   3.0906

     occupation numbers 
     1.0000   1.0000   1.0000   1.0000   0.0000   0.0000   0.0000   0.0000

          k = 0.1667 0.2386 0.0000 (  2763 PWs)   bands (ev):

   -19.1408  -9.3356  -7.4987  -6.4811   1.7808   2.4662   2.8924   3.4029

     occupation numbers 
     1.0000   1.0000   1.0000   1.0000   0.0000   0.0000   0.0000   0.0000

          k = 0.1667 0.2983 0.0000 (  2774 PWs)   bands (ev):

   -18.7867  -9.9448  -7.0951  -6.9792   1.5814   2.4272   2.9785   3.7714

     occupation numbers 
     1.0000   1.0000   1.0000   1.0000   0.0000   0.0000   0.0000   0.0000

          k = 0.1667 0.3580 0.0000 (  2783 PWs)   bands (ev):

   -18.3602 -10.5214  -7.6195  -6.6107   1.3120   1.8088   3.6030   4.3665

     occupation numbers 
     1.0000   1.0000   1.0000   1.0000   0.0000   0.0000   0.0000   0.0000

          k = 0.1667 0.4176 0.0000 (  2798 PWs)   bands (ev):

   -17.8666 -11.0679  -8.3292  -6.0516   1.0090   1.1525   4.3392   5.0813

     occupation numbers 
     1.0000   1.0000   1.0000   1.0000   0.0000   0.0000   0.0000   0.0000

          k = 0.1667 0.4773 0.0000 (  2798 PWs)   bands (ev):

   -17.3139 -11.5982  -9.0343  -5.4260   0.4720   0.7162   5.1857   5.8960

     occupation numbers 
     1.0000   1.0000   1.0000   1.0000   0.0000   0.0000   0.0000   0.0000

          k = 0.1667 0.5369 0.0000 (  2806 PWs)   bands (ev):

   -16.7162 -12.1353  -9.6600  -4.7445  -0.2313   0.4654   6.1397   6.7808

     occupation numbers 
     1.0000   1.0000   1.0000   1.0000   0.0000   0.0000   0.0000   0.0000

          k = 0.1667-0.8352 0.0000 (  2800 PWs)   bands (ev):

   -16.1020 -12.6916 -10.1389  -4.0206  -0.9573   0.2761   7.1950   7.6291

     occupation numbers 
     1.0000   1.0000   1.0000   1.0000   0.0000   0.0000   0.0000   0.0000

          k = 0.1667-0.7756 0.0000 (  2795 PWs)   bands (ev):

   -15.5465 -13.2138 -10.4313  -3.2741  -1.6992   0.1592   8.1120   8.3352

     occupation numbers 
     1.0000   1.0000   1.0000   1.0028   0.0000   0.0000   0.0000   0.0000

          k = 0.1667-0.7159 0.0000 (  2786 PWs)   bands (ev):

   -15.2785 -13.4720 -10.5286  -2.6606  -2.3102   0.1198   8.1950   9.3969

     occupation numbers 
     1.0000   1.0000   1.0000   0.8302   0.0798   0.0000   0.0000   0.0000

          k = 0.1667-0.6563 0.0000 (  2795 PWs)   bands (ev):

   -15.5467 -13.2129 -10.4321  -3.2747  -1.6984   0.1593   8.1116   8.3353

     occupation numbers 
     1.0000   1.0000   1.0000   1.0028   0.0000   0.0000   0.0000   0.0000

          k = 0.1667-0.5966 0.0000 (  2800 PWs)   bands (ev):

   -16.1022 -12.6901 -10.1403  -4.0212  -0.9563   0.2764   7.1950   7.6287

     occupation numbers 
     1.0000   1.0000   1.0000   1.0000   0.0000   0.0000   0.0000   0.0000

          k = 0.1667-0.5369 0.0000 (  2806 PWs)   bands (ev):

   -16.7164 -12.1334  -9.6620  -4.7450  -0.2303   0.4659   6.1398   6.7807

     occupation numbers 
     1.0000   1.0000   1.0000   1.0000   0.0000   0.0000   0.0000   0.0000

          k = 0.1667-0.4773 0.0000 (  2798 PWs)   bands (ev):

   -17.3140 -11.5960  -9.0368  -5.4264   0.4730   0.7169   5.1857   5.8960

     occupation numbers 
     1.0000   1.0000   1.0000   1.0000   0.0000   0.0000   0.0000   0.0000

          k = 0.1667-0.4176 0.0000 (  2798 PWs)   bands (ev):

   -17.8666 -11.0657  -8.3320  -6.0519   1.0101   1.1534   4.3392   5.3783

     occupation numbers 
     1.0000   1.0000   1.0000   1.0000   0.0000   0.0000   0.0000   0.0000

          k = 0.1667-0.3580 0.0000 (  2783 PWs)   bands (ev):

   -18.3602 -10.5191  -7.6226  -6.6109   1.3134   1.8097   3.6031   4.3666

     occupation numbers 
     1.0000   1.0000   1.0000   1.0000   0.0000   0.0000   0.0000   0.0000

          k = 0.1667-0.2983 0.0000 (  2774 PWs)   bands (ev):

   -18.7867  -9.9424  -7.0953  -6.9825   1.5832   2.4280   2.9785   3.7715

     occupation numbers 
     1.0000   1.0000   1.0000   1.0000   0.0000   0.0000   0.0000   0.0000

          k = 0.1667-0.2386 0.0000 (  2763 PWs)   bands (ev):

   -19.1408  -9.3331  -7.4988  -6.4846   1.7830   2.4662   2.8927   3.4033

     occupation numbers 
     1.0000   1.0000   1.0000   1.0000   0.0000   0.0000   0.0000   0.0000

          k = 0.1667-0.1790 0.0000 (  2750 PWs)   bands (ev):

   -19.4192  -8.7003  -7.8169  -6.1966   1.9186   2.0764   2.7505   3.0905

     occupation numbers 
     1.0000   1.0000   1.0000   1.0000   0.0000   0.0000   0.0000   0.0000

          k = 0.2083-0.1491 0.0000 (  2748 PWs)   bands (ev):

   -19.3571  -8.9592  -7.7536  -6.3833   2.1266   2.4528   2.8269   3.1915

     occupation numbers 
     1.0000   1.0000   1.0000   1.0000   0.0000   0.0000   0.0000   0.0000

          k = 0.2083-0.0895 0.0000 (  2750 PWs)   bands (ev):

   -19.5161  -8.3050  -7.9343  -6.6128   1.9054   2.6447   2.6570   3.0004

     occupation numbers 
     1.0000   1.0000   1.0000   1.0000   0.0000   0.0000   0.0000   0.0000

          k = 0.2083-0.0298 0.0000 (  2757 PWs)   bands (ev):

   -19.5960  -8.0252  -7.6972  -7.0211   1.7918   2.5410   2.7478   3.1075

     occupation numbers 
     1.0000   1.0000   1.0000   1.0000   0.0000   0.0000   0.0000   0.0000

          k = 0.2083 0.0298 0.0000 (  2757 PWs)   bands (ev):

   -19.5960  -8.0251  -7.6995  -7.0185   1.7918   2.5410   2.7475   3.1065

     occupation numbers 
     1.0000   1.0000   1.0000   1.0000   0.0000   0.0000   0.0000   0.0000

          k = 0.2083 0.0895 0.0000 (  2750 PWs)   bands (ev):

   -19.5161  -8.3076  -7.9342  -6.6096   1.9053   2.6447   2.6551   3.0002

     occupation numbers 
     1.0000   1.0000   1.0000   1.0000   0.0000   0.0000   0.0000   0.0000

          k = 0.2083 0.1491 0.0000 (  2748 PWs)   bands (ev):

   -19.3571  -8.9616  -7.7535  -6.3800   2.1263   2.4506   2.8270   3.1915

     occupation numbers 
     1.0000   1.0000   1.0000   1.0000   0.0000   0.0000   0.0000   0.0000

          k = 0.2083 0.2088 0.0000 (  2756 PWs)   bands (ev):

   -19.1202  -9.6081  -7.4849  -6.4065   2.2712   2.5156   2.8011   3.3804

     occupation numbers 
     1.0000   1.0000   1.0000   1.0000   0.0000   0.0000   0.0000   0.0000

          k = 0.2083 0.2685 0.0000 (  2766 PWs)   bands (ev):

   -18.8077 -10.2232  -7.1315  -6.6997   2.1895   2.3136   2.9581   3.7516

     occupation numbers 
     1.0000   1.0000   1.0000   1.0000   0.0000   0.0000   0.0000   0.0000

          k = 0.2083 0.3281 0.0000 (  2776 PWs)   bands (ev):

   -18.4232 -10.7935  -7.2152  -6.6980   1.7309   2.0442   3.5259   4.2966

     occupation numbers 
     1.0000   1.0000   1.0000   1.0000   0.0000   0.0000   0.0000   0.0000

          k = 0.2083 0.3878 0.0000 (  2785 PWs)   bands (ev):

   -17.9718 -11.3125  -7.8814  -6.1907   1.1238   1.8246   4.2058   4.9591

     occupation numbers 
     1.0000   1.0000   1.0000   1.0000   0.0000   0.0000   0.0000   0.0000

          k = 0.2083 0.4474 0.0000 (  2796 PWs)   bands (ev):

   -17.4619 -11.7805  -8.6226  -5.6183   0.5071   1.5701   4.9964   5.7241

     occupation numbers 
     1.0000   1.0000   1.0000   1.0000   0.0000   0.0000   0.0000   0.0000

          k = 0.2083 0.5071 0.0000 (  2806 PWs)   bands (ev):

   -16.9073 -12.2056  -9.3641  -4.9926  -0.1177   1.3262   5.8953   6.5678

     occupation numbers 
     1.0000   1.0000   1.0000   1.0000   0.0000   0.0000   0.0000   0.0000

          k = 0.2083-0.8651 0.0000 (  2802 PWs)   bands (ev):

   -16.3336 -12.6027 -10.0280  -4.3293  -0.7525   1.1242   6.8976   7.4030

     occupation numbers 
     1.0000   1.0000   1.0000   1.0000   0.0000   0.0000   0.0000   0.0000

          k = 0.2083-0.8054 0.0000 (  2804 PWs)   bands (ev):

   -15.7952 -12.9763 -10.5303  -3.6547  -1.3924   0.9818   7.8981   7.9912

     occupation numbers 
     1.0000   1.0000   1.0000   1.0000   0.0000   0.0000   0.0000   0.0000

          k = 0.2083-0.7457 0.0000 (  2791 PWs)   bands (ev):

   -15.4210 -13.2540 -10.7993  -3.0499  -1.9745   0.9088   7.9482   9.1344

     occupation numbers 
     1.0000   1.0000   1.0000   1.0391   0.0005   0.0000   0.0000   0.0000

          k = 0.2083-0.6861 0.0000 (  2791 PWs)   bands (ev):

   -15.4211 -13.2534 -10.7998  -3.0506  -1.9737   0.9089   7.9480   9.1346

     occupation numbers 
     1.0000   1.0000   1.0000   1.0389   0.0005   0.0000   0.0000   0.0000

          k = 0.2083-0.6264 0.0000 (  2804 PWs)   bands (ev):

   -15.7956 -12.9747 -10.5317  -3.6555  -1.3913   0.9821   7.8976   7.9913

     occupation numbers 
     1.0000   1.0000   1.0000   1.0000   0.0000   0.0000   0.0000   0.0000

          k = 0.2083-0.5668 0.0000 (  2802 PWs)   bands (ev):

   -16.3339 -12.6007 -10.0301  -4.3300  -0.7513   1.1247   6.8977   7.4027

     occupation numbers 
     1.0000   1.0000   1.0000   1.0000   0.0000   0.0000   0.0000   0.0000

          k = 0.2083-0.5071 0.0000 (  2806 PWs)   bands (ev):

   -16.9075 -12.2034  -9.3666  -4.9932  -0.1164   1.3270   5.8953   6.5677

     occupation numbers 
     1.0000   1.0000   1.0000   1.0000   0.0000   0.0000   0.0000   0.0000

          k = 0.2083-0.4474 0.0000 (  2796 PWs)   bands (ev):

   -17.4621 -11.7782  -8.6253  -5.6188   0.5083   1.5712   4.9964   5.7241

     occupation numbers 
     1.0000   1.0000   1.0000   1.0000   0.0000   0.0000   0.0000   0.0000

          k = 0.2083-0.3878 0.0000 (  2785 PWs)   bands (ev):

   -17.9719 -11.3103  -7.8843  -6.1911   1.1249   1.8261   4.2059   4.9591

     occupation numbers 
     1.0000   1.0000   1.0000   1.0000   0.0000   0.0000   0.0000   0.0000

          k = 0.2083-0.3281 0.0000 (  2776 PWs)   bands (ev):

   -18.4233 -10.7913  -7.2183  -6.6983   1.7319   2.0462   3.5259   4.2967

     occupation numbers 
     1.0000   1.0000   1.0000   1.0000   0.0000   0.0000   0.0000   0.0000

          k = 0.2083-0.2685 0.0000 (  2766 PWs)   bands (ev):

   -18.8078 -10.2209  -7.1317  -6.7030   2.1920   2.3144   2.9581   3.7517

     occupation numbers 
     1.0000   1.0000   1.0000   1.0000   0.0000   0.0000   0.0000   0.0000

          k = 0.2083-0.2088 0.0000 (  2756 PWs)   bands (ev):

   -19.1202  -9.6057  -7.4850  -6.4099   2.2737   2.5157   2.8015   3.3805

     occupation numbers 
     1.0000   1.0000   1.0000   1.0000   0.0000   0.0000   0.0000   0.0000

          k = 0.2500-0.1790 0.0000 (  2755 PWs)   bands (ev):

   -19.0419  -9.8749  -7.4058  -6.5881   2.5440   2.6446   2.7918   3.4368

     occupation numbers 
     1.0000   1.0000   1.0000   1.0000   0.0000   0.0000   0.0000   0.0000

          k = 0.2500-0.1193 0.0000 (  2747 PWs)   bands (ev):

   -19.2370  -9.2092  -7.6246  -6.8260   2.2973   2.9353   2.9562   3.3181

     occupation numbers 
     1.0000   1.0000   1.0000   1.0000   0.0000   0.0000   0.0000   0.0000

          k = 0.2500-0.0597 0.0000 (  2761 PWs)   bands (ev):

   -19.3549  -8.5334  -7.7571  -7.2738   2.1316   2.8731   3.0724   3.4427

     occupation numbers 
     1.0000   1.0000   1.0000   1.0000   0.0000   0.0000   0.0000   0.0000

          k = 0.2500-0.0000 0.0000 (  2772 PWs)   bands (ev):

   -19.3944  -7.9675  -7.8015  -7.7694   2.0756   2.8291   3.0541   3.6022

     occupation numbers 
     1.0000   1.0000   1.0000   1.0000   0.0000   0.0000   0.0000   0.0000

          k = 0.2500 0.0597 0.0000 (  2761 PWs)   bands (ev):

   -19.3549  -8.5358  -7.7571  -7.2709   2.1315   2.8732   3.0720   3.4422

     occupation numbers 
     1.0000   1.0000   1.0000   1.0000   0.0000   0.0000   0.0000   0.0000

          k = 0.2500 0.1193 0.0000 (  2747 PWs)   bands (ev):

   -19.2370  -9.2115  -7.6245  -6.8230   2.2971   2.9353   2.9545   3.3175

     occupation numbers 
     1.0000   1.0000   1.0000   1.0000   0.0000   0.0000   0.0000   0.0000

          k = 0.2500 0.1790 0.0000 (  2755 PWs)   bands (ev):

   -19.0419  -9.8771  -7.4056  -6.5849   2.5432   2.6441   2.7903   3.4366

     occupation numbers 
     1.0000   1.0000   1.0000   1.0000   0.0000   0.0000   0.0000   0.0000

          k = 0.2500 0.2386 0.0000 (  2760 PWs)   bands (ev):

   -18.7717 -10.5076  -7.1033  -6.6159   2.1389   2.6098   3.0322   3.8065

     occupation numbers 
     1.0000   1.0000   1.0000   1.0000   0.0000   0.0000   0.0000   0.0000

          k = 0.2500 0.2983 0.0000 (  2775 PWs)   bands (ev):

   -18.4301 -11.0872  -6.9234  -6.7225   1.5820   2.5994   3.5328   4.3054

     occupation numbers 
     1.0000   1.0000   1.0000   1.0000   0.0000   0.0000   0.0000   0.0000

          k = 0.2500 0.3580 0.0000 (  2773 PWs)   bands (ev):

   -18.0226 -11.6044  -7.4592  -6.2699   1.0141   2.5377   4.1556   4.9171

     occupation numbers 
     1.0000   1.0000   1.0000   1.0000   0.0000   0.0000   0.0000   0.0000

          k = 0.2500 0.4176 0.0000 (  2797 PWs)   bands (ev):

   -17.5581 -12.0516  -8.1484  -5.7552   0.4523   2.3904   4.8901   5.6329

     occupation numbers 
     1.0000   1.0000   1.0000   1.0000   0.0000   0.0000   0.0000   0.0000

          k = 0.2500 0.4773 0.0000 (  2809 PWs)   bands (ev):

   -17.0514 -12.4229  -8.9135  -5.1916  -0.0973   2.1970   5.7334   6.4354

     occupation numbers 
     1.0000   1.0000   1.0000   1.0000   0.0000   0.0000   0.0000   0.0000

          k = 0.2500-0.8949 0.0000 (  2804 PWs)   bands (ev):

   -16.5280 -12.7142  -9.6809  -4.5983  -0.6345   2.0074   6.6815   7.2598

     occupation numbers 
     1.0000   1.0000   1.0000   1.0000   0.0000   0.0000   0.0000   0.0000

          k = 0.2500-0.8352 0.0000 (  2802 PWs)   bands (ev):

   -16.0348 -12.9221 -10.3709  -4.0058  -1.1555   1.8549   7.7250   7.7977

     occupation numbers 
     1.0000   1.0000   1.0000   1.0000   0.0000   0.0000   0.0000   0.0000

          k = 0.2500-0.7756 0.0000 (  2791 PWs)   bands (ev):

   -15.6558 -13.0449 -10.8784  -3.4797  -1.6233   1.7576   7.7935   8.8347

     occupation numbers 
     1.0000   1.0000   1.0000   1.0001   0.0000   0.0000   0.0000   0.0000

          k = 0.2500-0.7159 0.0000 (  2788 PWs)   bands (ev):

   -15.5077 -13.0844 -11.0721  -3.2233  -1.8573   1.7244   7.7340   9.7877

     occupation numbers 
     1.0000   1.0000   1.0000   1.0059   0.0000   0.0000   0.0000   0.0000

          k = 0.2500-0.6563 0.0000 (  2791 PWs)   bands (ev):

   -15.6561 -13.0435 -10.8797  -3.4805  -1.6222   1.7579   7.7931   8.8349

     occupation numbers 
     1.0000   1.0000   1.0000   1.0001   0.0000   0.0000   0.0000   0.0000

          k = 0.2500-0.5966 0.0000 (  2802 PWs)   bands (ev):

   -16.0352 -12.9200 -10.3730  -4.0067  -1.1541   1.8554   7.7251   7.7971

     occupation numbers 
     1.0000   1.0000   1.0000   1.0000   0.0000   0.0000   0.0000   0.0000

          k = 0.2500-0.5369 0.0000 (  2804 PWs)   bands (ev):

   -16.5283 -12.7119  -9.6832  -4.5991  -0.6331   2.0083   6.6816   7.2595

     occupation numbers 
     1.0000   1.0000   1.0000   1.0000   0.0000   0.0000   0.0000   0.0000

          k = 0.2500-0.4773 0.0000 (  2809 PWs)   bands (ev):

   -17.0517 -12.4207  -8.9161  -5.1923  -0.0959   2.1982   5.7334   6.4353

     occupation numbers 
     1.0000   1.0000   1.0000   1.0000   0.0000   0.0000   0.0000   0.0000

          k = 0.2500-0.4176 0.0000 (  2797 PWs)   bands (ev):

   -17.5583 -12.0494  -8.1511  -5.7558   0.4536   2.3921   4.8901   5.6329

     occupation numbers 
     1.0000   1.0000   1.0000   1.0000   0.0000   0.0000   0.0000   0.0000

          k = 0.2500-0.3580 0.0000 (  2773 PWs)   bands (ev):

   -18.0227 -11.6023  -7.4621  -6.2704   1.0153   2.5398   4.1556   5.1938

     occupation numbers 
     1.0000   1.0000   1.0000   1.0000   0.0000   0.0000   0.0000   0.0000

          k = 0.2500-0.2983 0.0000 (  2775 PWs)   bands (ev):

   -18.4301 -11.0850  -6.9265  -6.7229   1.5830   2.6019   3.5328   4.3055

     occupation numbers 
     1.0000   1.0000   1.0000   1.0000   0.0000   0.0000   0.0000   0.0000

          k = 0.2500-0.2386 0.0000 (  2760 PWs)   bands (ev):

   -18.7717 -10.5055  -7.1036  -6.6191   2.1398   2.6123   3.0322   3.8066

     occupation numbers 
     1.0000   1.0000   1.0000   1.0000   0.0000   0.0000   0.0000   0.0000

          k = 0.2917-0.2088 0.0000 (  2758 PWs)   bands (ev):

   -18.6792 -10.7741  -7.0114  -6.7720   1.9204   2.8952   3.2254   3.9394

     occupation numbers 
     1.0000   1.0000   1.0000   1.0000   0.0000   0.0000   0.0000   0.0000

          k = 0.2917-0.1491 0.0000 (  2759 PWs)   bands (ev):

   -18.9067 -10.1234  -7.2619  -7.0068   2.4116   2.7529   3.2325   3.5966

     occupation numbers 
     1.0000   1.0000   1.0000   1.0000   0.0000   0.0000   0.0000   0.0000

          k = 0.2917-0.0895 0.0000 (  2760 PWs)   bands (ev):

   -19.0603  -9.4362  -7.4628  -7.4315   2.5494   2.8097   3.3613   3.4251

     occupation numbers 
     1.0000   1.0000   1.0000   1.0000   0.0000   0.0000   0.0000   0.0000

          k = 0.2917-0.0298 0.0000 (  2760 PWs)   bands (ev):

   -19.1375  -8.7376  -8.0626  -7.5169   2.4408   3.0612   3.2191   3.4172

     occupation numbers 
     1.0000   1.0000   1.0000   1.0000   0.0000   0.0000   0.0000   0.0000

          k = 0.2917 0.0298 0.0000 (  2760 PWs)   bands (ev):

   -19.1375  -8.7400  -8.0601  -7.5169   2.4408   3.0611   3.2189   3.4171

     occupation numbers 
     1.0000   1.0000   1.0000   1.0000   0.0000   0.0000   0.0000   0.0000

          k = 0.2917 0.0895 0.0000 (  2760 PWs)   bands (ev):

   -19.0602  -9.4384  -7.4601  -7.4314   2.5493   2.8093   3.3612   3.4244

     occupation numbers 
     1.0000   1.0000   1.0000   1.0000   0.0000   0.0000   0.0000   0.0000

          k = 0.2917 0.1491 0.0000 (  2759 PWs)   bands (ev):

   -18.9067 -10.1256  -7.2617  -7.0039   2.4110   2.7526   3.2311   3.5965

     occupation numbers 
     1.0000   1.0000   1.0000   1.0000   0.0000   0.0000   0.0000   0.0000

          k = 0.2917 0.2088 0.0000 (  2758 PWs)   bands (ev):

   -18.6791 -10.7762  -7.0111  -6.7690   1.9195   2.8934   3.2251   3.9393

     occupation numbers 
     1.0000   1.0000   1.0000   1.0000   0.0000   0.0000   0.0000   0.0000

          k = 0.2917 0.2685 0.0000 (  2777 PWs)   bands (ev):

   -18.3813 -11.3726  -6.8131  -6.6844   1.3867   2.8955   3.6295   4.3923

     occupation numbers 
     1.0000   1.0000   1.0000   1.0000   0.0000   0.0000   0.0000   0.0000

          k = 0.2917 0.3281 0.0000 (  2779 PWs)   bands (ev):

   -18.0193 -11.9006  -7.1394  -6.2891   0.8501   2.9668   4.1891   4.9542

     occupation numbers 
     1.0000   1.0000   1.0000   1.0000   0.0000   0.0000   0.0000   0.0000

          k = 0.2917 0.3878 0.0000 (  2779 PWs)   bands (ev):

   -17.6030 -12.3476  -7.6952  -5.8359   0.3333   3.0127   4.8665   5.6210

     occupation numbers 
     1.0000   1.0000   1.0000   1.0000   0.0000   0.0000   0.0000   0.0000

          k = 0.2917 0.4474 0.0000 (  2793 PWs)   bands (ev):

   -17.1488 -12.6996  -8.4028  -5.3406  -0.1502   2.9619   5.6541   6.3806

     occupation numbers 
     1.0000   1.0000   1.0000   1.0000   0.0000   0.0000   0.0000   0.0000

          k = 0.2917-0.9247 0.0000 (  2809 PWs)   bands (ev):

   -16.6841 -12.9381  -9.1841  -4.8252  -0.5938   2.8435   6.5473   7.1895

     occupation numbers 
     1.0000   1.0000   1.0000   1.0000   0.0000   0.0000   0.0000   0.0000

          k = 0.2917-0.8651 0.0000 (  2806 PWs)   bands (ev):

   -16.2540 -13.0395  -9.9671  -4.3233  -0.9913   2.7142   7.5384   7.7955

     occupation numbers 
     1.0000   1.0000   1.0000   1.0000   0.0000   0.0000   0.0000   0.0000

          k = 0.2917-0.8054 0.0000 (  2807 PWs)   bands (ev):

   -15.9205 -12.9909 -10.6688  -3.8890  -1.3247   2.6118   7.7556   8.6037

     occupation numbers 
     1.0000   1.0000   1.0000   1.0000   0.0000   0.0000   0.0000   0.0000

          k = 0.2917-0.7457 0.0000 (  2801 PWs)   bands (ev):

   -15.7409 -12.8611 -11.1427  -3.6152  -1.5364   2.5566   7.5899   9.2960

     occupation numbers 
     1.0000   1.0000   1.0000   1.0000   0.0000   0.0000   0.0000   0.0000

          k = 0.2917-0.6861 0.0000 (  2801 PWs)   bands (ev):

   -15.7410 -12.8601 -11.1436  -3.6156  -1.5359   2.5567   7.5897   9.2961

     occupation numbers 
     1.0000   1.0000   1.0000   1.0000   0.0000   0.0000   0.0000   0.0000

          k = 0.2917-0.6264 0.0000 (  2807 PWs)   bands (ev):

   -15.9209 -12.9889 -10.6707  -3.8899  -1.3235   2.6123   7.7551   8.6039

     occupation numbers 
     1.0000   1.0000   1.0000   1.0000   0.0000   0.0000   0.0000   0.0000

          k = 0.2917-0.5668 0.0000 (  2806 PWs)   bands (ev):

   -16.2544 -13.0372  -9.9693  -4.3243  -0.9898   2.7150   7.5385   7.7950

     occupation numbers 
     1.0000   1.0000   1.0000   1.0000   0.0000   0.0000   0.0000   0.0000

          k = 0.2917-0.5071 0.0000 (  2809 PWs)   bands (ev):

   -16.6845 -12.9358  -9.1865  -4.8261  -0.5921   2.8448   6.5474   7.1893

     occupation numbers 
     1.0000   1.0000   1.0000   1.0000   0.0000   0.0000   0.0000   0.0000

          k = 0.2917-0.4474 0.0000 (  2793 PWs)   bands (ev):

   -17.1490 -12.6974  -8.4054  -5.3413  -0.1487   2.9637   5.6541   6.3806

     occupation numbers 
     1.0000   1.0000   1.0000   1.0000   0.0000   0.0000   0.0000   0.0000

          k = 0.2917-0.3878 0.0000 (  2779 PWs)   bands (ev):

   -17.6032 -12.3455  -7.6980  -5.8366   0.3348   3.0150   4.8665   5.6209

     occupation numbers 
     1.0000   1.0000   1.0000   1.0000   0.0000   0.0000   0.0000   0.0000

          k = 0.2917-0.3281 0.0000 (  2779 PWs)   bands (ev):

   -18.0194 -11.8986  -7.1423  -6.2896   0.8514   2.9693   4.1891   4.9542

     occupation numbers 
     1.0000   1.0000   1.0000   1.0000   0.0000   0.0000   0.0000   0.0000

          k = 0.2917-0.2685 0.0000 (  2777 PWs)   bands (ev):

   -18.3814 -11.3706  -6.8161  -6.6848   1.3878   2.8979   3.6295   4.3923

     occupation numbers 
     1.0000   1.0000   1.0000   1.0000   0.0000   0.0000   0.0000   0.0000

          k = 0.3333-0.2386 0.0000 (  2770 PWs)   bands (ev):

   -18.2782 -11.6298  -6.9304  -6.5847   1.1647   3.1028   3.8190   4.5577

     occupation numbers 
     1.0000   1.0000   1.0000   1.0000   0.0000   0.0000   0.0000   0.0000

          k = 0.3333-0.1790 0.0000 (  2758 PWs)   bands (ev):

   -18.5315 -11.0129  -7.1553  -6.8562   1.6676   3.1814   3.5527   4.1521

     occupation numbers 
     1.0000   1.0000   1.0000   1.0000   0.0000   0.0000   0.0000   0.0000

          k = 0.3333-0.1193 0.0000 (  2759 PWs)   bands (ev):

   -18.7163 -10.3402  -7.6119  -7.0553   2.1168   3.0323   3.7319   3.8528

     occupation numbers 
     1.0000   1.0000   1.0000   1.0000   0.0000   0.0000   0.0000   0.0000

          k = 0.3333-0.0597 0.0000 (  2763 PWs)   bands (ev):

   -18.8286  -9.6315  -8.2213  -7.1767   2.4452   2.8824   3.6607   3.8295

     occupation numbers 
     1.0000   1.0000   1.0000   1.0000   0.0000   0.0000   0.0000   0.0000

          k = 0.3333-0.0000 0.0000 (  2774 PWs)   bands (ev):

   -18.8663  -8.9510  -8.8740  -7.2174   2.5705   2.8295   3.5909   3.8098

     occupation numbers 
     1.0000   1.0000   1.0000   1.0000   0.0000   0.0000   0.0000   0.0000

          k = 0.3333 0.0597 0.0000 (  2763 PWs)   bands (ev):

   -18.8286  -9.6337  -8.2189  -7.1766   2.4448   2.8823   3.6606   3.8292

     occupation numbers 
     1.0000   1.0000   1.0000   1.0000   0.0000   0.0000   0.0000   0.0000

          k = 0.3333 0.1193 0.0000 (  2759 PWs)   bands (ev):

   -18.7163 -10.3423  -7.6092  -7.0551   2.1161   3.0321   3.7308   3.8527

     occupation numbers 
     1.0000   1.0000   1.0000   1.0000   0.0000   0.0000   0.0000   0.0000

          k = 0.3333 0.1790 0.0000 (  2758 PWs)   bands (ev):

   -18.5314 -11.0149  -7.1525  -6.8559   1.6667   3.1803   3.5521   4.1520

     occupation numbers 
     1.0000   1.0000   1.0000   1.0000   0.0000   0.0000   0.0000   0.0000

          k = 0.3333 0.2386 0.0000 (  2770 PWs)   bands (ev):

   -18.2781 -11.6318  -6.9275  -6.5843   1.1636   3.1008   3.8190   4.5575

     occupation numbers 
     1.0000   1.0000   1.0000   1.0000   0.0000   0.0000   0.0000   0.0000

          k = 0.3333 0.2983 0.0000 (  2773 PWs)   bands (ev):

   -17.9631 -12.1762  -6.9896  -6.2484   0.6557   3.1117   4.3087   5.0697

     occupation numbers 
     1.0000   1.0000   1.0000   1.0000   0.0000   0.0000   0.0000   0.0000

          k = 0.3333 0.3580 0.0000 (  2786 PWs)   bands (ev):

   -17.5978 -12.6320  -7.3367  -5.8609   0.1768   3.2630   4.9252   5.6870

     occupation numbers 
     1.0000   1.0000   1.0000   1.0000   0.0000   0.0000   0.0000   0.0000

          k = 0.3333 0.4176 0.0000 (  2792 PWs)   bands (ev):

   -17.2010 -12.9792  -7.9108  -5.4396  -0.2500   3.4259   5.6560   6.4019

     occupation numbers 
     1.0000   1.0000   1.0000   1.0000   0.0000   0.0000   0.0000   0.0000

          k = 0.3333-0.9546 0.0000 (  2795 PWs)   bands (ev):

   -16.8035 -13.1905  -8.6316  -5.0096  -0.6087   3.4902   6.4944   7.4123

     occupation numbers 
     1.0000   1.0000   1.0000   1.0000   0.0000   0.0000   0.0000   0.0000

          k = 0.3333-0.8949 0.0000 (  2812 PWs)   bands (ev):

   -16.4504 -13.2304  -9.4219  -4.6056  -0.8889   3.4610   7.4318   7.8554

     occupation numbers 
     1.0000   1.0000   1.0000   1.0000   0.0000   0.0000   0.0000   0.0000

          k = 0.3333-0.8352 0.0000 (  2802 PWs)   bands (ev):

   -16.1890 -13.0740 -10.2106  -4.2696  -1.0850   3.3975   7.7950   8.4233

     occupation numbers 
     1.0000   1.0000   1.0000   1.0000   0.0000   0.0000   0.0000   0.0000

          k = 0.3333-0.7756 0.0000 (  2811 PWs)   bands (ev):

   -16.0408 -12.7623 -10.9042  -4.0456  -1.1982   3.3443   7.5160   8.4344

     occupation numbers 
     1.0000   1.0000   1.0000   1.0000   0.0000   0.0000   0.0000   0.0000

          k = 0.3333-0.7159 0.0000 (  2806 PWs)   bands (ev):

   -15.9949 -12.5439 -11.2483  -3.9669  -1.2344   3.3245   7.4036   8.3871

     occupation numbers 
     1.0000   1.0000   1.0000   1.0000   0.0000   0.0000   0.0000   0.0000

          k = 0.3333-0.6563 0.0000 (  2811 PWs)   bands (ev):

   -16.0410 -12.7605 -10.9059  -4.0461  -1.1974   3.3447   7.5157   8.4345

     occupation numbers 
     1.0000   1.0000   1.0000   1.0000   0.0000   0.0000   0.0000   0.0000

          k = 0.3333-0.5966 0.0000 (  2802 PWs)   bands (ev):

   -16.1894 -13.0717 -10.2127  -4.2704  -1.0836   3.3983   7.7944   8.4236

     occupation numbers 
     1.0000   1.0000   1.0000   1.0000   0.0000   0.0000   0.0000   0.0000

          k = 0.3333-0.5369 0.0000 (  2812 PWs)   bands (ev):

   -16.4509 -13.2281  -9.4241  -4.6066  -0.8872   3.4624   7.4319   7.8549

     occupation numbers 
     1.0000   1.0000   1.0000   1.0000   0.0000   0.0000   0.0000   0.0000

          k = 0.3333-0.4773 0.0000 (  2795 PWs)   bands (ev):

   -16.8040 -13.1882  -8.6340  -5.0106  -0.6070   3.4921   6.4945   7.4093

     occupation numbers 
     1.0000   1.0000   1.0000   1.0000   0.0000   0.0000   0.0000   0.0000

          k = 0.3333-0.4176 0.0000 (  2792 PWs)   bands (ev):

   -17.2013 -12.9771  -7.9133  -5.4404  -0.2483   3.4282   5.6561   6.4018

     occupation numbers 
     1.0000   1.0000   1.0000   1.0000   0.0000   0.0000   0.0000   0.0000

          k = 0.3333-0.3580 0.0000 (  2786 PWs)   bands (ev):

   -17.5980 -12.6300  -7.3394  -5.8616   0.1783   3.2654   4.9252   5.6870

     occupation numbers 
     1.0000   1.0000   1.0000   1.0000   0.0000   0.0000   0.0000   0.0000

          k = 0.3333-0.2983 0.0000 (  2773 PWs)   bands (ev):

   -17.9633 -12.1743  -6.9924  -6.2490   0.6571   3.1139   4.3087   5.0698

     occupation numbers 
     1.0000   1.0000   1.0000   1.0000   0.0000   0.0000   0.0000   0.0000

          k = 0.3750-0.2685 0.0000 (  2777 PWs)   bands (ev):

   -17.8561 -12.4138  -7.0585  -6.1498   0.4500   3.2266   4.5149   5.2629

     occupation numbers 
     1.0000   1.0000   1.0000   1.0000   0.0000   0.0000   0.0000   0.0000

          k = 0.3750-0.2088 0.0000 (  2779 PWs)   bands (ev):

   -18.1224 -11.8511  -7.2692  -6.4240   0.9257   3.3912   4.1046   4.8003

     occupation numbers 
     1.0000   1.0000   1.0000   1.0000   0.0000   0.0000   0.0000   0.0000

          k = 0.3750-0.1491 0.0000 (  2761 PWs)   bands (ev):

   -18.3305 -11.2129  -7.7218  -6.6400   1.3873   3.5145   4.0096   4.4441

     occupation numbers 
     1.0000   1.0000   1.0000   1.0000   0.0000   0.0000   0.0000   0.0000

          k = 0.3750-0.0895 0.0000 (  2758 PWs)   bands (ev):

   -18.4729 -10.5187  -8.3369  -6.7886   1.7707   3.3857   4.1962   4.2231

     occupation numbers 
     1.0000   1.0000   1.0000   1.0000   0.0000   0.0000   0.0000   0.0000

          k = 0.3750-0.0298 0.0000 (  2768 PWs)   bands (ev):

   -18.5450  -9.7958  -9.0343  -6.8642   1.9958   3.2902   4.0652   4.2512

     occupation numbers 
     1.0000   1.0000   1.0000   1.0000   0.0000   0.0000   0.0000   0.0000

          k = 0.3750 0.0298 0.0000 (  2768 PWs)   bands (ev):

   -18.5450  -9.7979  -9.0321  -6.8642   1.9956   3.2902   4.0652   4.2510

     occupation numbers 
     1.0000   1.0000   1.0000   1.0000   0.0000   0.0000   0.0000   0.0000

          k = 0.3750 0.0895 0.0000 (  2758 PWs)   bands (ev):

   -18.4728 -10.5207  -8.3346  -6.7885   1.7701   3.3856   4.1961   4.2225

     occupation numbers 
     1.0000   1.0000   1.0000   1.0000   0.0000   0.0000   0.0000   0.0000

          k = 0.3750 0.1491 0.0000 (  2761 PWs)   bands (ev):

   -18.3305 -11.2149  -7.7193  -6.6397   1.3864   3.5139   4.0089   4.4440

     occupation numbers 
     1.0000   1.0000   1.0000   1.0000   0.0000   0.0000   0.0000   0.0000

          k = 0.3750 0.2088 0.0000 (  2779 PWs)   bands (ev):

   -18.1223 -11.8530  -7.2665  -6.4236   0.9245   3.3896   4.1046   4.8003

     occupation numbers 
     1.0000   1.0000   1.0000   1.0000   0.0000   0.0000   0.0000   0.0000

          k = 0.3750 0.2685 0.0000 (  2777 PWs)   bands (ev):

   -17.8559 -12.4157  -7.0558  -6.1492   0.4486   3.2248   4.5149   5.2629

     occupation numbers 
     1.0000   1.0000   1.0000   1.0000   0.0000   0.0000   0.0000   0.0000

          k = 0.3750 0.3281 0.0000 (  2780 PWs)   bands (ev):

   -17.5447 -12.8831  -7.1388  -5.8309   0.0054   3.2629   5.0676   5.8305

     occupation numbers 
     1.0000   1.0000   1.0000   1.0000   0.0000   0.0000   0.0000   0.0000

          k = 0.3750 0.3878 0.0000 (  2790 PWs)   bands (ev):

   -17.2110 -13.2298  -7.5067  -5.4893  -0.3706   3.4837   5.7380   6.4986

     occupation numbers 
     1.0000   1.0000   1.0000   1.0000   0.0000   0.0000   0.0000   0.0000

          k = 0.3750-0.9844 0.0000 (  2804 PWs)   bands (ev):

   -16.8896 -13.4216  -8.0963  -5.1520  -0.6535   3.7528   6.5176   7.2360

     occupation numbers 
     1.0000   1.0000   1.0000   1.0000   0.0000   0.0000   0.0000   0.0000

          k = 0.3750-0.9247 0.0000 (  2801 PWs)   bands (ev):

   -16.6250 -13.4180  -8.8255  -4.8515  -0.8276   3.9337   7.3875   7.6233

     occupation numbers 
     1.0000   1.0000   1.0000   1.0000   0.0000   0.0000   0.0000   0.0000

          k = 0.3750-0.8651 0.0000 (  2804 PWs)   bands (ev):

   -16.4505 -13.1966  -9.6182  -4.6173  -0.8964   3.9989   7.7663   7.7757

     occupation numbers 
     1.0000   1.0000   1.0000   1.0000   0.0000   0.0000   0.0000   0.0000

          k = 0.3750-0.8054 0.0000 (  2809 PWs)   bands (ev):

   -16.3621 -12.7875 -10.4028  -4.4648  -0.8916   4.0009   7.4142   7.6460

     occupation numbers 
     1.0000   1.0000   1.0000   1.0000   0.0000   0.0000   0.0000   0.0000

          k = 0.3750-0.7457 0.0000 (  2805 PWs)   bands (ev):

   -16.3296 -12.3217 -11.0509  -4.3921  -0.8672   3.9902   7.2000   7.5571

     occupation numbers 
     1.0000   1.0000   1.0000   1.0000   0.0000   0.0000   0.0000   0.0000

          k = 0.3750-0.6861 0.0000 (  2805 PWs)   bands (ev):

   -16.3297 -12.3205 -11.0521  -4.3923  -0.8668   3.9904   7.1998   7.5571

     occupation numbers 
     1.0000   1.0000   1.0000   1.0000   0.0000   0.0000   0.0000   0.0000

          k = 0.3750-0.6264 0.0000 (  2809 PWs)   bands (ev):

   -16.3624 -12.7854 -10.4048  -4.4654  -0.8905   4.0018   7.4139   7.6461

     occupation numbers 
     1.0000   1.0000   1.0000   1.0000   0.0000   0.0000   0.0000   0.0000

          k = 0.3750-0.5668 0.0000 (  2804 PWs)   bands (ev):

   -16.4510 -13.1944  -9.6203  -4.6182  -0.8948   4.0003   7.7661   7.7752

     occupation numbers 
     1.0000   1.0000   1.0000   1.0000   0.0000   0.0000   0.0000   0.0000

          k = 0.3750-0.5071 0.0000 (  2801 PWs)   bands (ev):

   -16.6256 -13.4157  -8.8278  -4.8525  -0.8258   3.9356   7.3875   7.6213

     occupation numbers 
     1.0000   1.0000   1.0000   1.0000   0.0000   0.0000   0.0000   0.0000

          k = 0.3750-0.4474 0.0000 (  2804 PWs)   bands (ev):

   -16.8900 -13.4194  -8.0988  -5.1530  -0.6516   3.7550   6.5176   7.2332

     occupation numbers 
     1.0000   1.0000   1.0000   1.0000   0.0000   0.0000   0.0000   0.0000

          k = 0.3750-0.3878 0.0000 (  2790 PWs)   bands (ev):

   -17.2114 -13.2278  -7.5094  -5.4902  -0.3688   3.4858   5.7380   6.4987

     occupation numbers 
     1.0000   1.0000   1.0000   1.0000   0.0000   0.0000   0.0000   0.0000

          k = 0.3750-0.3281 0.0000 (  2780 PWs)   bands (ev):

   -17.5450 -12.8811  -7.1415  -5.8316   0.0070   3.2649   5.0676   6.1100

     occupation numbers 
     1.0000   1.0000   1.0000   1.0000   0.0000   0.0000   0.0000   0.0000

          k = 0.4167-0.2983 0.0000 (  2781 PWs)   bands (ev):

   -17.4471 -13.0851  -7.1526  -5.7484  -0.1629   3.2968   5.2932   6.0503

     occupation numbers 
     1.0000   1.0000   1.0000   1.0000   0.0000   0.0000   0.0000   0.0000

          k = 0.4167-0.2386 0.0000 (  2781 PWs)   bands (ev):

   -17.7004 -12.6072  -7.3458  -5.9936   0.2410   3.4697   4.8094   5.5320

     occupation numbers 
     1.0000   1.0000   1.0000   1.0000   0.0000   0.0000   0.0000   0.0000

          k = 0.4167-0.1790 0.0000 (  2770 PWs)   bands (ev):

   -17.9163 -12.0270  -7.7911  -6.2047   0.6757   3.7786   4.4964   5.1187

     occupation numbers 
     1.0000   1.0000   1.0000   1.0000   0.0000   0.0000   0.0000   0.0000

          k = 0.4167-0.1193 0.0000 (  2767 PWs)   bands (ev):

   -18.0792 -11.3688  -8.4093  -6.3658   1.0802   3.8891   4.5365   4.8125

     occupation numbers 
     1.0000   1.0000   1.0000   1.0000   0.0000   0.0000   0.0000   0.0000

          k = 0.4167-0.0597 0.0000 (  2772 PWs)   bands (ev):

   -18.1799 -10.6579  -9.1199  -6.4661   1.3772   3.8014   4.6199   4.6863

     occupation numbers 
     1.0000   1.0000   1.0000   1.0000   0.0000   0.0000   0.0000   0.0000

          k = 0.4167-0.0000 0.0000 (  2764 PWs)   bands (ev):

   -18.2139 -10.0444  -9.7370  -6.5001   1.4882   3.7591   4.5531   4.7014

     occupation numbers 
     1.0000   1.0000   1.0000   1.0000   0.0000   0.0000   0.0000   0.0000

          k = 0.4167 0.0597 0.0000 (  2772 PWs)   bands (ev):

   -18.1798 -10.6598  -9.1177  -6.4660   1.3768   3.8012   4.6199   4.6860

     occupation numbers 
     1.0000   1.0000   1.0000   1.0000   0.0000   0.0000   0.0000   0.0000

          k = 0.4167 0.1193 0.0000 (  2767 PWs)   bands (ev):

   -18.0791 -11.3707  -8.4070  -6.3655   1.0794   3.8886   4.5358   4.8125

     occupation numbers 
     1.0000   1.0000   1.0000   1.0000   0.0000   0.0000   0.0000   0.0000

          k = 0.4167 0.1790 0.0000 (  2770 PWs)   bands (ev):

   -17.9162 -12.0289  -7.7886  -6.2043   0.6745   3.7773   4.4963   5.1186

     occupation numbers 
     1.0000   1.0000   1.0000   1.0000   0.0000   0.0000   0.0000   0.0000

          k = 0.4167 0.2386 0.0000 (  2781 PWs)   bands (ev):

   -17.7002 -12.6092  -7.3432  -5.9930   0.2395   3.4681   4.8094   5.5321

     occupation numbers 
     1.0000   1.0000   1.0000   1.0000   0.0000   0.0000   0.0000   0.0000

          k = 0.4167 0.2983 0.0000 (  2781 PWs)   bands (ev):

   -17.4468 -13.0871  -7.1500  -5.7476  -0.1646   3.2951   5.2932   6.0503

     occupation numbers 
     1.0000   1.0000   1.0000   1.0000   0.0000   0.0000   0.0000   0.0000

          k = 0.4167 0.3580 0.0000 (  2782 PWs)   bands (ev):

   -17.1826 -13.4318  -7.2556  -5.4912  -0.4907   3.3648   5.9002   6.6706

     occupation numbers 
     1.0000   1.0000   1.0000   1.0000   0.0000   0.0000   0.0000   0.0000

          k = 0.4167-1.0142 0.0000 (  2796 PWs)   bands (ev):

   -16.9464 -13.6030  -7.6434  -5.2527  -0.7039   3.6416   6.6134   7.3542

     occupation numbers 
     1.0000   1.0000   1.0000   1.0000   0.0000   0.0000   0.0000   0.0000

          k = 0.4167-0.9546 0.0000 (  2802 PWs)   bands (ev):

   -16.7797 -13.5609  -8.2451  -5.0599  -0.7847   3.9919   7.1611   7.4962

     occupation numbers 
     1.0000   1.0000   1.0000   1.0000   0.0000   0.0000   0.0000   0.0000

          k = 0.4167-0.8949 0.0000 (  2801 PWs)   bands (ev):

   -16.6988 -13.2947  -8.9781  -4.9288  -0.7427   4.2665   7.0696   7.5190

     occupation numbers 
     1.0000   1.0000   1.0000   1.0000   0.0000   0.0000   0.0000   0.0000

          k = 0.4167-0.8352 0.0000 (  2803 PWs)   bands (ev):

   -16.6810 -12.8394  -9.7673  -4.8557  -0.6245   4.4090   6.9275   7.1391

     occupation numbers 
     1.0000   1.0000   1.0000   1.0000   0.0000   0.0000   0.0000   0.0000

          k = 0.4167-0.7756 0.0000 (  2803 PWs)   bands (ev):

   -16.6885 -12.2680 -10.5362  -4.8233  -0.5043   4.4599   6.8167   6.8780

     occupation numbers 
     1.0000   1.0000   1.0000   1.0000   0.0000   0.0000   0.0000   0.0000

          k = 0.4167-0.7159 0.0000 (  2802 PWs)   bands (ev):

   -16.6941 -11.8532 -11.0162  -4.8149  -0.4539   4.4707   6.7766   6.7829

     occupation numbers 
     1.0000   1.0000   1.0000   1.0000   0.0000   0.0000   0.0000   0.0000

          k = 0.4167-0.6563 0.0000 (  2803 PWs)   bands (ev):

   -16.6886 -12.2662 -10.5380  -4.8236  -0.5036   4.4605   6.8168   6.8779

     occupation numbers 
     1.0000   1.0000   1.0000   1.0000   0.0000   0.0000   0.0000   0.0000

          k = 0.4167-0.5966 0.0000 (  2803 PWs)   bands (ev):

   -16.6813 -12.8374  -9.7694  -4.8563  -0.6232   4.4103   6.9276   7.1389

     occupation numbers 
     1.0000   1.0000   1.0000   1.0000   0.0000   0.0000   0.0000   0.0000

          k = 0.4167-0.5369 0.0000 (  2801 PWs)   bands (ev):

   -16.6993 -13.2925  -8.9804  -4.9297  -0.7410   4.2683   7.0694   7.5188

     occupation numbers 
     1.0000   1.0000   1.0000   1.0000   0.0000   0.0000   0.0000   0.0000

          k = 0.4167-0.4773 0.0000 (  2802 PWs)   bands (ev):

   -16.7802 -13.5587  -8.2475  -5.0609  -0.7828   3.9939   7.1602   7.4962

     occupation numbers 
     1.0000   1.0000   1.0000   1.0000   0.0000   0.0000   0.0000   0.0000

          k = 0.4167-0.4176 0.0000 (  2796 PWs)   bands (ev):

   -16.9469 -13.6009  -7.6460  -5.2537  -0.7019   3.6436   6.6134   7.3528

     occupation numbers 
     1.0000   1.0000   1.0000   1.0000   0.0000   0.0000   0.0000   0.0000

          k = 0.4167-0.3580 0.0000 (  2782 PWs)   bands (ev):

   -17.1830 -13.4298  -7.2583  -5.4922  -0.4889   3.3666   5.9003   6.6706

     occupation numbers 
     1.0000   1.0000   1.0000   1.0000   0.0000   0.0000   0.0000   0.0000

          k = 0.4583-0.3281 0.0000 (  2783 PWs)   bands (ev):

   -17.1209 -13.5702  -7.2102  -5.4483  -0.5943   3.3315   6.1395   6.9162

     occupation numbers 
     1.0000   1.0000   1.0000   1.0000   0.0000   0.0000   0.0000   0.0000

          k = 0.4583-0.2685 0.0000 (  2775 PWs)   bands (ev):

   -17.3084 -13.2328  -7.3833  -5.6138  -0.3220   3.4901   5.6017   6.3436

     occupation numbers 
     1.0000   1.0000   1.0000   1.0000   0.0000   0.0000   0.0000   0.0000

          k = 0.4583-0.2088 0.0000 (  2785 PWs)   bands (ev):

   -17.4998 -12.7480  -7.8183  -5.7828   0.0340   3.8400   5.1973   5.8730

     occupation numbers 
     1.0000   1.0000   1.0000   1.0000   0.0000   0.0000   0.0000   0.0000

          k = 0.4583-0.1491 0.0000 (  2784 PWs)   bands (ev):

   -17.6638 -12.1532  -8.4369  -5.9301   0.4141   4.1865   4.9931   5.5072

     occupation numbers 
     1.0000   1.0000   1.0000   1.0000   0.0000   0.0000   0.0000   0.0000

          k = 0.4583-0.0895 0.0000 (  2778 PWs)   bands (ev):

   -17.7815 -11.4794  -9.1578  -6.0376   0.7436   4.2793   5.0572   5.2512

     occupation numbers 
     1.0000   1.0000   1.0000   1.0000   0.0000   0.0000   0.0000   0.0000

          k = 0.4583-0.0298 0.0000 (  2782 PWs)   bands (ev):

   -17.8426 -10.7738  -9.8962  -6.0941   0.9392   4.2447   5.1167   5.1313

     occupation numbers 
     1.0000   1.0000   1.0000   1.0000   0.0000   0.0000   0.0000   0.0000

          k = 0.4583 0.0298 0.0000 (  2782 PWs)   bands (ev):

   -17.8425 -10.7756  -9.8944  -6.0940   0.9389   4.2446   5.1167   5.1311

     occupation numbers 
     1.0000   1.0000   1.0000   1.0000   0.0000   0.0000   0.0000   0.0000

          k = 0.4583 0.0895 0.0000 (  2778 PWs)   bands (ev):

   -17.7814 -11.4813  -9.1557  -6.0374   0.7429   4.2789   5.0567   5.2512

     occupation numbers 
     1.0000   1.0000   1.0000   1.0000   0.0000   0.0000   0.0000   0.0000

          k = 0.4583 0.1491 0.0000 (  2784 PWs)   bands (ev):

   -17.6637 -12.1551  -8.4346  -5.9297   0.4130   4.1853   4.9929   5.5072

     occupation numbers 
     1.0000   1.0000   1.0000   1.0000   0.0000   0.0000   0.0000   0.0000

          k = 0.4583 0.2088 0.0000 (  2785 PWs)   bands (ev):

   -17.4996 -12.7499  -7.8158  -5.7821   0.0326   3.8385   5.1973   5.8730

     occupation numbers 
     1.0000   1.0000   1.0000   1.0000   0.0000   0.0000   0.0000   0.0000

          k = 0.4583 0.2685 0.0000 (  2775 PWs)   bands (ev):

   -17.3081 -13.2348  -7.3807  -5.6130  -0.3237   3.4885   5.6017   6.3436

     occupation numbers 
     1.0000   1.0000   1.0000   1.0000   0.0000   0.0000   0.0000   0.0000

          k = 0.4583 0.3281 0.0000 (  2783 PWs)   bands (ev):

   -17.1204 -13.5723  -7.2076  -5.4473  -0.5962   3.3298   6.1395   6.9162

     occupation numbers 
     1.0000   1.0000   1.0000   1.0000   0.0000   0.0000   0.0000   0.0000

          k = 0.4583-1.0440 0.0000 (  2788 PWs)   bands (ev):

   -16.9782 -13.7181  -7.3362  -5.3127  -0.7416   3.4322   6.7744   7.3049

     occupation numbers 
     1.0000   1.0000   1.0000   1.0000   0.0000   0.0000   0.0000   0.0000

          k = 0.4583-0.9844 0.0000 (  2796 PWs)   bands (ev):

   -16.9150 -13.6386  -7.7422  -5.2297  -0.7399   3.7510   6.8039   7.5730

     occupation numbers 
     1.0000   1.0000   1.0000   1.0000   0.0000   0.0000   0.0000   0.0000

          k = 0.4583-0.9247 0.0000 (  2795 PWs)   bands (ev):

   -16.9284 -13.3393  -8.3528  -5.2006  -0.6056   4.1512   6.4791   7.1130

     occupation numbers 
     1.0000   1.0000   1.0000   1.0000   0.0000   0.0000   0.0000   0.0000

          k = 0.4583-0.8651 0.0000 (  2801 PWs)   bands (ev):

   -16.9832 -12.8621  -9.0854  -5.2093  -0.3895   4.4725   6.2701   6.7192

     occupation numbers 
     1.0000   1.0000   1.0000   1.0000   0.0000   0.0000   0.0000   0.0000

          k = 0.4583-0.8054 0.0000 (  2792 PWs)   bands (ev):

   -17.0409 -12.2613  -9.8657  -5.2319  -0.1694   4.6386   6.1590   6.4322

     occupation numbers 
     1.0000   1.0000   1.0000   1.0000   0.0000   0.0000   0.0000   0.0000

          k = 0.4583-0.7457 0.0000 (  2795 PWs)   bands (ev):

   -17.0756 -11.6247 -10.5946  -5.2487  -0.0297   4.6924   6.1100   6.2760

     occupation numbers 
     1.0000   1.0000   1.0000   1.0000   0.0000   0.0000   0.0000   0.0000

          k = 0.4583-0.6861 0.0000 (  2795 PWs)   bands (ev):

   -17.0757 -11.6232 -10.5961  -5.2488  -0.0294   4.6927   6.1101   6.2760

     occupation numbers 
     1.0000   1.0000   1.0000   1.0000   0.0000   0.0000   0.0000   0.0000

          k = 0.4583-0.6264 0.0000 (  2792 PWs)   bands (ev):

   -17.0410 -12.2593  -9.8677  -5.2324  -0.1685   4.6396   6.1591   6.4322

     occupation numbers 
     1.0000   1.0000   1.0000   1.0000   0.0000   0.0000   0.0000   0.0000

          k = 0.4583-0.5668 0.0000 (  2801 PWs)   bands (ev):

   -16.9835 -12.8601  -9.0876  -5.2100  -0.3882   4.4740   6.2701   6.7191

     occupation numbers 
     1.0000   1.0000   1.0000   1.0000   0.0000   0.0000   0.0000   0.0000

          k = 0.4583-0.5071 0.0000 (  2795 PWs)   bands (ev):

   -16.9288 -13.3371  -8.3552  -5.2015  -0.6039   4.1529   6.4790   7.1130

     occupation numbers 
     1.0000   1.0000   1.0000   1.0000   0.0000   0.0000   0.0000   0.0000

          k = 0.4583-0.4474 0.0000 (  2796 PWs)   bands (ev):

   -16.9155 -13.6365  -7.7446  -5.2307  -0.7380   3.7528   6.8036   7.5731

     occupation numbers 
     1.0000   1.0000   1.0000   1.0000   0.0000   0.0000   0.0000   0.0000

          k = 0.4583-0.3878 0.0000 (  2788 PWs)   bands (ev):

   -16.9788 -13.7160  -7.3388  -5.3138  -0.7396   3.4339   6.7744   7.3047

     occupation numbers 
     1.0000   1.0000   1.0000   1.0000   0.0000   0.0000   0.0000   0.0000

          k =-0.5000 0.3580 0.0000 (  2788 PWs)   bands (ev):

   -16.9890 -13.7553  -7.2296  -5.3337  -0.7535   3.3418   6.9113   7.1658

     occupation numbers 
     1.0000   1.0000   1.0000   1.0000   0.0000   0.0000   0.0000   0.0000

          k =-0.5000 0.4176 0.0000 (  2781 PWs)   bands (ev):

   -17.0302 -13.6406  -7.3809  -5.3604  -0.6774   3.4751   6.4474   7.2313

     occupation numbers 
     1.0000   1.0000   1.0000   1.0000   0.0000   0.0000   0.0000   0.0000

          k =-0.5000 0.4773 0.0000 (  2788 PWs)   bands (ev):

   -17.1338 -13.3178  -7.8026  -5.4305  -0.4676   3.8204   5.9945   6.7037

     occupation numbers 
     1.0000   1.0000   1.0000   1.0000   0.0000   0.0000   0.0000   0.0000

          k =-0.5000 0.5369 0.0000 (  2791 PWs)   bands (ev):

   -17.2589 -12.8324  -8.4187  -5.5203  -0.1730   4.2307   5.6856   6.2765

     occupation numbers 
     1.0000   1.0000   1.0000   1.0000   0.0000   0.0000   0.0000   0.0000

          k =-0.5000 0.5966 0.0000 (  2788 PWs)   bands (ev):

   -17.3696 -12.2289  -9.1471  -5.6040   0.1354   4.5140   5.5577   5.9542

     occupation numbers 
     1.0000   1.0000   1.0000   1.0000   0.0000   0.0000   0.0000   0.0000

          k =-0.5000 0.6563 0.0000 (  2784 PWs)   bands (ev):

   -17.4437 -11.5516  -9.9121  -5.6620   0.3736   4.6000   5.5583   5.7478

     occupation numbers 
     1.0000   1.0000   1.0000   1.0000   0.0000   0.0000   0.0000   0.0000

          k =-0.5000 0.7159 0.0000 (  2790 PWs)   bands (ev):

   -17.4695 -11.0172 -10.4778  -5.6826   0.4640   4.6067   5.5677   5.6755

     occupation numbers 
     1.0000   1.0000   1.0000   1.0000   0.0000   0.0000   0.0000   0.0000

          k =-0.5000 0.7756 0.0000 (  2784 PWs)   bands (ev):

   -17.4436 -11.5534  -9.9101  -5.6618   0.3731   4.5996   5.5580   5.7478

     occupation numbers 
     1.0000   1.0000   1.0000   1.0000   0.0000   0.0000   0.0000   0.0000

          k =-0.5000 0.8352 0.0000 (  2788 PWs)   bands (ev):

   -17.3695 -12.2308  -9.1449  -5.6036   0.1344   4.5130   5.5575   5.9542

     occupation numbers 
     1.0000   1.0000   1.0000   1.0000   0.0000   0.0000   0.0000   0.0000

          k =-0.5000 0.8949 0.0000 (  2791 PWs)   bands (ev):

   -17.2586 -12.8343  -8.4164  -5.5196  -0.1744   4.2291   5.6856   6.2765

     occupation numbers 
     1.0000   1.0000   1.0000   1.0000   0.0000   0.0000   0.0000   0.0000

          k =-0.5000 0.9546 0.0000 (  2788 PWs)   bands (ev):

   -17.1334 -13.3198  -7.8002  -5.4297  -0.4693   3.8188   5.9946   6.7037

     occupation numbers 
     1.0000   1.0000   1.0000   1.0000   0.0000   0.0000   0.0000   0.0000

          k =-0.5000 1.0142 0.0000 (  2781 PWs)   bands (ev):

   -17.0297 -13.6427  -7.3783  -5.3594  -0.6793   3.4735   6.4475   7.2312

     occupation numbers 
     1.0000   1.0000   1.0000   1.0000   0.0000   0.0000   0.0000   0.0000

          k =-0.5000-0.3580 0.0000 (  2788 PWs)   bands (ev):

   -16.9885 -13.7575  -7.2270  -5.3327  -0.7555   3.3402   6.9114   7.1657

     occupation numbers 
     1.0000   1.0000   1.0000   1.0000   0.0000   0.0000   0.0000   0.0000

          k =-0.5000-0.2983 0.0000 (  2781 PWs)   bands (ev):

   -17.0297 -13.6427  -7.3783  -5.3594  -0.6793   3.4735   6.4475   7.2313

     occupation numbers 
     1.0000   1.0000   1.0000   1.0000   0.0000   0.0000   0.0000   0.0000

          k =-0.5000-0.2386 0.0000 (  2788 PWs)   bands (ev):

   -17.1334 -13.3198  -7.8002  -5.4297  -0.4693   3.8188   5.9946   6.7037

     occupation numbers 
     1.0000   1.0000   1.0000   1.0000   0.0000   0.0000   0.0000   0.0000

          k =-0.5000-0.1790 0.0000 (  2791 PWs)   bands (ev):

   -17.2586 -12.8343  -8.4164  -5.5196  -0.1744   4.2291   5.6856   6.2765

     occupation numbers 
     1.0000   1.0000   1.0000   1.0000   0.0000   0.0000   0.0000   0.0000

          k =-0.5000-0.1193 0.0000 (  2788 PWs)   bands (ev):

   -17.3695 -12.2308  -9.1449  -5.6036   0.1344   4.5130   5.5575   5.9542

     occupation numbers 
     1.0000   1.0000   1.0000   1.0000   0.0000   0.0000   0.0000   0.0000

          k =-0.5000-0.0597 0.0000 (  2784 PWs)   bands (ev):

   -17.4436 -11.5534  -9.9101  -5.6618   0.3731   4.5996   5.5580   5.7478

     occupation numbers 
     1.0000   1.0000   1.0000   1.0000   0.0000   0.0000   0.0000   0.0000

          k =-0.5000 0.0000 0.0000 (  2790 PWs)   bands (ev):

   -17.4695 -11.0172 -10.4778  -5.6826   0.4640   4.6067   5.5677   5.6755

     occupation numbers 
     1.0000   1.0000   1.0000   1.0000   0.0000   0.0000   0.0000   0.0000

          k =-0.5000 0.0597 0.0000 (  2784 PWs)   bands (ev):

   -17.4437 -11.5516  -9.9121  -5.6620   0.3736   4.6000   5.5583   5.7478

     occupation numbers 
     1.0000   1.0000   1.0000   1.0000   0.0000   0.0000   0.0000   0.0000

          k =-0.5000 0.1193 0.0000 (  2788 PWs)   bands (ev):

   -17.3696 -12.2289  -9.1471  -5.6040   0.1354   4.5140   5.5577   5.9542

     occupation numbers 
     1.0000   1.0000   1.0000   1.0000   0.0000   0.0000   0.0000   0.0000

          k =-0.5000 0.1790 0.0000 (  2791 PWs)   bands (ev):

   -17.2589 -12.8324  -8.4187  -5.5203  -0.1730   4.2307   5.6856   6.2765

     occupation numbers 
     1.0000   1.0000   1.0000   1.0000   0.0000   0.0000   0.0000   0.0000

          k =-0.5000 0.2386 0.0000 (  2788 PWs)   bands (ev):

   -17.1338 -13.3178  -7.8026  -5.4305  -0.4676   3.8204   5.9945   6.7037

     occupation numbers 
     1.0000   1.0000   1.0000   1.0000   0.0000   0.0000   0.0000   0.0000

          k =-0.5000 0.2983 0.0000 (  2781 PWs)   bands (ev):

   -17.0302 -13.6406  -7.3809  -5.3604  -0.6774   3.4751   6.4474   7.2313

     occupation numbers 
     1.0000   1.0000   1.0000   1.0000   0.0000   0.0000   0.0000   0.0000

          k =-0.4583 0.3281 0.0000 (  2783 PWs)   bands (ev):

   -17.1209 -13.5702  -7.2102  -5.4483  -0.5943   3.3315   6.1395   6.9162

     occupation numbers 
     1.0000   1.0000   1.0000   1.0000   0.0000   0.0000   0.0000   0.0000

          k =-0.4583 0.3878 0.0000 (  2788 PWs)   bands (ev):

   -16.9788 -13.7160  -7.3388  -5.3138  -0.7396   3.4339   6.7744   7.3047

     occupation numbers 
     1.0000   1.0000   1.0000   1.0000   0.0000   0.0000   0.0000   0.0000

          k =-0.4583 0.4474 0.0000 (  2796 PWs)   bands (ev):

   -16.9155 -13.6365  -7.7446  -5.2307  -0.7380   3.7528   6.8036   7.5731

     occupation numbers 
     1.0000   1.0000   1.0000   1.0000   0.0000   0.0000   0.0000   0.0000

          k =-0.4583 0.5071 0.0000 (  2795 PWs)   bands (ev):

   -16.9288 -13.3371  -8.3552  -5.2015  -0.6039   4.1529   6.4790   7.1130

     occupation numbers 
     1.0000   1.0000   1.0000   1.0000   0.0000   0.0000   0.0000   0.0000

          k =-0.4583 0.5668 0.0000 (  2801 PWs)   bands (ev):

   -16.9835 -12.8601  -9.0876  -5.2100  -0.3882   4.4740   6.2701   6.7191

     occupation numbers 
     1.0000   1.0000   1.0000   1.0000   0.0000   0.0000   0.0000   0.0000

          k =-0.4583 0.6264 0.0000 (  2792 PWs)   bands (ev):

   -17.0410 -12.2593  -9.8677  -5.2324  -0.1685   4.6396   6.1591   6.4322

     occupation numbers 
     1.0000   1.0000   1.0000   1.0000   0.0000   0.0000   0.0000   0.0000

          k =-0.4583 0.6861 0.0000 (  2795 PWs)   bands (ev):

   -17.0757 -11.6232 -10.5961  -5.2488  -0.0294   4.6927   6.1101   6.2760

     occupation numbers 
     1.0000   1.0000   1.0000   1.0000   0.0000   0.0000   0.0000   0.0000

          k =-0.4583 0.7457 0.0000 (  2795 PWs)   bands (ev):

   -17.0756 -11.6247 -10.5946  -5.2487  -0.0297   4.6924   6.1100   6.2760

     occupation numbers 
     1.0000   1.0000   1.0000   1.0000   0.0000   0.0000   0.0000   0.0000

          k =-0.4583 0.8054 0.0000 (  2792 PWs)   bands (ev):

   -17.0409 -12.2613  -9.8657  -5.2319  -0.1694   4.6386   6.1590   6.4322

     occupation numbers 
     1.0000   1.0000   1.0000   1.0000   0.0000   0.0000   0.0000   0.0000

          k =-0.4583 0.8651 0.0000 (  2801 PWs)   bands (ev):

   -16.9832 -12.8621  -9.0854  -5.2093  -0.3895   4.4725   6.2701   6.7192

     occupation numbers 
     1.0000   1.0000   1.0000   1.0000   0.0000   0.0000   0.0000   0.0000

          k =-0.4583 0.9247 0.0000 (  2795 PWs)   bands (ev):

   -16.9284 -13.3393  -8.3528  -5.2006  -0.6056   4.1512   6.4791   7.1130

     occupation numbers 
     1.0000   1.0000   1.0000   1.0000   0.0000   0.0000   0.0000   0.0000

          k =-0.4583 0.9844 0.0000 (  2796 PWs)   bands (ev):

   -16.9150 -13.6386  -7.7422  -5.2297  -0.7399   3.7510   6.8039   7.5730

     occupation numbers 
     1.0000   1.0000   1.0000   1.0000   0.0000   0.0000   0.0000   0.0000

          k =-0.4583-0.3878 0.0000 (  2788 PWs)   bands (ev):

   -16.9782 -13.7181  -7.3362  -5.3127  -0.7416   3.4322   6.7744   7.3049

     occupation numbers 
     1.0000   1.0000   1.0000   1.0000   0.0000   0.0000   0.0000   0.0000

          k =-0.4583-0.3281 0.0000 (  2783 PWs)   bands (ev):

   -17.1204 -13.5723  -7.2076  -5.4473  -0.5962   3.3298   6.1395   6.9162

     occupation numbers 
     1.0000   1.0000   1.0000   1.0000   0.0000   0.0000   0.0000   0.0000

          k =-0.4583-0.2685 0.0000 (  2775 PWs)   bands (ev):

   -17.3081 -13.2348  -7.3807  -5.6130  -0.3237   3.4885   5.6017   6.3437

     occupation numbers 
     1.0000   1.0000   1.0000   1.0000   0.0000   0.0000   0.0000   0.0000

          k =-0.4583-0.2088 0.0000 (  2785 PWs)   bands (ev):

   -17.4996 -12.7499  -7.8158  -5.7821   0.0326   3.8385   5.1973   5.8730

     occupation numbers 
     1.0000   1.0000   1.0000   1.0000   0.0000   0.0000   0.0000   0.0000

          k =-0.4583-0.1491 0.0000 (  2784 PWs)   bands (ev):

   -17.6637 -12.1551  -8.4346  -5.9297   0.4130   4.1853   4.9929   5.5072

     occupation numbers 
     1.0000   1.0000   1.0000   1.0000   0.0000   0.0000   0.0000   0.0000

          k =-0.4583-0.0895 0.0000 (  2778 PWs)   bands (ev):

   -17.7814 -11.4813  -9.1557  -6.0374   0.7429   4.2789   5.0567   5.2512

     occupation numbers 
     1.0000   1.0000   1.0000   1.0000   0.0000   0.0000   0.0000   0.0000

          k =-0.4583-0.0298 0.0000 (  2782 PWs)   bands (ev):

   -17.8425 -10.7756  -9.8944  -6.0940   0.9389   4.2446   5.1167   5.1311

     occupation numbers 
     1.0000   1.0000   1.0000   1.0000   0.0000   0.0000   0.0000   0.0000

          k =-0.4583 0.0298 0.0000 (  2782 PWs)   bands (ev):

   -17.8426 -10.7738  -9.8962  -6.0941   0.9392   4.2447   5.1167   5.1313

     occupation numbers 
     1.0000   1.0000   1.0000   1.0000   0.0000   0.0000   0.0000   0.0000

          k =-0.4583 0.0895 0.0000 (  2778 PWs)   bands (ev):

   -17.7815 -11.4794  -9.1578  -6.0376   0.7436   4.2793   5.0572   5.2512

     occupation numbers 
     1.0000   1.0000   1.0000   1.0000   0.0000   0.0000   0.0000   0.0000

          k =-0.4583 0.1491 0.0000 (  2784 PWs)   bands (ev):

   -17.6638 -12.1532  -8.4369  -5.9301   0.4141   4.1865   4.9931   5.5072

     occupation numbers 
     1.0000   1.0000   1.0000   1.0000   0.0000   0.0000   0.0000   0.0000

          k =-0.4583 0.2088 0.0000 (  2785 PWs)   bands (ev):

   -17.4998 -12.7480  -7.8183  -5.7828   0.0340   3.8400   5.1973   5.8730

     occupation numbers 
     1.0000   1.0000   1.0000   1.0000   0.0000   0.0000   0.0000   0.0000

          k =-0.4583 0.2685 0.0000 (  2775 PWs)   bands (ev):

   -17.3084 -13.2328  -7.3833  -5.6138  -0.3220   3.4901   5.6017   6.3436

     occupation numbers 
     1.0000   1.0000   1.0000   1.0000   0.0000   0.0000   0.0000   0.0000

          k =-0.4167 0.2983 0.0000 (  2781 PWs)   bands (ev):

   -17.4471 -13.0851  -7.1526  -5.7484  -0.1629   3.2968   5.2932   6.0503

     occupation numbers 
     1.0000   1.0000   1.0000   1.0000   0.0000   0.0000   0.0000   0.0000

          k =-0.4167 0.3580 0.0000 (  2782 PWs)   bands (ev):

   -17.1830 -13.4298  -7.2583  -5.4922  -0.4889   3.3666   5.9003   6.6705

     occupation numbers 
     1.0000   1.0000   1.0000   1.0000   0.0000   0.0000   0.0000   0.0000

          k =-0.4167 0.4176 0.0000 (  2796 PWs)   bands (ev):

   -16.9469 -13.6009  -7.6460  -5.2537  -0.7019   3.6436   6.6134   7.3528

     occupation numbers 
     1.0000   1.0000   1.0000   1.0000   0.0000   0.0000   0.0000   0.0000

          k =-0.4167 0.4773 0.0000 (  2802 PWs)   bands (ev):

   -16.7802 -13.5587  -8.2475  -5.0609  -0.7828   3.9939   7.1602   7.4962

     occupation numbers 
     1.0000   1.0000   1.0000   1.0000   0.0000   0.0000   0.0000   0.0000

          k =-0.4167 0.5369 0.0000 (  2801 PWs)   bands (ev):

   -16.6993 -13.2925  -8.9804  -4.9297  -0.7410   4.2683   7.0694   7.5188

     occupation numbers 
     1.0000   1.0000   1.0000   1.0000   0.0000   0.0000   0.0000   0.0000

          k =-0.4167 0.5966 0.0000 (  2803 PWs)   bands (ev):

   -16.6813 -12.8374  -9.7694  -4.8563  -0.6232   4.4103   6.9276   7.1389

     occupation numbers 
     1.0000   1.0000   1.0000   1.0000   0.0000   0.0000   0.0000   0.0000

          k =-0.4167 0.6563 0.0000 (  2803 PWs)   bands (ev):

   -16.6886 -12.2662 -10.5380  -4.8236  -0.5036   4.4605   6.8168   6.8779

     occupation numbers 
     1.0000   1.0000   1.0000   1.0000   0.0000   0.0000   0.0000   0.0000

          k =-0.4167 0.7159 0.0000 (  2802 PWs)   bands (ev):

   -16.6941 -11.8532 -11.0162  -4.8149  -0.4539   4.4707   6.7766   6.7829

     occupation numbers 
     1.0000   1.0000   1.0000   1.0000   0.0000   0.0000   0.0000   0.0000

          k =-0.4167 0.7756 0.0000 (  2803 PWs)   bands (ev):

   -16.6885 -12.2680 -10.5362  -4.8233  -0.5043   4.4599   6.8167   6.8780

     occupation numbers 
     1.0000   1.0000   1.0000   1.0000   0.0000   0.0000   0.0000   0.0000

          k =-0.4167 0.8352 0.0000 (  2803 PWs)   bands (ev):

   -16.6810 -12.8394  -9.7673  -4.8557  -0.6245   4.4090   6.9275   7.1391

     occupation numbers 
     1.0000   1.0000   1.0000   1.0000   0.0000   0.0000   0.0000   0.0000

          k =-0.4167 0.8949 0.0000 (  2801 PWs)   bands (ev):

   -16.6988 -13.2947  -8.9781  -4.9288  -0.7427   4.2665   7.0696   7.5190

     occupation numbers 
     1.0000   1.0000   1.0000   1.0000   0.0000   0.0000   0.0000   0.0000

          k =-0.4167 0.9546 0.0000 (  2802 PWs)   bands (ev):

   -16.7797 -13.5609  -8.2451  -5.0599  -0.7847   3.9919   7.1611   7.4962

     occupation numbers 
     1.0000   1.0000   1.0000   1.0000   0.0000   0.0000   0.0000   0.0000

          k =-0.4167-0.4176 0.0000 (  2796 PWs)   bands (ev):

   -16.9464 -13.6030  -7.6434  -5.2527  -0.7039   3.6416   6.6134   7.3542

     occupation numbers 
     1.0000   1.0000   1.0000   1.0000   0.0000   0.0000   0.0000   0.0000

          k =-0.4167-0.3580 0.0000 (  2782 PWs)   bands (ev):

   -17.1826 -13.4318  -7.2556  -5.4912  -0.4907   3.3648   5.9002   6.6705

     occupation numbers 
     1.0000   1.0000   1.0000   1.0000   0.0000   0.0000   0.0000   0.0000

          k =-0.4167-0.2983 0.0000 (  2781 PWs)   bands (ev):

   -17.4468 -13.0871  -7.1500  -5.7476  -0.1646   3.2951   5.2932   6.0503

     occupation numbers 
     1.0000   1.0000   1.0000   1.0000   0.0000   0.0000   0.0000   0.0000

          k =-0.4167-0.2386 0.0000 (  2781 PWs)   bands (ev):

   -17.7002 -12.6092  -7.3432  -5.9930   0.2395   3.4681   4.8094   5.5322

     occupation numbers 
     1.0000   1.0000   1.0000   1.0000   0.0000   0.0000   0.0000   0.0000

          k =-0.4167-0.1790 0.0000 (  2770 PWs)   bands (ev):

   -17.9162 -12.0289  -7.7886  -6.2043   0.6745   3.7773   4.4963   5.1186

     occupation numbers 
     1.0000   1.0000   1.0000   1.0000   0.0000   0.0000   0.0000   0.0000

          k =-0.4167-0.1193 0.0000 (  2767 PWs)   bands (ev):

   -18.0791 -11.3707  -8.4070  -6.3655   1.0794   3.8886   4.5358   4.8125

     occupation numbers 
     1.0000   1.0000   1.0000   1.0000   0.0000   0.0000   0.0000   0.0000

          k =-0.4167-0.0597 0.0000 (  2772 PWs)   bands (ev):

   -18.1798 -10.6598  -9.1177  -6.4660   1.3768   3.8012   4.6199   4.6860

     occupation numbers 
     1.0000   1.0000   1.0000   1.0000   0.0000   0.0000   0.0000   0.0000

          k =-0.4167 0.0000 0.0000 (  2764 PWs)   bands (ev):

   -18.2139 -10.0444  -9.7370  -6.5001   1.4882   3.7591   4.5531   4.7014

     occupation numbers 
     1.0000   1.0000   1.0000   1.0000   0.0000   0.0000   0.0000   0.0000

          k =-0.4167 0.0597 0.0000 (  2772 PWs)   bands (ev):

   -18.1799 -10.6579  -9.1199  -6.4661   1.3772   3.8014   4.6199   4.6863

     occupation numbers 
     1.0000   1.0000   1.0000   1.0000   0.0000   0.0000   0.0000   0.0000

          k =-0.4167 0.1193 0.0000 (  2767 PWs)   bands (ev):

   -18.0792 -11.3688  -8.4093  -6.3658   1.0802   3.8891   4.5365   4.8125

     occupation numbers 
     1.0000   1.0000   1.0000   1.0000   0.0000   0.0000   0.0000   0.0000

          k =-0.4167 0.1790 0.0000 (  2770 PWs)   bands (ev):

   -17.9163 -12.0270  -7.7911  -6.2047   0.6757   3.7786   4.4964   5.1187

     occupation numbers 
     1.0000   1.0000   1.0000   1.0000   0.0000   0.0000   0.0000   0.0000

          k =-0.4167 0.2386 0.0000 (  2781 PWs)   bands (ev):

   -17.7004 -12.6072  -7.3458  -5.9936   0.2410   3.4697   4.8094   5.5320

     occupation numbers 
     1.0000   1.0000   1.0000   1.0000   0.0000   0.0000   0.0000   0.0000

          k =-0.3750 0.2685 0.0000 (  2777 PWs)   bands (ev):

   -17.8561 -12.4138  -7.0585  -6.1498   0.4500   3.2266   4.5149   5.2629

     occupation numbers 
     1.0000   1.0000   1.0000   1.0000   0.0000   0.0000   0.0000   0.0000

          k =-0.3750 0.3281 0.0000 (  2780 PWs)   bands (ev):

   -17.5450 -12.8811  -7.1415  -5.8316   0.0070   3.2649   5.0676   5.8305

     occupation numbers 
     1.0000   1.0000   1.0000   1.0000   0.0000   0.0000   0.0000   0.0000

          k =-0.3750 0.3878 0.0000 (  2790 PWs)   bands (ev):

   -17.2114 -13.2278  -7.5094  -5.4902  -0.3688   3.4858   5.7380   6.4986

     occupation numbers 
     1.0000   1.0000   1.0000   1.0000   0.0000   0.0000   0.0000   0.0000

          k =-0.3750 0.4474 0.0000 (  2804 PWs)   bands (ev):

   -16.8900 -13.4194  -8.0988  -5.1530  -0.6516   3.7550   6.5176   7.2332

     occupation numbers 
     1.0000   1.0000   1.0000   1.0000   0.0000   0.0000   0.0000   0.0000

          k =-0.3750 0.5071 0.0000 (  2801 PWs)   bands (ev):

   -16.6256 -13.4157  -8.8278  -4.8525  -0.8258   3.9356   7.3875   7.6213

     occupation numbers 
     1.0000   1.0000   1.0000   1.0000   0.0000   0.0000   0.0000   0.0000

          k =-0.3750 0.5668 0.0000 (  2804 PWs)   bands (ev):

   -16.4510 -13.1944  -9.6203  -4.6182  -0.8948   4.0003   7.7661   7.7752

     occupation numbers 
     1.0000   1.0000   1.0000   1.0000   0.0000   0.0000   0.0000   0.0000

          k =-0.3750 0.6264 0.0000 (  2809 PWs)   bands (ev):

   -16.3624 -12.7854 -10.4048  -4.4654  -0.8905   4.0018   7.4139   7.6461

     occupation numbers 
     1.0000   1.0000   1.0000   1.0000   0.0000   0.0000   0.0000   0.0000

          k =-0.3750 0.6861 0.0000 (  2805 PWs)   bands (ev):

   -16.3297 -12.3205 -11.0521  -4.3923  -0.8668   3.9904   7.1998   7.5571

     occupation numbers 
     1.0000   1.0000   1.0000   1.0000   0.0000   0.0000   0.0000   0.0000

          k =-0.3750 0.7457 0.0000 (  2805 PWs)   bands (ev):

   -16.3296 -12.3217 -11.0509  -4.3921  -0.8672   3.9902   7.2000   7.5571

     occupation numbers 
     1.0000   1.0000   1.0000   1.0000   0.0000   0.0000   0.0000   0.0000

          k =-0.3750 0.8054 0.0000 (  2809 PWs)   bands (ev):

   -16.3621 -12.7875 -10.4028  -4.4648  -0.8916   4.0009   7.4142   7.6460

     occupation numbers 
     1.0000   1.0000   1.0000   1.0000   0.0000   0.0000   0.0000   0.0000

          k =-0.3750 0.8651 0.0000 (  2804 PWs)   bands (ev):

   -16.4505 -13.1966  -9.6182  -4.6173  -0.8964   3.9989   7.7662   7.7757

     occupation numbers 
     1.0000   1.0000   1.0000   1.0000   0.0000   0.0000   0.0000   0.0000

          k =-0.3750 0.9247 0.0000 (  2801 PWs)   bands (ev):

   -16.6250 -13.4180  -8.8255  -4.8515  -0.8276   3.9337   7.3875   7.6233

     occupation numbers 
     1.0000   1.0000   1.0000   1.0000   0.0000   0.0000   0.0000   0.0000

          k =-0.3750-0.4474 0.0000 (  2804 PWs)   bands (ev):

   -16.8896 -13.4216  -8.0963  -5.1520  -0.6535   3.7528   6.5176   7.2360

     occupation numbers 
     1.0000   1.0000   1.0000   1.0000   0.0000   0.0000   0.0000   0.0000

          k =-0.3750-0.3878 0.0000 (  2790 PWs)   bands (ev):

   -17.2110 -13.2298  -7.5067  -5.4893  -0.3706   3.4837   5.7380   6.4986

     occupation numbers 
     1.0000   1.0000   1.0000   1.0000   0.0000   0.0000   0.0000   0.0000

          k =-0.3750-0.3281 0.0000 (  2780 PWs)   bands (ev):

   -17.5447 -12.8831  -7.1388  -5.8309   0.0054   3.2629   5.0676   5.8305

     occupation numbers 
     1.0000   1.0000   1.0000   1.0000   0.0000   0.0000   0.0000   0.0000

          k =-0.3750-0.2685 0.0000 (  2777 PWs)   bands (ev):

   -17.8559 -12.4157  -7.0558  -6.1492   0.4486   3.2248   4.5149   5.2629

     occupation numbers 
     1.0000   1.0000   1.0000   1.0000   0.0000   0.0000   0.0000   0.0000

          k =-0.3750-0.2088 0.0000 (  2779 PWs)   bands (ev):

   -18.1223 -11.8530  -7.2665  -6.4236   0.9245   3.3896   4.1046   4.8003

     occupation numbers 
     1.0000   1.0000   1.0000   1.0000   0.0000   0.0000   0.0000   0.0000

          k =-0.3750-0.1491 0.0000 (  2761 PWs)   bands (ev):

   -18.3305 -11.2149  -7.7193  -6.6397   1.3864   3.5139   4.0089   4.4440

     occupation numbers 
     1.0000   1.0000   1.0000   1.0000   0.0000   0.0000   0.0000   0.0000

          k =-0.3750-0.0895 0.0000 (  2758 PWs)   bands (ev):

   -18.4728 -10.5207  -8.3346  -6.7885   1.7701   3.3856   4.1961   4.2225

     occupation numbers 
     1.0000   1.0000   1.0000   1.0000   0.0000   0.0000   0.0000   0.0000

          k =-0.3750-0.0298 0.0000 (  2768 PWs)   bands (ev):

   -18.5450  -9.7979  -9.0321  -6.8642   1.9956   3.2902   4.0652   4.2510

     occupation numbers 
     1.0000   1.0000   1.0000   1.0000   0.0000   0.0000   0.0000   0.0000

          k =-0.3750 0.0298 0.0000 (  2768 PWs)   bands (ev):

   -18.5450  -9.7958  -9.0343  -6.8642   1.9958   3.2902   4.0652   4.2511

     occupation numbers 
     1.0000   1.0000   1.0000   1.0000   0.0000   0.0000   0.0000   0.0000

          k =-0.3750 0.0895 0.0000 (  2758 PWs)   bands (ev):

   -18.4729 -10.5187  -8.3369  -6.7886   1.7707   3.3857   4.1962   4.2231

     occupation numbers 
     1.0000   1.0000   1.0000   1.0000   0.0000   0.0000   0.0000   0.0000

          k =-0.3750 0.1491 0.0000 (  2761 PWs)   bands (ev):

   -18.3305 -11.2129  -7.7218  -6.6400   1.3873   3.5145   4.0096   4.4441

     occupation numbers 
     1.0000   1.0000   1.0000   1.0000   0.0000   0.0000   0.0000   0.0000

          k =-0.3750 0.2088 0.0000 (  2779 PWs)   bands (ev):

   -18.1224 -11.8511  -7.2692  -6.4240   0.9257   3.3912   4.1046   4.8006

     occupation numbers 
     1.0000   1.0000   1.0000   1.0000   0.0000   0.0000   0.0000   0.0000

          k =-0.3333 0.2386 0.0000 (  2770 PWs)   bands (ev):

   -18.2782 -11.6298  -6.9304  -6.5847   1.1647   3.1028   3.8190   4.5575

     occupation numbers 
     1.0000   1.0000   1.0000   1.0000   0.0000   0.0000   0.0000   0.0000

          k =-0.3333 0.2983 0.0000 (  2773 PWs)   bands (ev):

   -17.9633 -12.1743  -6.9924  -6.2490   0.6571   3.1139   4.3087   5.0697

     occupation numbers 
     1.0000   1.0000   1.0000   1.0000   0.0000   0.0000   0.0000   0.0000

          k =-0.3333 0.3580 0.0000 (  2786 PWs)   bands (ev):

   -17.5980 -12.6300  -7.3394  -5.8616   0.1783   3.2654   4.9252   5.6870

     occupation numbers 
     1.0000   1.0000   1.0000   1.0000   0.0000   0.0000   0.0000   0.0000

          k =-0.3333 0.4176 0.0000 (  2792 PWs)   bands (ev):

   -17.2013 -12.9771  -7.9133  -5.4404  -0.2483   3.4282   5.6561   6.4018

     occupation numbers 
     1.0000   1.0000   1.0000   1.0000   0.0000   0.0000   0.0000   0.0000

          k =-0.3333 0.4773 0.0000 (  2795 PWs)   bands (ev):

   -16.8040 -13.1882  -8.6340  -5.0106  -0.6070   3.4921   6.4945   7.4089

     occupation numbers 
     1.0000   1.0000   1.0000   1.0000   0.0000   0.0000   0.0000   0.0000

          k =-0.3333 0.5369 0.0000 (  2812 PWs)   bands (ev):

   -16.4509 -13.2281  -9.4241  -4.6066  -0.8872   3.4624   7.4319   7.8550

     occupation numbers 
     1.0000   1.0000   1.0000   1.0000   0.0000   0.0000   0.0000   0.0000

          k =-0.3333 0.5966 0.0000 (  2802 PWs)   bands (ev):

   -16.1894 -13.0717 -10.2127  -4.2704  -1.0836   3.3983   7.7944   8.4236

     occupation numbers 
     1.0000   1.0000   1.0000   1.0000   0.0000   0.0000   0.0000   0.0000

          k =-0.3333 0.6563 0.0000 (  2811 PWs)   bands (ev):

   -16.0410 -12.7605 -10.9059  -4.0461  -1.1974   3.3447   7.5157   8.4345

     occupation numbers 
     1.0000   1.0000   1.0000   1.0000   0.0000   0.0000   0.0000   0.0000

          k =-0.3333 0.7159 0.0000 (  2806 PWs)   bands (ev):

   -15.9949 -12.5439 -11.2483  -3.9669  -1.2344   3.3245   7.4036   8.3871

     occupation numbers 
     1.0000   1.0000   1.0000   1.0000   0.0000   0.0000   0.0000   0.0000

          k =-0.3333 0.7756 0.0000 (  2811 PWs)   bands (ev):

   -16.0408 -12.7623 -10.9042  -4.0456  -1.1982   3.3443   7.5160   8.4344

     occupation numbers 
     1.0000   1.0000   1.0000   1.0000   0.0000   0.0000   0.0000   0.0000

          k =-0.3333 0.8352 0.0000 (  2802 PWs)   bands (ev):

   -16.1890 -13.0740 -10.2106  -4.2696  -1.0850   3.3975   7.7950   8.4234

     occupation numbers 
     1.0000   1.0000   1.0000   1.0000   0.0000   0.0000   0.0000   0.0000

          k =-0.3333 0.8949 0.0000 (  2812 PWs)   bands (ev):

   -16.4504 -13.2304  -9.4219  -4.6056  -0.8889   3.4610   7.4318   8.1985

     occupation numbers 
     1.0000   1.0000   1.0000   1.0000   0.0000   0.0000   0.0000   0.0000

          k =-0.3333-0.4773 0.0000 (  2795 PWs)   bands (ev):

   -16.8035 -13.1905  -8.6316  -5.0096  -0.6087   3.4902   6.4944   7.4124

     occupation numbers 
     1.0000   1.0000   1.0000   1.0000   0.0000   0.0000   0.0000   0.0000

          k =-0.3333-0.4176 0.0000 (  2792 PWs)   bands (ev):

   -17.2010 -12.9792  -7.9108  -5.4396  -0.2500   3.4259   5.6560   6.4019

     occupation numbers 
     1.0000   1.0000   1.0000   1.0000   0.0000   0.0000   0.0000   0.0000

          k =-0.3333-0.3580 0.0000 (  2786 PWs)   bands (ev):

   -17.5978 -12.6320  -7.3367  -5.8609   0.1768   3.2630   4.9252   5.6870

     occupation numbers 
     1.0000   1.0000   1.0000   1.0000   0.0000   0.0000   0.0000   0.0000

          k =-0.3333-0.2983 0.0000 (  2773 PWs)   bands (ev):

   -17.9631 -12.1762  -6.9896  -6.2484   0.6557   3.1117   4.3087   5.0697

     occupation numbers 
     1.0000   1.0000   1.0000   1.0000   0.0000   0.0000   0.0000   0.0000

          k =-0.3333-0.2386 0.0000 (  2770 PWs)   bands (ev):

   -18.2781 -11.6318  -6.9275  -6.5843   1.1636   3.1008   3.8190   4.5575

     occupation numbers 
     1.0000   1.0000   1.0000   1.0000   0.0000   0.0000   0.0000   0.0000

          k =-0.3333-0.1790 0.0000 (  2758 PWs)   bands (ev):

   -18.5314 -11.0149  -7.1525  -6.8559   1.6667   3.1803   3.5521   4.1520

     occupation numbers 
     1.0000   1.0000   1.0000   1.0000   0.0000   0.0000   0.0000   0.0000

          k =-0.3333-0.1193 0.0000 (  2759 PWs)   bands (ev):

   -18.7163 -10.3423  -7.6092  -7.0551   2.1161   3.0321   3.7308   3.8527

     occupation numbers 
     1.0000   1.0000   1.0000   1.0000   0.0000   0.0000   0.0000   0.0000

          k =-0.3333-0.0597 0.0000 (  2763 PWs)   bands (ev):

   -18.8286  -9.6337  -8.2189  -7.1766   2.4448   2.8823   3.6606   3.8292

     occupation numbers 
     1.0000   1.0000   1.0000   1.0000   0.0000   0.0000   0.0000   0.0000

          k =-0.3333 0.0000 0.0000 (  2774 PWs)   bands (ev):

   -18.8663  -8.9510  -8.8740  -7.2174   2.5705   2.8295   3.5909   3.8098

     occupation numbers 
     1.0000   1.0000   1.0000   1.0000   0.0000   0.0000   0.0000   0.0000

          k =-0.3333 0.0597 0.0000 (  2763 PWs)   bands (ev):

   -18.8286  -9.6315  -8.2213  -7.1767   2.4452   2.8824   3.6607   3.8295

     occupation numbers 
     1.0000   1.0000   1.0000   1.0000   0.0000   0.0000   0.0000   0.0000

          k =-0.3333 0.1193 0.0000 (  2759 PWs)   bands (ev):

   -18.7163 -10.3402  -7.6119  -7.0553   2.1168   3.0323   3.7319   3.8528

     occupation numbers 
     1.0000   1.0000   1.0000   1.0000   0.0000   0.0000   0.0000   0.0000

          k =-0.3333 0.1790 0.0000 (  2758 PWs)   bands (ev):

   -18.5315 -11.0129  -7.1553  -6.8562   1.6676   3.1814   3.5527   4.1521

     occupation numbers 
     1.0000   1.0000   1.0000   1.0000   0.0000   0.0000   0.0000   0.0000

          k =-0.2917 0.2088 0.0000 (  2758 PWs)   bands (ev):

   -18.6792 -10.7741  -7.0114  -6.7720   1.9204   2.8952   3.2254   3.9394

     occupation numbers 
     1.0000   1.0000   1.0000   1.0000   0.0000   0.0000   0.0000   0.0000

          k =-0.2917 0.2685 0.0000 (  2777 PWs)   bands (ev):

   -18.3814 -11.3706  -6.8161  -6.6848   1.3878   2.8979   3.6295   4.3924

     occupation numbers 
     1.0000   1.0000   1.0000   1.0000   0.0000   0.0000   0.0000   0.0000

          k =-0.2917 0.3281 0.0000 (  2779 PWs)   bands (ev):

   -18.0194 -11.8986  -7.1423  -6.2896   0.8514   2.9693   4.1891   4.9543

     occupation numbers 
     1.0000   1.0000   1.0000   1.0000   0.0000   0.0000   0.0000   0.0000

          k =-0.2917 0.3878 0.0000 (  2779 PWs)   bands (ev):

   -17.6032 -12.3455  -7.6980  -5.8366   0.3348   3.0150   4.8665   5.6209

     occupation numbers 
     1.0000   1.0000   1.0000   1.0000   0.0000   0.0000   0.0000   0.0000

          k =-0.2917 0.4474 0.0000 (  2793 PWs)   bands (ev):

   -17.1490 -12.6974  -8.4054  -5.3413  -0.1487   2.9637   5.6541   6.3806

     occupation numbers 
     1.0000   1.0000   1.0000   1.0000   0.0000   0.0000   0.0000   0.0000

          k =-0.2917 0.5071 0.0000 (  2809 PWs)   bands (ev):

   -16.6845 -12.9358  -9.1865  -4.8261  -0.5921   2.8448   6.5474   7.1893

     occupation numbers 
     1.0000   1.0000   1.0000   1.0000   0.0000   0.0000   0.0000   0.0000

          k =-0.2917 0.5668 0.0000 (  2806 PWs)   bands (ev):

   -16.2544 -13.0372  -9.9693  -4.3243  -0.9898   2.7150   7.5385   7.7950

     occupation numbers 
     1.0000   1.0000   1.0000   1.0000   0.0000   0.0000   0.0000   0.0000

          k =-0.2917 0.6264 0.0000 (  2807 PWs)   bands (ev):

   -15.9209 -12.9889 -10.6707  -3.8899  -1.3235   2.6123   7.7551   8.6039

     occupation numbers 
     1.0000   1.0000   1.0000   1.0000   0.0000   0.0000   0.0000   0.0000

          k =-0.2917 0.6861 0.0000 (  2801 PWs)   bands (ev):

   -15.7410 -12.8601 -11.1436  -3.6156  -1.5359   2.5567   7.5897   9.2961

     occupation numbers 
     1.0000   1.0000   1.0000   1.0000   0.0000   0.0000   0.0000   0.0000

          k =-0.2917 0.7457 0.0000 (  2801 PWs)   bands (ev):

   -15.7409 -12.8611 -11.1427  -3.6152  -1.5364   2.5566   7.5899   9.2960

     occupation numbers 
     1.0000   1.0000   1.0000   1.0000   0.0000   0.0000   0.0000   0.0000

          k =-0.2917 0.8054 0.0000 (  2807 PWs)   bands (ev):

   -15.9205 -12.9909 -10.6688  -3.8890  -1.3247   2.6118   7.7556   8.6037

     occupation numbers 
     1.0000   1.0000   1.0000   1.0000   0.0000   0.0000   0.0000   0.0000

          k =-0.2917 0.8651 0.0000 (  2806 PWs)   bands (ev):

   -16.2540 -13.0395  -9.9671  -4.3233  -0.9913   2.7142   7.5384   7.7955

     occupation numbers 
     1.0000   1.0000   1.0000   1.0000   0.0000   0.0000   0.0000   0.0000

          k =-0.2917-0.5071 0.0000 (  2809 PWs)   bands (ev):

   -16.6841 -12.9381  -9.1841  -4.8252  -0.5938   2.8435   6.5473   7.1895

     occupation numbers 
     1.0000   1.0000   1.0000   1.0000   0.0000   0.0000   0.0000   0.0000

          k =-0.2917-0.4474 0.0000 (  2793 PWs)   bands (ev):

   -17.1488 -12.6996  -8.4028  -5.3406  -0.1502   2.9619   5.6541   6.3807

     occupation numbers 
     1.0000   1.0000   1.0000   1.0000   0.0000   0.0000   0.0000   0.0000

          k =-0.2917-0.3878 0.0000 (  2779 PWs)   bands (ev):

   -17.6030 -12.3476  -7.6952  -5.8359   0.3333   3.0127   4.8665   5.9103

     occupation numbers 
     1.0000   1.0000   1.0000   1.0000   0.0000   0.0000   0.0000   0.0000

          k =-0.2917-0.3281 0.0000 (  2779 PWs)   bands (ev):

   -18.0193 -11.9006  -7.1394  -6.2891   0.8501   2.9668   4.1891   4.9542

     occupation numbers 
     1.0000   1.0000   1.0000   1.0000   0.0000   0.0000   0.0000   0.0000

          k =-0.2917-0.2685 0.0000 (  2777 PWs)   bands (ev):

   -18.3813 -11.3726  -6.8131  -6.6844   1.3867   2.8955   3.6295   4.3923

     occupation numbers 
     1.0000   1.0000   1.0000   1.0000   0.0000   0.0000   0.0000   0.0000

          k =-0.2917-0.2088 0.0000 (  2758 PWs)   bands (ev):

   -18.6791 -10.7762  -7.0111  -6.7690   1.9195   2.8934   3.2251   3.9393

     occupation numbers 
     1.0000   1.0000   1.0000   1.0000   0.0000   0.0000   0.0000   0.0000

          k =-0.2917-0.1491 0.0000 (  2759 PWs)   bands (ev):

   -18.9067 -10.1256  -7.2617  -7.0039   2.4110   2.7526   3.2310   3.5965

     occupation numbers 
     1.0000   1.0000   1.0000   1.0000   0.0000   0.0000   0.0000   0.0000

          k =-0.2917-0.0895 0.0000 (  2760 PWs)   bands (ev):

   -19.0602  -9.4384  -7.4601  -7.4314   2.5493   2.8093   3.3612   3.4244

     occupation numbers 
     1.0000   1.0000   1.0000   1.0000   0.0000   0.0000   0.0000   0.0000

          k =-0.2917-0.0298 0.0000 (  2760 PWs)   bands (ev):

   -19.1375  -8.7400  -8.0601  -7.5169   2.4408   3.0611   3.2189   3.4171

     occupation numbers 
     1.0000   1.0000   1.0000   1.0000   0.0000   0.0000   0.0000   0.0000

          k =-0.2917 0.0298 0.0000 (  2760 PWs)   bands (ev):

   -19.1375  -8.7376  -8.0626  -7.5169   2.4408   3.0612   3.2191   3.4172

     occupation numbers 
     1.0000   1.0000   1.0000   1.0000   0.0000   0.0000   0.0000   0.0000

          k =-0.2917 0.0895 0.0000 (  2760 PWs)   bands (ev):

   -19.0603  -9.4362  -7.4628  -7.4315   2.5494   2.8097   3.3613   3.4251

     occupation numbers 
     1.0000   1.0000   1.0000   1.0000   0.0000   0.0000   0.0000   0.0000

          k =-0.2917 0.1491 0.0000 (  2759 PWs)   bands (ev):

   -18.9067 -10.1234  -7.2619  -7.0068   2.4116   2.7529   3.2325   3.5966

     occupation numbers 
     1.0000   1.0000   1.0000   1.0000   0.0000   0.0000   0.0000   0.0000

          k =-0.2500 0.1790 0.0000 (  2755 PWs)   bands (ev):

   -19.0419  -9.8749  -7.4058  -6.5881   2.5440   2.6446   2.7918   3.4368

     occupation numbers 
     1.0000   1.0000   1.0000   1.0000   0.0000   0.0000   0.0000   0.0000

          k =-0.2500 0.2386 0.0000 (  2760 PWs)   bands (ev):

   -18.7717 -10.5055  -7.1036  -6.6191   2.1398   2.6123   3.0322   3.8067

     occupation numbers 
     1.0000   1.0000   1.0000   1.0000   0.0000   0.0000   0.0000   0.0000

          k =-0.2500 0.2983 0.0000 (  2775 PWs)   bands (ev):

   -18.4301 -11.0850  -6.9265  -6.7229   1.5830   2.6019   3.5328   4.3054

     occupation numbers 
     1.0000   1.0000   1.0000   1.0000   0.0000   0.0000   0.0000   0.0000

          k =-0.2500 0.3580 0.0000 (  2773 PWs)   bands (ev):

   -18.0227 -11.6023  -7.4621  -6.2704   1.0153   2.5398   4.1556   4.9171

     occupation numbers 
     1.0000   1.0000   1.0000   1.0000   0.0000   0.0000   0.0000   0.0000

          k =-0.2500 0.4176 0.0000 (  2797 PWs)   bands (ev):

   -17.5583 -12.0494  -8.1511  -5.7558   0.4536   2.3921   4.8901   5.6329

     occupation numbers 
     1.0000   1.0000   1.0000   1.0000   0.0000   0.0000   0.0000   0.0000

          k =-0.2500 0.4773 0.0000 (  2809 PWs)   bands (ev):

   -17.0517 -12.4207  -8.9161  -5.1923  -0.0959   2.1982   5.7334   6.7871

     occupation numbers 
     1.0000   1.0000   1.0000   1.0000   0.0000   0.0000   0.0000   0.0000

          k =-0.2500 0.5369 0.0000 (  2804 PWs)   bands (ev):

   -16.5283 -12.7119  -9.6832  -4.5991  -0.6331   2.0083   6.6816   7.2595

     occupation numbers 
     1.0000   1.0000   1.0000   1.0000   0.0000   0.0000   0.0000   0.0000

          k =-0.2500 0.5966 0.0000 (  2802 PWs)   bands (ev):

   -16.0352 -12.9200 -10.3730  -4.0067  -1.1541   1.8554   7.7251   7.7971

     occupation numbers 
     1.0000   1.0000   1.0000   1.0000   0.0000   0.0000   0.0000   0.0000

          k =-0.2500 0.6563 0.0000 (  2791 PWs)   bands (ev):

   -15.6561 -13.0435 -10.8797  -3.4805  -1.6222   1.7579   7.7931   8.8349

     occupation numbers 
     1.0000   1.0000   1.0000   1.0001   0.0000   0.0000   0.0000   0.0000

          k =-0.2500 0.7159 0.0000 (  2788 PWs)   bands (ev):

   -15.5077 -13.0844 -11.0721  -3.2233  -1.8573   1.7244   7.7340   9.7876

     occupation numbers 
     1.0000   1.0000   1.0000   1.0059   0.0000   0.0000   0.0000   0.0000

          k =-0.2500 0.7756 0.0000 (  2791 PWs)   bands (ev):

   -15.6558 -13.0449 -10.8784  -3.4797  -1.6233   1.7576   7.7935   8.8347

     occupation numbers 
     1.0000   1.0000   1.0000   1.0001   0.0000   0.0000   0.0000   0.0000

          k =-0.2500 0.8352 0.0000 (  2802 PWs)   bands (ev):

   -16.0348 -12.9221 -10.3709  -4.0058  -1.1555   1.8549   7.7250   7.7977

     occupation numbers 
     1.0000   1.0000   1.0000   1.0000   0.0000   0.0000   0.0000   0.0000

          k =-0.2500-0.5369 0.0000 (  2804 PWs)   bands (ev):

   -16.5280 -12.7142  -9.6809  -4.5983  -0.6345   2.0074   6.6815   7.2598

     occupation numbers 
     1.0000   1.0000   1.0000   1.0000   0.0000   0.0000   0.0000   0.0000

          k =-0.2500-0.4773 0.0000 (  2809 PWs)   bands (ev):

   -17.0514 -12.4229  -8.9135  -5.1916  -0.0973   2.1970   5.7334   6.4354

     occupation numbers 
     1.0000   1.0000   1.0000   1.0000   0.0000   0.0000   0.0000   0.0000

          k =-0.2500-0.4176 0.0000 (  2797 PWs)   bands (ev):

   -17.5581 -12.0516  -8.1484  -5.7552   0.4523   2.3904   4.8901   5.6329

     occupation numbers 
     1.0000   1.0000   1.0000   1.0000   0.0000   0.0000   0.0000   0.0000

          k =-0.2500-0.3580 0.0000 (  2773 PWs)   bands (ev):

   -18.0226 -11.6044  -7.4592  -6.2699   1.0141   2.5377   4.1556   4.9171

     occupation numbers 
     1.0000   1.0000   1.0000   1.0000   0.0000   0.0000   0.0000   0.0000

          k =-0.2500-0.2983 0.0000 (  2775 PWs)   bands (ev):

   -18.4301 -11.0872  -6.9234  -6.7225   1.5820   2.5994   3.5328   4.3054

     occupation numbers 
     1.0000   1.0000   1.0000   1.0000   0.0000   0.0000   0.0000   0.0000

          k =-0.2500-0.2386 0.0000 (  2760 PWs)   bands (ev):

   -18.7717 -10.5076  -7.1033  -6.6159   2.1389   2.6098   3.0322   3.8065

     occupation numbers 
     1.0000   1.0000   1.0000   1.0000   0.0000   0.0000   0.0000   0.0000

          k =-0.2500-0.1790 0.0000 (  2755 PWs)   bands (ev):

   -19.0419  -9.8771  -7.4056  -6.5849   2.5432   2.6441   2.7903   3.4366

     occupation numbers 
     1.0000   1.0000   1.0000   1.0000   0.0000   0.0000   0.0000   0.0000

          k =-0.2500-0.1193 0.0000 (  2747 PWs)   bands (ev):

   -19.2370  -9.2115  -7.6245  -6.8230   2.2971   2.9353   2.9545   3.3174

     occupation numbers 
     1.0000   1.0000   1.0000   1.0000   0.0000   0.0000   0.0000   0.0000

          k =-0.2500-0.0597 0.0000 (  2761 PWs)   bands (ev):

   -19.3549  -8.5358  -7.7571  -7.2709   2.1315   2.8732   3.0720   3.4418

     occupation numbers 
     1.0000   1.0000   1.0000   1.0000   0.0000   0.0000   0.0000   0.0000

          k =-0.2500 0.0000 0.0000 (  2772 PWs)   bands (ev):

   -19.3944  -7.9675  -7.8015  -7.7694   2.0756   2.8291   3.0541   3.6022

     occupation numbers 
     1.0000   1.0000   1.0000   1.0000   0.0000   0.0000   0.0000   0.0000

          k =-0.2500 0.0597 0.0000 (  2761 PWs)   bands (ev):

   -19.3549  -8.5334  -7.7571  -7.2738   2.1316   2.8731   3.0724   3.4427

     occupation numbers 
     1.0000   1.0000   1.0000   1.0000   0.0000   0.0000   0.0000   0.0000

          k =-0.2500 0.1193 0.0000 (  2747 PWs)   bands (ev):

   -19.2370  -9.2092  -7.6246  -6.8260   2.2973   2.9353   2.9562   3.3180

     occupation numbers 
     1.0000   1.0000   1.0000   1.0000   0.0000   0.0000   0.0000   0.0000

          k =-0.2083 0.1491 0.0000 (  2748 PWs)   bands (ev):

   -19.3571  -8.9592  -7.7536  -6.3833   2.1266   2.4528   2.8269   3.1915

     occupation numbers 
     1.0000   1.0000   1.0000   1.0000   0.0000   0.0000   0.0000   0.0000

          k =-0.2083 0.2088 0.0000 (  2756 PWs)   bands (ev):

   -19.1202  -9.6057  -7.4850  -6.4099   2.2737   2.5157   2.8015   3.3807

     occupation numbers 
     1.0000   1.0000   1.0000   1.0000   0.0000   0.0000   0.0000   0.0000

          k =-0.2083 0.2685 0.0000 (  2766 PWs)   bands (ev):

   -18.8078 -10.2209  -7.1317  -6.7030   2.1920   2.3144   2.9581   3.7517

     occupation numbers 
     1.0000   1.0000   1.0000   1.0000   0.0000   0.0000   0.0000   0.0000

          k =-0.2083 0.3281 0.0000 (  2776 PWs)   bands (ev):

   -18.4233 -10.7913  -7.2183  -6.6983   1.7319   2.0462   3.5259   4.2967

     occupation numbers 
     1.0000   1.0000   1.0000   1.0000   0.0000   0.0000   0.0000   0.0000

          k =-0.2083 0.3878 0.0000 (  2785 PWs)   bands (ev):

   -17.9719 -11.3103  -7.8843  -6.1911   1.1249   1.8261   4.2059   4.9591

     occupation numbers 
     1.0000   1.0000   1.0000   1.0000   0.0000   0.0000   0.0000   0.0000

          k =-0.2083 0.4474 0.0000 (  2796 PWs)   bands (ev):

   -17.4621 -11.7782  -8.6253  -5.6188   0.5083   1.5712   4.9964   5.7241

     occupation numbers 
     1.0000   1.0000   1.0000   1.0000   0.0000   0.0000   0.0000   0.0000

          k =-0.2083 0.5071 0.0000 (  2806 PWs)   bands (ev):

   -16.9075 -12.2034  -9.3666  -4.9932  -0.1164   1.3270   5.8953   6.5677

     occupation numbers 
     1.0000   1.0000   1.0000   1.0000   0.0000   0.0000   0.0000   0.0000

          k =-0.2083 0.5668 0.0000 (  2802 PWs)   bands (ev):

   -16.3339 -12.6007 -10.0301  -4.3300  -0.7513   1.1247   6.8977   7.4027

     occupation numbers 
     1.0000   1.0000   1.0000   1.0000   0.0000   0.0000   0.0000   0.0000

          k =-0.2083 0.6264 0.0000 (  2804 PWs)   bands (ev):

   -15.7956 -12.9747 -10.5317  -3.6555  -1.3913   0.9821   7.8976   7.9913

     occupation numbers 
     1.0000   1.0000   1.0000   1.0000   0.0000   0.0000   0.0000   0.0000

          k =-0.2083 0.6861 0.0000 (  2791 PWs)   bands (ev):

   -15.4211 -13.2534 -10.7998  -3.0506  -1.9737   0.9089   7.9480   9.1346

     occupation numbers 
     1.0000   1.0000   1.0000   1.0389   0.0005   0.0000   0.0000   0.0000

          k =-0.2083 0.7457 0.0000 (  2791 PWs)   bands (ev):

   -15.4210 -13.2540 -10.7993  -3.0499  -1.9745   0.9088   7.9482   9.1344

     occupation numbers 
     1.0000   1.0000   1.0000   1.0391   0.0005   0.0000   0.0000   0.0000

          k =-0.2083 0.8054 0.0000 (  2804 PWs)   bands (ev):

   -15.7952 -12.9763 -10.5303  -3.6547  -1.3924   0.9818   7.8981   7.9912

     occupation numbers 
     1.0000   1.0000   1.0000   1.0000   0.0000   0.0000   0.0000   0.0000

          k =-0.2083-0.5668 0.0000 (  2802 PWs)   bands (ev):

   -16.3336 -12.6027 -10.0280  -4.3293  -0.7525   1.1242   6.8976   7.4030

     occupation numbers 
     1.0000   1.0000   1.0000   1.0000   0.0000   0.0000   0.0000   0.0000

          k =-0.2083-0.5071 0.0000 (  2806 PWs)   bands (ev):

   -16.9073 -12.2056  -9.3641  -4.9926  -0.1177   1.3262   5.8953   6.5678

     occupation numbers 
     1.0000   1.0000   1.0000   1.0000   0.0000   0.0000   0.0000   0.0000

          k =-0.2083-0.4474 0.0000 (  2796 PWs)   bands (ev):

   -17.4619 -11.7805  -8.6226  -5.6183   0.5071   1.5701   4.9964   5.7241

     occupation numbers 
     1.0000   1.0000   1.0000   1.0000   0.0000   0.0000   0.0000   0.0000

          k =-0.2083-0.3878 0.0000 (  2785 PWs)   bands (ev):

   -17.9718 -11.3125  -7.8814  -6.1907   1.1238   1.8246   4.2058   4.9591

     occupation numbers 
     1.0000   1.0000   1.0000   1.0000   0.0000   0.0000   0.0000   0.0000

          k =-0.2083-0.3281 0.0000 (  2776 PWs)   bands (ev):

   -18.4232 -10.7935  -7.2152  -6.6980   1.7309   2.0442   3.5259   4.2966

     occupation numbers 
     1.0000   1.0000   1.0000   1.0000   0.0000   0.0000   0.0000   0.0000

          k =-0.2083-0.2685 0.0000 (  2766 PWs)   bands (ev):

   -18.8077 -10.2232  -7.1315  -6.6997   2.1895   2.3136   2.9581   3.7516

     occupation numbers 
     1.0000   1.0000   1.0000   1.0000   0.0000   0.0000   0.0000   0.0000

          k =-0.2083-0.2088 0.0000 (  2756 PWs)   bands (ev):

   -19.1202  -9.6081  -7.4849  -6.4065   2.2712   2.5156   2.8011   3.3801

     occupation numbers 
     1.0000   1.0000   1.0000   1.0000   0.0000   0.0000   0.0000   0.0000

          k =-0.2083-0.1491 0.0000 (  2748 PWs)   bands (ev):

   -19.3571  -8.9616  -7.7535  -6.3800   2.1263   2.4506   2.8270   3.1915

     occupation numbers 
     1.0000   1.0000   1.0000   1.0000   0.0000   0.0000   0.0000   0.0000

          k =-0.2083-0.0895 0.0000 (  2750 PWs)   bands (ev):

   -19.5161  -8.3076  -7.9342  -6.6096   1.9053   2.6447   2.6551   3.0002

     occupation numbers 
     1.0000   1.0000   1.0000   1.0000   0.0000   0.0000   0.0000   0.0000

          k =-0.2083-0.0298 0.0000 (  2757 PWs)   bands (ev):

   -19.5960  -8.0251  -7.6995  -7.0185   1.7918   2.5410   2.7475   3.1065

     occupation numbers 
     1.0000   1.0000   1.0000   1.0000   0.0000   0.0000   0.0000   0.0000

          k =-0.2083 0.0298 0.0000 (  2757 PWs)   bands (ev):

   -19.5960  -8.0252  -7.6972  -7.0211   1.7918   2.5410   2.7478   3.1075

     occupation numbers 
     1.0000   1.0000   1.0000   1.0000   0.0000   0.0000   0.0000   0.0000

          k =-0.2083 0.0895 0.0000 (  2750 PWs)   bands (ev):

   -19.5161  -8.3050  -7.9343  -6.6128   1.9054   2.6447   2.6570   3.0004

     occupation numbers 
     1.0000   1.0000   1.0000   1.0000   0.0000   0.0000   0.0000   0.0000

          k =-0.1667 0.1193 0.0000 (  2756 PWs)   bands (ev):

   -19.6195  -8.0649  -8.0463  -6.1590   1.7633   2.1123   2.4972   2.8053

     occupation numbers 
     1.0000   1.0000   1.0000   1.0000   0.0000   0.0000   0.0000   0.0000

          k =-0.1667 0.1790 0.0000 (  2750 PWs)   bands (ev):

   -19.4192  -8.7003  -7.8169  -6.1966   1.9186   2.0764   2.7505   3.0905

     occupation numbers 
     1.0000   1.0000   1.0000   1.0000   0.0000   0.0000   0.0000   0.0000

          k =-0.1667 0.2386 0.0000 (  2763 PWs)   bands (ev):

   -19.1408  -9.3331  -7.4988  -6.4846   1.7830   2.4662   2.8927   3.4034

     occupation numbers 
     1.0000   1.0000   1.0000   1.0000   0.0000   0.0000   0.0000   0.0000

          k =-0.1667 0.2983 0.0000 (  2774 PWs)   bands (ev):

   -18.7867  -9.9424  -7.0953  -6.9825   1.5832   2.4280   2.9785   3.7715

     occupation numbers 
     1.0000   1.0000   1.0000   1.0000   0.0000   0.0000   0.0000   0.0000

          k =-0.1667 0.3580 0.0000 (  2783 PWs)   bands (ev):

   -18.3602 -10.5191  -7.6226  -6.6109   1.3134   1.8097   3.6031   4.3666

     occupation numbers 
     1.0000   1.0000   1.0000   1.0000   0.0000   0.0000   0.0000   0.0000

          k =-0.1667 0.4176 0.0000 (  2798 PWs)   bands (ev):

   -17.8666 -11.0657  -8.3320  -6.0519   1.0101   1.1534   4.3392   5.0813

     occupation numbers 
     1.0000   1.0000   1.0000   1.0000   0.0000   0.0000   0.0000   0.0000

          k =-0.1667 0.4773 0.0000 (  2798 PWs)   bands (ev):

   -17.3140 -11.5960  -9.0368  -5.4264   0.4730   0.7169   5.1857   5.8961

     occupation numbers 
     1.0000   1.0000   1.0000   1.0000   0.0000   0.0000   0.0000   0.0000

          k =-0.1667 0.5369 0.0000 (  2806 PWs)   bands (ev):

   -16.7164 -12.1334  -9.6620  -4.7450  -0.2303   0.4659   6.1398   6.7807

     occupation numbers 
     1.0000   1.0000   1.0000   1.0000   0.0000   0.0000   0.0000   0.0000

          k =-0.1667 0.5966 0.0000 (  2800 PWs)   bands (ev):

   -16.1022 -12.6901 -10.1403  -4.0212  -0.9563   0.2764   7.1950   7.6287

     occupation numbers 
     1.0000   1.0000   1.0000   1.0000   0.0000   0.0000   0.0000   0.0000

          k =-0.1667 0.6563 0.0000 (  2795 PWs)   bands (ev):

   -15.5467 -13.2129 -10.4321  -3.2747  -1.6984   0.1593   8.1116   8.3353

     occupation numbers 
     1.0000   1.0000   1.0000   1.0028   0.0000   0.0000   0.0000   0.0000

          k =-0.1667 0.7159 0.0000 (  2786 PWs)   bands (ev):

   -15.2785 -13.4720 -10.5286  -2.6606  -2.3102   0.1198   8.1950   9.3969

     occupation numbers 
     1.0000   1.0000   1.0000   0.8302   0.0798   0.0000   0.0000   0.0000

          k =-0.1667 0.7756 0.0000 (  2795 PWs)   bands (ev):

   -15.5465 -13.2138 -10.4313  -3.2741  -1.6992   0.1592   8.1120   8.3352

     occupation numbers 
     1.0000   1.0000   1.0000   1.0028   0.0000   0.0000   0.0000   0.0000

          k =-0.1667-0.5966 0.0000 (  2800 PWs)   bands (ev):

   -16.1020 -12.6916 -10.1389  -4.0206  -0.9573   0.2761   7.1950   7.6291

     occupation numbers 
     1.0000   1.0000   1.0000   1.0000   0.0000   0.0000   0.0000   0.0000

          k =-0.1667-0.5369 0.0000 (  2806 PWs)   bands (ev):

   -16.7162 -12.1353  -9.6600  -4.7445  -0.2313   0.4654   6.1397   6.7809

     occupation numbers 
     1.0000   1.0000   1.0000   1.0000   0.0000   0.0000   0.0000   0.0000

          k =-0.1667-0.4773 0.0000 (  2798 PWs)   bands (ev):

   -17.3139 -11.5982  -9.0343  -5.4260   0.4720   0.7162   5.1857   5.8960

     occupation numbers 
     1.0000   1.0000   1.0000   1.0000   0.0000   0.0000   0.0000   0.0000

          k =-0.1667-0.4176 0.0000 (  2798 PWs)   bands (ev):

   -17.8666 -11.0679  -8.3292  -6.0516   1.0090   1.1525   4.3392   5.0813

     occupation numbers 
     1.0000   1.0000   1.0000   1.0000   0.0000   0.0000   0.0000   0.0000

          k =-0.1667-0.3580 0.0000 (  2783 PWs)   bands (ev):

   -18.3602 -10.5214  -7.6195  -6.6107   1.3120   1.8088   3.6030   4.3665

     occupation numbers 
     1.0000   1.0000   1.0000   1.0000   0.0000   0.0000   0.0000   0.0000

          k =-0.1667-0.2983 0.0000 (  2774 PWs)   bands (ev):

   -18.7867  -9.9448  -7.0951  -6.9792   1.5814   2.4272   2.9785   3.7714

     occupation numbers 
     1.0000   1.0000   1.0000   1.0000   0.0000   0.0000   0.0000   0.0000

          k =-0.1667-0.2386 0.0000 (  2763 PWs)   bands (ev):

   -19.1408  -9.3356  -7.4987  -6.4811   1.7808   2.4662   2.8924   3.4029

     occupation numbers 
     1.0000   1.0000   1.0000   1.0000   0.0000   0.0000   0.0000   0.0000

          k =-0.1667-0.1790 0.0000 (  2750 PWs)   bands (ev):

   -19.4192  -8.7028  -7.8168  -6.1929   1.9161   2.0763   2.7505   3.0906

     occupation numbers 
     1.0000   1.0000   1.0000   1.0000   0.0000   0.0000   0.0000   0.0000

          k =-0.1667-0.1193 0.0000 (  2756 PWs)   bands (ev):

   -19.6195  -8.0676  -8.0462  -6.1555   1.7632   2.1099   2.4972   2.8053

     occupation numbers 
     1.0000   1.0000   1.0000   1.0000   0.0000   0.0000   0.0000   0.0000

          k =-0.1667-0.0597 0.0000 (  2758 PWs)   bands (ev):

   -19.7403  -8.1847  -7.4753  -6.3489   1.5922   2.3353   2.3505   2.6565

     occupation numbers 
     1.0000   1.0000   1.0000   1.0000   0.0000   0.0000   0.0000   0.0000

          k =-0.1667 0.0000 0.0000 (  2763 PWs)   bands (ev):

   -19.7806  -8.2310  -7.1210  -6.5729   1.5345   2.2805   2.4784   2.7806

     occupation numbers 
     1.0000   1.0000   1.0000   1.0000   0.0000   0.0000   0.0000   0.0000

          k =-0.1667 0.0597 0.0000 (  2758 PWs)   bands (ev):

   -19.7403  -8.1848  -7.4727  -6.3520   1.5922   2.3352   2.3527   2.6567

     occupation numbers 
     1.0000   1.0000   1.0000   1.0000   0.0000   0.0000   0.0000   0.0000

          k =-0.1250 0.0895 0.0000 (  2750 PWs)   bands (ev):

   -19.8261  -8.2782  -7.2584  -5.9037   1.4779   1.7719   2.2127   2.4993

     occupation numbers 
     1.0000   1.0000   1.0000   1.0000   0.0000   0.0000   0.0000   0.0000

          k =-0.1250 0.1491 0.0000 (  2752 PWs)   bands (ev):

   -19.6642  -8.0916  -7.8320  -5.9832   1.5826   1.7176   2.4322   2.7364

     occupation numbers 
     1.0000   1.0000   1.0000   1.0000   0.0000   0.0000   0.0000   0.0000

          k =-0.1250 0.2088 0.0000 (  2765 PWs)   bands (ev):

   -19.4228  -8.4541  -7.8137  -6.2839   1.4192   2.0585   2.7461   3.0838

     occupation numbers 
     1.0000   1.0000   1.0000   1.0000   0.0000   0.0000   0.0000   0.0000

          k =-0.1250 0.2685 0.0000 (  2771 PWs)   bands (ev):

   -19.1033  -9.0840  -7.4469  -6.7723   1.1953   2.5145   2.9542   3.4509

     occupation numbers 
     1.0000   1.0000   1.0000   1.0000   0.0000   0.0000   0.0000   0.0000

          k =-0.1250 0.3281 0.0000 (  2791 PWs)   bands (ev):

   -18.7082  -9.7057  -7.3867  -6.9946   0.8976   2.4574   3.0829   3.8652

     occupation numbers 
     1.0000   1.0000   1.0000   1.0000   0.0000   0.0000   0.0000   0.0000

          k =-0.1250 0.3878 0.0000 (  2798 PWs)   bands (ev):

   -18.2410 -10.3195  -8.0587  -6.4615   0.5586   1.7907   3.7636   4.5167

     occupation numbers 
     1.0000   1.0000   1.0000   1.0000   0.0000   0.0000   0.0000   0.0000

          k =-0.1250 0.4474 0.0000 (  2806 PWs)   bands (ev):

   -17.7071 -10.9406  -8.7177  -5.8541   0.2224   1.0780   4.5559   5.2854

     occupation numbers 
     1.0000   1.0000   1.0000   1.0000   0.0000   0.0000   0.0000   0.0000

          k =-0.1250 0.5071 0.0000 (  2797 PWs)   bands (ev):

   -17.1149 -11.5913  -9.2958  -5.1801  -0.0756   0.3320   5.4580   6.1503

     occupation numbers 
     1.0000   1.0000   1.0000   1.0000   0.0000   0.0000   0.0000   0.0000

          k =-0.1250 0.5668 0.0000 (  2794 PWs)   bands (ev):

   -16.4799 -12.2790  -9.7424  -4.4501  -0.4431  -0.3130   6.4663   7.0766

     occupation numbers 
     1.0000   1.0000   1.0000   1.0000   0.0000   0.0000   0.0000   0.0000

          k =-0.1250 0.6264 0.0000 (  2798 PWs)   bands (ev):

   -15.8393 -12.9677 -10.0375  -3.6764  -1.2425  -0.4768   7.5724   7.9417

     occupation numbers 
     1.0000   1.0000   1.0000   1.0000   0.0000   0.0000   0.0000   0.0000

          k =-0.1250 0.6861 0.0000 (  2793 PWs)   bands (ev):

   -15.3232 -13.5134 -10.1823  -2.8737  -2.0568  -0.5601   8.4133   8.7516

     occupation numbers 
     1.0000   1.0000   1.0000   1.0830   0.0022   0.0000   0.0000   0.0000

          k =-0.1250 0.7457 0.0000 (  2793 PWs)   bands (ev):

   -15.3231 -13.5138 -10.1820  -2.8732  -2.0574  -0.5601   8.4135   8.7515

     occupation numbers 
     1.0000   1.0000   1.0000   1.0829   0.0022   0.0000   0.0000   0.0000

          k =-0.1250-0.6264 0.0000 (  2798 PWs)   bands (ev):

   -15.8391 -12.9685 -10.0367  -3.6760  -1.2432  -0.4770   7.5724   7.9420

     occupation numbers 
     1.0000   1.0000   1.0000   1.0000   0.0000   0.0000   0.0000   0.0000

          k =-0.1250-0.5668 0.0000 (  2794 PWs)   bands (ev):

   -16.4797 -12.2803  -9.7410  -4.4497  -0.4438  -0.3133   6.4662   7.0767

     occupation numbers 
     1.0000   1.0000   1.0000   1.0000   0.0000   0.0000   0.0000   0.0000

          k =-0.1250-0.5071 0.0000 (  2797 PWs)   bands (ev):

   -17.1148 -11.5930  -9.2938  -5.1798  -0.0761   0.3312   5.4580   6.1504

     occupation numbers 
     1.0000   1.0000   1.0000   1.0000   0.0000   0.0000   0.0000   0.0000

          k =-0.1250-0.4474 0.0000 (  2806 PWs)   bands (ev):

   -17.7071 -10.9427  -8.7152  -5.8538   0.2218   1.0773   4.5559   5.2855

     occupation numbers 
     1.0000   1.0000   1.0000   1.0000   0.0000   0.0000   0.0000   0.0000

          k =-0.1250-0.3878 0.0000 (  2798 PWs)   bands (ev):

   -18.2410 -10.3218  -8.0558  -6.4613   0.5577   1.7900   3.7636   4.5167

     occupation numbers 
     1.0000   1.0000   1.0000   1.0000   0.0000   0.0000   0.0000   0.0000

          k =-0.1250-0.3281 0.0000 (  2791 PWs)   bands (ev):

   -18.7082  -9.7082  -7.3836  -6.9944   0.8964   2.4568   3.0829   3.8652

     occupation numbers 
     1.0000   1.0000   1.0000   1.0000   0.0000   0.0000   0.0000   0.0000

          k =-0.1250-0.2685 0.0000 (  2771 PWs)   bands (ev):

   -19.1032  -9.0866  -7.4467  -6.7688   1.1937   2.5145   2.9540   3.4512

     occupation numbers 
     1.0000   1.0000   1.0000   1.0000   0.0000   0.0000   0.0000   0.0000

          k =-0.1250-0.2088 0.0000 (  2765 PWs)   bands (ev):

   -19.4227  -8.4568  -7.8136  -6.2802   1.4172   2.0585   2.7461   3.0838

     occupation numbers 
     1.0000   1.0000   1.0000   1.0000   0.0000   0.0000   0.0000   0.0000

          k =-0.1250-0.1491 0.0000 (  2752 PWs)   bands (ev):

   -19.6642  -8.0916  -7.8348  -5.9795   1.5803   1.7176   2.4322   2.7364

     occupation numbers 
     1.0000   1.0000   1.0000   1.0000   0.0000   0.0000   0.0000   0.0000

          k =-0.1250-0.0895 0.0000 (  2750 PWs)   bands (ev):

   -19.8261  -8.2782  -7.2611  -5.9003   1.4778   1.7695   2.2128   2.4994

     occupation numbers 
     1.0000   1.0000   1.0000   1.0000   0.0000   0.0000   0.0000   0.0000

          k =-0.1250-0.0298 0.0000 (  2735 PWs)   bands (ev):

   -19.9072  -8.3718  -6.8377  -5.9885   1.3619   2.0328   2.1017   2.3399

     occupation numbers 
     1.0000   1.0000   1.0000   1.0000   0.0000   0.0000   0.0000   0.0000

          k =-0.1250 0.0298 0.0000 (  2735 PWs)   bands (ev):

   -19.9072  -8.3718  -6.8360  -5.9904   1.3619   2.0352   2.1017   2.3389

     occupation numbers 
     1.0000   1.0000   1.0000   1.0000   0.0000   0.0000   0.0000   0.0000

          k =-0.0833 0.0597 0.0000 (  2732 PWs)   bands (ev):

   -19.9748  -8.4460  -6.6540  -5.5858   1.2747   1.4394   2.0060   2.2407

     occupation numbers 
     1.0000   1.0000   1.0000   1.0000   0.0000   0.0000   0.0000   0.0000

          k =-0.0833 0.1193 0.0000 (  2746 PWs)   bands (ev):

   -19.8526  -8.3046  -7.0777  -5.7577   1.2901   1.4493   2.1736   2.4670

     occupation numbers 
     1.0000   1.0000   1.0000   1.0000   0.0000   0.0000   0.0000   0.0000

          k =-0.0833 0.1790 0.0000 (  2769 PWs)   bands (ev):

   -19.6498  -8.0700  -7.6354  -6.1038   1.1375   1.7359   2.4496   2.7593

     occupation numbers 
     1.0000   1.0000   1.0000   1.0000   0.0000   0.0000   0.0000   0.0000

          k =-0.0833 0.2386 0.0000 (  2778 PWs)   bands (ev):

   -19.3675  -8.2551  -7.7442  -6.6004   0.9197   2.1346   2.8172   3.1611

     occupation numbers 
     1.0000   1.0000   1.0000   1.0000   0.0000   0.0000   0.0000   0.0000

          k =-0.0833 0.2983 0.0000 (  2781 PWs)   bands (ev):

   -19.0076  -8.9032  -7.3298  -7.1953   0.6174   2.6461   2.9706   3.5148

     occupation numbers 
     1.0000   1.0000   1.0000   1.0000   0.0000   0.0000   0.0000   0.0000

          k =-0.0833 0.3580 0.0000 (  2804 PWs)   bands (ev):

   -18.5726  -9.5727  -7.8281  -6.8306   0.2585   2.3767   3.2706   4.0380

     occupation numbers 
     1.0000   1.0000   1.0000   1.0000   0.0000   0.0000   0.0000   0.0000

          k =-0.0833 0.4176 0.0000 (  2806 PWs)   bands (ev):

   -18.0663 -10.2738  -8.4356  -6.2516  -0.1115   1.6559   4.0077   4.7496

     occupation numbers 
     1.0000   1.0000   1.0000   1.0000   0.0000   0.0000   0.0000   0.0000

          k =-0.0833 0.4773 0.0000 (  2804 PWs)   bands (ev):

   -17.4945 -11.0192  -8.9631  -5.5996  -0.4525   0.8877   4.8559   5.5726

     occupation numbers 
     1.0000   1.0000   1.0000   1.0000   0.0000   0.0000   0.0000   0.0000

          k =-0.0833 0.5369 0.0000 (  2800 PWs)   bands (ev):

   -16.8667 -11.8045  -9.3780  -4.8830  -0.7372   0.0843   5.8129   6.4869

     occupation numbers 
     1.0000   1.0000   1.0000   1.0000   0.0000   0.0000   0.0000   0.0000

          k =-0.0833 0.5966 0.0000 (  2802 PWs)   bands (ev):

   -16.2025 -12.5986  -9.6710  -4.1127  -0.9490  -0.7457   6.8739   7.4526

     occupation numbers 
     1.0000   1.0000   1.0000   1.0000   0.0000   0.0000   0.0000   0.0000

          k =-0.0833 0.6563 0.0000 (  2794 PWs)   bands (ev):

   -15.5616 -13.3253  -9.8443  -3.3041  -1.5896  -1.0788   8.0275   8.3250

     occupation numbers 
     1.0000   1.0000   1.0000   1.0018   0.0000   0.0000   0.0000   0.0000

          k =-0.0833 0.7159 0.0000 (  2798 PWs)   bands (ev):

   -15.2120 -13.7051  -9.9016  -2.5847  -2.3208  -1.1225   8.6988   9.1365

     occupation numbers 
     1.0000   1.0000   1.0000   0.6317   0.0894   0.0000   0.0000   0.0000

          k =-0.0833-0.6563 0.0000 (  2794 PWs)   bands (ev):

   -15.5615 -13.3257  -9.8440  -3.3038  -1.5900  -1.0789   8.0274   8.3252

     occupation numbers 
     1.0000   1.0000   1.0000   1.0018   0.0000   0.0000   0.0000   0.0000

          k =-0.0833-0.5966 0.0000 (  2802 PWs)   bands (ev):

   -16.2024 -12.5992  -9.6703  -4.1124  -0.9491  -0.7462   6.8739   7.4527

     occupation numbers 
     1.0000   1.0000   1.0000   1.0000   0.0000   0.0000   0.0000   0.0000

          k =-0.0833-0.5369 0.0000 (  2800 PWs)   bands (ev):

   -16.8666 -11.8055  -9.3768  -4.8827  -0.7374   0.0838   5.8129   6.4870

     occupation numbers 
     1.0000   1.0000   1.0000   1.0000   0.0000   0.0000   0.0000   0.0000

          k =-0.0833-0.4773 0.0000 (  2804 PWs)   bands (ev):

   -17.4945 -11.0207  -8.9614  -5.5994  -0.4529   0.8872   4.8559   5.5726

     occupation numbers 
     1.0000   1.0000   1.0000   1.0000   0.0000   0.0000   0.0000   0.0000

          k =-0.0833-0.4176 0.0000 (  2806 PWs)   bands (ev):

   -18.0663 -10.2757  -8.4334  -6.2515  -0.1120   1.6554   4.0077   5.0446

     occupation numbers 
     1.0000   1.0000   1.0000   1.0000   0.0000   0.0000   0.0000   0.0000

          k =-0.0833-0.3580 0.0000 (  2804 PWs)   bands (ev):

   -18.5726  -9.5750  -7.8253  -6.8305   0.2578   2.3763   3.2706   4.0379

     occupation numbers 
     1.0000   1.0000   1.0000   1.0000   0.0000   0.0000   0.0000   0.0000

          k =-0.0833-0.2983 0.0000 (  2781 PWs)   bands (ev):

   -19.0076  -8.9057  -7.3297  -7.1922   0.6165   2.6461   2.9703   3.5146

     occupation numbers 
     1.0000   1.0000   1.0000   1.0000   0.0000   0.0000   0.0000   0.0000

          k =-0.0833-0.2386 0.0000 (  2778 PWs)   bands (ev):

   -19.3675  -8.2578  -7.7441  -6.5970   0.9184   2.1346   2.8173   3.1611

     occupation numbers 
     1.0000   1.0000   1.0000   1.0000   0.0000   0.0000   0.0000   0.0000

          k =-0.0833-0.1790 0.0000 (  2769 PWs)   bands (ev):

   -19.6498  -8.0700  -7.6382  -6.1003   1.1359   1.7359   2.4496   2.7593

     occupation numbers 
     1.0000   1.0000   1.0000   1.0000   0.0000   0.0000   0.0000   0.0000

          k =-0.0833-0.1193 0.0000 (  2746 PWs)   bands (ev):

   -19.8526  -8.3045  -7.0804  -5.7543   1.2881   1.4493   2.1736   2.4671

     occupation numbers 
     1.0000   1.0000   1.0000   1.0000   0.0000   0.0000   0.0000   0.0000

          k =-0.0833-0.0597 0.0000 (  2732 PWs)   bands (ev):

   -19.9748  -8.4460  -6.6559  -5.5834   1.2747   1.4376   2.0060   2.2415

     occupation numbers 
     1.0000   1.0000   1.0000   1.0000   0.0000   0.0000   0.0000   0.0000

          k =-0.0833 0.0000 0.0000 (  2733 PWs)   bands (ev):

   -20.0155  -8.4932  -6.4857  -5.5454   1.2161   1.5619   1.9500   2.0078

     occupation numbers 
     1.0000   1.0000   1.0000   1.0000   0.0000   0.0000   0.0000   0.0000

          k =-0.0417 0.0298 0.0000 (  2731 PWs)   bands (ev):

   -20.0644  -8.5474  -6.3343  -5.2477   1.1383   1.1552   1.8813   1.9054

     occupation numbers 
     1.0000   1.0000   1.0000   1.0000   0.0000   0.0000   0.0000   0.0000

          k =-0.0417 0.0895 0.0000 (  2745 PWs)   bands (ev):

   -19.9827  -8.4526  -6.5607  -5.4914   1.0725   1.2702   1.9937   2.2788

     occupation numbers 
     1.0000   1.0000   1.0000   1.0000   0.0000   0.0000   0.0000   0.0000

          k =-0.0417 0.1491 0.0000 (  2761 PWs)   bands (ev):

   -19.8197  -8.2635  -6.9774  -5.9159   0.9666   1.4983   2.2174   2.5202

     occupation numbers 
     1.0000   1.0000   1.0000   1.0000   0.0000   0.0000   0.0000   0.0000

          k =-0.0417 0.2088 0.0000 (  2774 PWs)   bands (ev):

   -19.5762  -7.9816  -7.5294  -6.4517   0.7828   1.8391   2.5482   2.8639

     occupation numbers 
     1.0000   1.0000   1.0000   1.0000   0.0000   0.0000   0.0000   0.0000

          k =-0.0417 0.2685 0.0000 (  2780 PWs)   bands (ev):

   -19.2538  -8.1698  -7.6089  -7.0441   0.5013   2.2933   2.9546   3.3208

     occupation numbers 
     1.0000   1.0000   1.0000   1.0000   0.0000   0.0000   0.0000   0.0000

          k =-0.0417 0.3281 0.0000 (  2794 PWs)   bands (ev):

   -18.8544  -8.8752  -7.6437  -7.1487   0.1435   2.8578   2.8611   3.6643

     occupation numbers 
     1.0000   1.0000   1.0000   1.0000   0.0000   0.0000   0.0000   0.0000

          k =-0.0417 0.3878 0.0000 (  2806 PWs)   bands (ev):

   -18.3809  -9.6394  -8.2036  -6.6052  -0.2455   2.1691   3.5420   4.2954

     occupation numbers 
     1.0000   1.0000   1.0000   1.0000   0.0000   0.0000   0.0000   0.0000

          k =-0.0417 0.4474 0.0000 (  2804 PWs)   bands (ev):

   -17.8376 -10.4562  -8.6893  -5.9837  -0.6204   1.4004   4.3352   5.0662

     occupation numbers 
     1.0000   1.0000   1.0000   1.0000   0.0000   0.0000   0.0000   0.0000

          k =-0.0417 0.5071 0.0000 (  2812 PWs)   bands (ev):

   -17.2312 -11.3082  -9.0836  -5.2918  -0.9477   0.5879   5.2387   5.9417

     occupation numbers 
     1.0000   1.0000   1.0000   1.0000   0.0000   0.0000   0.0000   0.0000

          k =-0.0417 0.5668 0.0000 (  2802 PWs)   bands (ev):

   -16.5735 -12.1674  -9.3805  -4.5391  -1.2059  -0.2555   6.2495   6.9017

     occupation numbers 
     1.0000   1.0000   1.0000   1.0000   0.0000   0.0000   0.0000   0.0000

          k =-0.0417 0.6264 0.0000 (  2801 PWs)   bands (ev):

   -15.8943 -12.9897  -9.5785  -3.7389  -1.3830  -1.1167   7.3609   7.8949

     occupation numbers 
     1.0000   1.0000   1.0000   1.0000   0.0000   0.0000   0.0000   0.0000

          k =-0.0417 0.6861 0.0000 (  2790 PWs)   bands (ev):

   -15.3142 -13.6440  -9.6775  -2.9248  -1.9615  -1.4727   8.5538   8.7138

     occupation numbers 
     1.0000   1.0000   1.0000   1.0786   0.0004   0.0000   0.0000   0.0000

          k =-0.0417-0.6861 0.0000 (  2790 PWs)   bands (ev):

   -15.3141 -13.6441  -9.6775  -2.9247  -1.9617  -1.4728   8.5537   8.7139

     occupation numbers 
     1.0000   1.0000   1.0000   1.0786   0.0004   0.0000   0.0000   0.0000

          k =-0.0417-0.6264 0.0000 (  2801 PWs)   bands (ev):

   -15.8943 -12.9899  -9.5783  -3.7387  -1.3830  -1.1169   7.3609   7.8950

     occupation numbers 
     1.0000   1.0000   1.0000   1.0000   0.0000   0.0000   0.0000   0.0000

          k =-0.0417-0.5668 0.0000 (  2802 PWs)   bands (ev):

   -16.5735 -12.1678  -9.3800  -4.5389  -1.2060  -0.2558   6.2495   6.9017

     occupation numbers 
     1.0000   1.0000   1.0000   1.0000   0.0000   0.0000   0.0000   0.0000

          k =-0.0417-0.5071 0.0000 (  2812 PWs)   bands (ev):

   -17.2311 -11.3088  -9.0829  -5.2917  -0.9478   0.5877   5.2387   5.9418

     occupation numbers 
     1.0000   1.0000   1.0000   1.0000   0.0000   0.0000   0.0000   0.0000

          k =-0.0417-0.4474 0.0000 (  2804 PWs)   bands (ev):

   -17.8376 -10.4572  -8.6882  -5.9836  -0.6207   1.4001   4.3352   5.0662

     occupation numbers 
     1.0000   1.0000   1.0000   1.0000   0.0000   0.0000   0.0000   0.0000

          k =-0.0417-0.3878 0.0000 (  2806 PWs)   bands (ev):

   -18.3809  -9.6408  -8.2020  -6.6051  -0.2458   2.1689   3.5420   4.2954

     occupation numbers 
     1.0000   1.0000   1.0000   1.0000   0.0000   0.0000   0.0000   0.0000

          k =-0.0417-0.3281 0.0000 (  2794 PWs)   bands (ev):

   -18.8543  -8.8770  -7.6416  -7.1487   0.1431   2.8576   2.8611   3.6643

     occupation numbers 
     1.0000   1.0000   1.0000   1.0000   0.0000   0.0000   0.0000   0.0000

          k =-0.0417-0.2685 0.0000 (  2780 PWs)   bands (ev):

   -19.2538  -8.1719  -7.6089  -7.0416   0.5008   2.2933   2.9546   3.3208

     occupation numbers 
     1.0000   1.0000   1.0000   1.0000   0.0000   0.0000   0.0000   0.0000

          k =-0.0417-0.2088 0.0000 (  2774 PWs)   bands (ev):

   -19.5762  -7.9815  -7.5317  -6.4490   0.7821   1.8391   2.5482   2.8639

     occupation numbers 
     1.0000   1.0000   1.0000   1.0000   0.0000   0.0000   0.0000   0.0000

          k =-0.0417-0.1491 0.0000 (  2761 PWs)   bands (ev):

   -19.8197  -8.2635  -6.9795  -5.9133   0.9656   1.4983   2.2174   2.5202

     occupation numbers 
     1.0000   1.0000   1.0000   1.0000   0.0000   0.0000   0.0000   0.0000

          k =-0.0417-0.0895 0.0000 (  2745 PWs)   bands (ev):

   -19.9827  -8.4526  -6.5623  -5.4895   1.0714   1.2701   1.9937   2.2790

     occupation numbers 
     1.0000   1.0000   1.0000   1.0000   0.0000   0.0000   0.0000   0.0000

          k =-0.0417-0.0298 0.0000 (  2731 PWs)   bands (ev):

   -20.0644  -8.5474  -6.3348  -5.2470   1.1378   1.1551   1.8813   1.9059

     occupation numbers 
     1.0000   1.0000   1.0000   1.0000   0.0000   0.0000   0.0000   0.0000

     the Fermi energy is    -2.4990 ev

!    total energy              =     -36.74750612 Ry
     total all-electron energy =      -152.275701 Ry
     estimated scf accuracy    <          2.6E-12 Ry
     smearing contrib. (-TS)   =       0.00007273 Ry
     internal energy E=F+TS    =     -36.74757885 Ry

     The total energy is F=E-TS. E is the sum of the following terms:
     one-electron contribution =    -128.07922033 Ry
     hartree contribution      =      65.44059672 Ry
     xc contribution           =      -8.89072553 Ry
     ewald contribution        =      47.10736386 Ry
     one-center paw contrib.   =     -12.32559358 Ry
      -> PAW hartree energy AE =       7.50238347 Ry
      -> PAW hartree energy PS =      -7.49456463 Ry
      -> PAW xc energy AE      =     -10.17858716 Ry
      -> PAW xc energy PS      =       4.00796835 Ry
      -> total E_H with PAW    =      65.44841556 Ry
      -> total E_XC with PAW   =     -15.06134434 Ry

     convergence has been achieved in   4 iterations

     negative rho (up, down):  1.937E-03 0.000E+00

     Forces acting on atoms (cartesian axes, Ry/au):

     atom    1 type  1   force =    -0.00000135    0.00005380   -0.00000000
     atom    2 type  1   force =     0.00000135   -0.00005380    0.00000000
     The non-local contrib.  to forces
     atom    1 type  1   force =    -0.00023335    0.23554138   -0.00000002
     atom    2 type  1   force =    -0.00031915   -0.23591886   -0.00000001
     The ionic contribution  to forces
     atom    1 type  1   force =    -0.00047961    1.70723015    0.00000000
     atom    2 type  1   force =     0.00047961   -1.70723015   -0.00000000
     The local contribution  to forces
     atom    1 type  1   force =     0.00068090   -1.93391115    0.00000009
     atom    2 type  1   force =    -0.00005494    1.93439701    0.00000009
     The core correction contribution to forces
     atom    1 type  1   force =    -0.00051966   -0.00933240    0.00000000
     atom    2 type  1   force =    -0.00065454    0.00817261    0.00000000
     The Hubbard contrib.    to forces
     atom    1 type  1   force =     0.00000000    0.00000000    0.00000000
     atom    2 type  1   force =     0.00000000    0.00000000    0.00000000
     The SCF correction term to forces
     atom    1 type  1   force =     0.00000000   -0.00000014   -0.00000000
     atom    2 type  1   force =    -0.00000000   -0.00000037   -0.00000000

     Total force =     0.000076     Total SCF correction =     0.000000
     Energy error            =      4.5E-09 Ry
     Gradient error          =      5.4E-05 Ry/Bohr

     bfgs converged in   4 scf cycles and   3 bfgs steps
     (criteria: energy <  1.0E-05 Ry, force <  1.0E-04 Ry/Bohr)

     End of BFGS Geometry Optimization

     Final energy             =     -36.7475061225 Ry

     File ./tmp/graphene24.0.bfgs deleted, as requested
Begin final coordinates

ATOMIC_POSITIONS (crystal)
C                0.0030542338       -0.0060624943        0.0000000000    1   1   0
C                0.3302787662        0.3393954943        0.0000000000    1   1   0
End final coordinates



     Writing all to output data dir ./tmp/graphene24.0.save/ :
     XML data file, charge density, pseudopotentials, collected wavefunctions

     init_run     :      1.68s CPU      1.70s WALL (       1 calls)
     electrons    :     31.95s CPU     32.24s WALL (       4 calls)
     update_pot   :      0.08s CPU      0.09s WALL (       3 calls)
     forces       :      0.43s CPU      0.44s WALL (       4 calls)

     Called by init_run:
     wfcinit      :      0.87s CPU      0.88s WALL (       1 calls)
     wfcinit:atom :      0.01s CPU      0.01s WALL (      72 calls)
     wfcinit:wfcr :      0.76s CPU      0.77s WALL (      72 calls)
     potinit      :      0.05s CPU      0.05s WALL (       1 calls)
     hinit0       :      0.72s CPU      0.73s WALL (       1 calls)

     Called by electrons:
     c_bands      :     27.04s CPU     27.17s WALL (      22 calls)
     sum_band     :      4.29s CPU      4.32s WALL (      22 calls)
     v_of_rho     :      0.34s CPU      0.37s WALL (      25 calls)
     v_h          :      0.02s CPU      0.02s WALL (      25 calls)
     v_xc         :      0.38s CPU      0.41s WALL (      29 calls)
     newd         :      0.04s CPU      0.04s WALL (      25 calls)
     PAW_pot      :      0.28s CPU      0.28s WALL (      28 calls)
     mix_rho      :      0.03s CPU      0.04s WALL (      22 calls)

     Called by c_bands:
     init_us_2    :      1.02s CPU      1.03s WALL (    3744 calls)
     cegterg      :     21.97s CPU     22.10s WALL (    1584 calls)

     Called by sum_band:
     sum_band:wei :      0.01s CPU      0.01s WALL (      22 calls)
     sum_band:loo :      4.07s CPU      4.09s WALL (      22 calls)
     sum_band:buf :      0.08s CPU      0.08s WALL (    1584 calls)
     sum_band:ini :      0.43s CPU      0.43s WALL (    1584 calls)
     sum_band:cal :      0.27s CPU      0.28s WALL (    1800 calls)
     sum_band:bec :      0.01s CPU      0.01s WALL (    1800 calls)
     addusdens    :      0.03s CPU      0.03s WALL (      22 calls)
                                        0.00s GPU  (      22 calls)
     addusd:skk   :      0.00s CPU      0.00s WALL (      22 calls)
                                        0.00s GPU  (      22 calls)

     Called by *egterg:
     cdiaghg      :      0.35s CPU      0.36s WALL (    5854 calls)
     cegterg:over :      0.72s CPU      0.72s WALL (    4558 calls)
     cegterg:upda :      0.59s CPU      0.59s WALL (    4558 calls)
     cegterg:last :      0.97s CPU      0.97s WALL (    3219 calls)
     h_psi        :     18.72s CPU     18.82s WALL (    6214 calls)
     s_psi        :      0.62s CPU      0.63s WALL (    6214 calls)
     g_psi        :      0.23s CPU      0.23s WALL (    4558 calls)

     Called by h_psi:
     h_psi:calbec :      0.71s CPU      0.72s WALL (    6214 calls)
     vloc_psi     :     17.20s CPU     17.29s WALL (    6214 calls)
     add_vuspsi   :      0.70s CPU      0.71s WALL (    6214 calls)

     General routines
     calbec       :      1.13s CPU      1.14s WALL (    9166 calls)
     fft          :      0.75s CPU      0.76s WALL (     323 calls)
     ffts         :      0.01s CPU      0.01s WALL (      22 calls)
     fftw         :     16.94s CPU     17.04s WALL (   77670 calls)

     Parallel routines

     PAW routines
     PAW_pot      :      0.28s CPU      0.28s WALL (      28 calls)

     PWSCF        :     34.43s CPU     37.07s WALL


   This run was terminated on:   6: 7: 2  22Apr2026            

=------------------------------------------------------------------------------=
   JOB DONE.
=------------------------------------------------------------------------------=
