
     Program PWSCF v.7.3.1 starts on 22Apr2026 at  6:17: 3 

     This program is part of the open-source Quantum ESPRESSO suite
     for quantum simulation of materials; please cite
         "P. Giannozzi et al., J. Phys.:Condens. Matter 21 395502 (2009);
         "P. Giannozzi et al., J. Phys.:Condens. Matter 29 465901 (2017);
         "P. Giannozzi et al., J. Chem. Phys. 152 154105 (2020);
          URL http://www.quantum-espresso.org", 
     in publications or presentations arising from this work. More details at
     http://www.quantum-espresso.org/quote

     Parallel version (MPI & OpenMP), running on       8 processor cores
     Number of MPI processes:                 8
     Threads/MPI process:                     1

     MPI processes distributed on     1 nodes
     26047 MiB available memory on the printing compute node when the environment starts

     Reading input from ./io/scf28.0.in

     Current dimensions of program PWSCF are:
     Max number of different atomic species (ntypx) = 10
     Max number of k-points (npk) =  40000
     Max angular momentum in pseudopotentials (lmaxx) =  4
     file C.pbe-n-kjpaw_psl.1.0.0.UPF: wavefunction(s)  2S 2P renormalized

     K-points division:     npool     =       8
     Subspace diagonalization in iterative solution of the eigenvalue problem:
     a serial algorithm will be used


     G-vector sticks info
     --------------------
     sticks:   dense  smooth     PW     G-vecs:    dense   smooth      PW
     Sum         295     295    103                22849    22849    4855

     Using Slab Decomposition



     bravais-lattice index     =            0
     lattice parameter (alat)  =       5.9212  a.u.
     unit-cell volume          =     672.4132 (a.u.)^3
     number of atoms/cell      =            2
     number of atomic types    =            1
     number of electrons       =         8.00
     number of Kohn-Sham states=            8
     kinetic-energy cutoff     =      40.0000  Ry
     charge density cutoff     =     160.0000  Ry
     scf convergence threshold =      1.0E-08
     mixing beta               =       0.7000
     number of iterations used =            8  plain     mixing
     Exchange-correlation= SLA  PW   PBX  PBC
                           (   1   4   3   4   0   0   0)

     celldm(1)=   5.921182  celldm(2)=   0.000000  celldm(3)=   0.000000
     celldm(4)=   0.000000  celldm(5)=   0.000000  celldm(6)=   0.000000

     crystal axes: (cart. coord. in units of alat)
               a(1) = (   1.000000   0.000000   0.000000 )  
               a(2) = (   0.500000   0.676582   0.000000 )  
               a(3) = (   0.000000   0.000000   4.787297 )  

     reciprocal axes: (cart. coord. in units 2 pi/alat)
               b(1) = (  1.000000 -0.739008  0.000000 )  
               b(2) = (  0.000000  1.478017  0.000000 )  
               b(3) = (  0.000000  0.000000  0.208886 )  


     PseudoPot. # 1 for C  read from file:
     ./C.pbe-n-kjpaw_psl.1.0.0.UPF
     MD5 check sum: 5f16ad9a65e90284d1d834d4ab3b0f7d
     Pseudo is Projector augmented-wave + core cor, Zval =  4.0
     Generated using &quot;atomic&quot; code by A. Dal Corso  v.6.3
     Shape of augmentation charge: PSQ
     Using radial grid of 1073 points,  4 beta functions with: 
                l(1) =   0
                l(2) =   0
                l(3) =   1
                l(4) =   1
     Q(r) pseudized with 0 coefficients 


     atomic species   valence    mass     pseudopotential
     C                 4.00    12.01100     C ( 1.00)

     No symmetry found


                                    s                        frac. trans.

      isym =  1     identity                                     

 cryst.   s( 1) = (     1          0          0      )
                  (     0          1          0      )
                  (     0          0          1      )

 cart.    s( 1) = (  1.0000000  0.0000000  0.0000000 )
                  (  0.0000000  1.0000000  0.0000000 )
                  (  0.0000000  0.0000000  1.0000000 )


   Cartesian axes

     site n.     atom                  positions (alat units)
         1        C      tau(   1) = (   0.0000095  -0.0066772   0.0000000  )
         2        C      tau(   2) = (   0.4999900   0.2322044   0.0000000  )

   Crystallographic axes

     site n.     atom                  positions (cryst. coord.)
         1        C      tau(   1) = (  0.0049440 -0.0098690  0.0000000  )
         2        C      tau(   2) = (  0.3283890  0.3432020  0.0000000  )

     number of k points=   576  Marzari-Vanderbilt smearing, width (Ry)=  0.0200
                       cart. coord. in units 2pi/alat
        k(    1) = (   0.0000000   0.0000000   0.0000000), wk =   0.0034722
        k(    2) = (   0.0000000   0.0615840   0.0000000), wk =   0.0034722
        k(    3) = (   0.0000000   0.1231681   0.0000000), wk =   0.0034722
        k(    4) = (   0.0000000   0.1847521   0.0000000), wk =   0.0034722
        k(    5) = (   0.0000000   0.2463361   0.0000000), wk =   0.0034722
        k(    6) = (   0.0000000   0.3079202   0.0000000), wk =   0.0034722
        k(    7) = (   0.0000000   0.3695042   0.0000000), wk =   0.0034722
        k(    8) = (   0.0000000   0.4310882   0.0000000), wk =   0.0034722
        k(    9) = (   0.0000000   0.4926723   0.0000000), wk =   0.0034722
        k(   10) = (   0.0000000   0.5542563   0.0000000), wk =   0.0034722
        k(   11) = (   0.0000000   0.6158403   0.0000000), wk =   0.0034722
        k(   12) = (   0.0000000   0.6774244   0.0000000), wk =   0.0034722
        k(   13) = (   0.0000000  -0.7390084   0.0000000), wk =   0.0034722
        k(   14) = (   0.0000000  -0.6774244   0.0000000), wk =   0.0034722
        k(   15) = (   0.0000000  -0.6158403   0.0000000), wk =   0.0034722
        k(   16) = (   0.0000000  -0.5542563   0.0000000), wk =   0.0034722
        k(   17) = (   0.0000000  -0.4926723   0.0000000), wk =   0.0034722
        k(   18) = (   0.0000000  -0.4310882   0.0000000), wk =   0.0034722
        k(   19) = (   0.0000000  -0.3695042   0.0000000), wk =   0.0034722
        k(   20) = (   0.0000000  -0.3079202   0.0000000), wk =   0.0034722
        k(   21) = (   0.0000000  -0.2463361   0.0000000), wk =   0.0034722
        k(   22) = (   0.0000000  -0.1847521   0.0000000), wk =   0.0034722
        k(   23) = (   0.0000000  -0.1231681   0.0000000), wk =   0.0034722
        k(   24) = (   0.0000000  -0.0615840   0.0000000), wk =   0.0034722
        k(   25) = (   0.0416667  -0.0307920   0.0000000), wk =   0.0034722
        k(   26) = (   0.0416667   0.0307920   0.0000000), wk =   0.0034722
        k(   27) = (   0.0416667   0.0923760   0.0000000), wk =   0.0034722
        k(   28) = (   0.0416667   0.1539601   0.0000000), wk =   0.0034722
        k(   29) = (   0.0416667   0.2155441   0.0000000), wk =   0.0034722
        k(   30) = (   0.0416667   0.2771281   0.0000000), wk =   0.0034722
        k(   31) = (   0.0416667   0.3387122   0.0000000), wk =   0.0034722
        k(   32) = (   0.0416667   0.4002962   0.0000000), wk =   0.0034722
        k(   33) = (   0.0416667   0.4618802   0.0000000), wk =   0.0034722
        k(   34) = (   0.0416667   0.5234643   0.0000000), wk =   0.0034722
        k(   35) = (   0.0416667   0.5850483   0.0000000), wk =   0.0034722
        k(   36) = (   0.0416667   0.6466323   0.0000000), wk =   0.0034722
        k(   37) = (   0.0416667  -0.7698004   0.0000000), wk =   0.0034722
        k(   38) = (   0.0416667  -0.7082164   0.0000000), wk =   0.0034722
        k(   39) = (   0.0416667  -0.6466323   0.0000000), wk =   0.0034722
        k(   40) = (   0.0416667  -0.5850483   0.0000000), wk =   0.0034722
        k(   41) = (   0.0416667  -0.5234643   0.0000000), wk =   0.0034722
        k(   42) = (   0.0416667  -0.4618802   0.0000000), wk =   0.0034722
        k(   43) = (   0.0416667  -0.4002962   0.0000000), wk =   0.0034722
        k(   44) = (   0.0416667  -0.3387122   0.0000000), wk =   0.0034722
        k(   45) = (   0.0416667  -0.2771281   0.0000000), wk =   0.0034722
        k(   46) = (   0.0416667  -0.2155441   0.0000000), wk =   0.0034722
        k(   47) = (   0.0416667  -0.1539601   0.0000000), wk =   0.0034722
        k(   48) = (   0.0416667  -0.0923760   0.0000000), wk =   0.0034722
        k(   49) = (   0.0833333  -0.0615840   0.0000000), wk =   0.0034722
        k(   50) = (   0.0833333  -0.0000000   0.0000000), wk =   0.0034722
        k(   51) = (   0.0833333   0.0615840   0.0000000), wk =   0.0034722
        k(   52) = (   0.0833333   0.1231681   0.0000000), wk =   0.0034722
        k(   53) = (   0.0833333   0.1847521   0.0000000), wk =   0.0034722
        k(   54) = (   0.0833333   0.2463361   0.0000000), wk =   0.0034722
        k(   55) = (   0.0833333   0.3079202   0.0000000), wk =   0.0034722
        k(   56) = (   0.0833333   0.3695042   0.0000000), wk =   0.0034722
        k(   57) = (   0.0833333   0.4310882   0.0000000), wk =   0.0034722
        k(   58) = (   0.0833333   0.4926723   0.0000000), wk =   0.0034722
        k(   59) = (   0.0833333   0.5542563   0.0000000), wk =   0.0034722
        k(   60) = (   0.0833333   0.6158403   0.0000000), wk =   0.0034722
        k(   61) = (   0.0833333  -0.8005924   0.0000000), wk =   0.0034722
        k(   62) = (   0.0833333  -0.7390084   0.0000000), wk =   0.0034722
        k(   63) = (   0.0833333  -0.6774244   0.0000000), wk =   0.0034722
        k(   64) = (   0.0833333  -0.6158403   0.0000000), wk =   0.0034722
        k(   65) = (   0.0833333  -0.5542563   0.0000000), wk =   0.0034722
        k(   66) = (   0.0833333  -0.4926723   0.0000000), wk =   0.0034722
        k(   67) = (   0.0833333  -0.4310882   0.0000000), wk =   0.0034722
        k(   68) = (   0.0833333  -0.3695042   0.0000000), wk =   0.0034722
        k(   69) = (   0.0833333  -0.3079202   0.0000000), wk =   0.0034722
        k(   70) = (   0.0833333  -0.2463361   0.0000000), wk =   0.0034722
        k(   71) = (   0.0833333  -0.1847521   0.0000000), wk =   0.0034722
        k(   72) = (   0.0833333  -0.1231681   0.0000000), wk =   0.0034722
        k(   73) = (   0.1250000  -0.0923760   0.0000000), wk =   0.0034722
        k(   74) = (   0.1250000  -0.0307920   0.0000000), wk =   0.0034722
        k(   75) = (   0.1250000   0.0307920   0.0000000), wk =   0.0034722
        k(   76) = (   0.1250000   0.0923760   0.0000000), wk =   0.0034722
        k(   77) = (   0.1250000   0.1539601   0.0000000), wk =   0.0034722
        k(   78) = (   0.1250000   0.2155441   0.0000000), wk =   0.0034722
        k(   79) = (   0.1250000   0.2771281   0.0000000), wk =   0.0034722
        k(   80) = (   0.1250000   0.3387122   0.0000000), wk =   0.0034722
        k(   81) = (   0.1250000   0.4002962   0.0000000), wk =   0.0034722
        k(   82) = (   0.1250000   0.4618802   0.0000000), wk =   0.0034722
        k(   83) = (   0.1250000   0.5234643   0.0000000), wk =   0.0034722
        k(   84) = (   0.1250000   0.5850483   0.0000000), wk =   0.0034722
        k(   85) = (   0.1250000  -0.8313844   0.0000000), wk =   0.0034722
        k(   86) = (   0.1250000  -0.7698004   0.0000000), wk =   0.0034722
        k(   87) = (   0.1250000  -0.7082164   0.0000000), wk =   0.0034722
        k(   88) = (   0.1250000  -0.6466323   0.0000000), wk =   0.0034722
        k(   89) = (   0.1250000  -0.5850483   0.0000000), wk =   0.0034722
        k(   90) = (   0.1250000  -0.5234643   0.0000000), wk =   0.0034722
        k(   91) = (   0.1250000  -0.4618802   0.0000000), wk =   0.0034722
        k(   92) = (   0.1250000  -0.4002962   0.0000000), wk =   0.0034722
        k(   93) = (   0.1250000  -0.3387122   0.0000000), wk =   0.0034722
        k(   94) = (   0.1250000  -0.2771281   0.0000000), wk =   0.0034722
        k(   95) = (   0.1250000  -0.2155441   0.0000000), wk =   0.0034722
        k(   96) = (   0.1250000  -0.1539601   0.0000000), wk =   0.0034722
        k(   97) = (   0.1666667  -0.1231681   0.0000000), wk =   0.0034722
        k(   98) = (   0.1666667  -0.0615840   0.0000000), wk =   0.0034722
        k(   99) = (   0.1666667  -0.0000000   0.0000000), wk =   0.0034722
        k(  100) = (   0.1666667   0.0615840   0.0000000), wk =   0.0034722
        k(  101) = (   0.1666667   0.1231681   0.0000000), wk =   0.0034722
        k(  102) = (   0.1666667   0.1847521   0.0000000), wk =   0.0034722
        k(  103) = (   0.1666667   0.2463361   0.0000000), wk =   0.0034722
        k(  104) = (   0.1666667   0.3079202   0.0000000), wk =   0.0034722
        k(  105) = (   0.1666667   0.3695042   0.0000000), wk =   0.0034722
        k(  106) = (   0.1666667   0.4310882   0.0000000), wk =   0.0034722
        k(  107) = (   0.1666667   0.4926723   0.0000000), wk =   0.0034722
        k(  108) = (   0.1666667   0.5542563   0.0000000), wk =   0.0034722
        k(  109) = (   0.1666667  -0.8621764   0.0000000), wk =   0.0034722
        k(  110) = (   0.1666667  -0.8005924   0.0000000), wk =   0.0034722
        k(  111) = (   0.1666667  -0.7390084   0.0000000), wk =   0.0034722
        k(  112) = (   0.1666667  -0.6774244   0.0000000), wk =   0.0034722
        k(  113) = (   0.1666667  -0.6158403   0.0000000), wk =   0.0034722
        k(  114) = (   0.1666667  -0.5542563   0.0000000), wk =   0.0034722
        k(  115) = (   0.1666667  -0.4926723   0.0000000), wk =   0.0034722
        k(  116) = (   0.1666667  -0.4310882   0.0000000), wk =   0.0034722
        k(  117) = (   0.1666667  -0.3695042   0.0000000), wk =   0.0034722
        k(  118) = (   0.1666667  -0.3079202   0.0000000), wk =   0.0034722
        k(  119) = (   0.1666667  -0.2463361   0.0000000), wk =   0.0034722
        k(  120) = (   0.1666667  -0.1847521   0.0000000), wk =   0.0034722
        k(  121) = (   0.2083333  -0.1539601   0.0000000), wk =   0.0034722
        k(  122) = (   0.2083333  -0.0923760   0.0000000), wk =   0.0034722
        k(  123) = (   0.2083333  -0.0307920   0.0000000), wk =   0.0034722
        k(  124) = (   0.2083333   0.0307920   0.0000000), wk =   0.0034722
        k(  125) = (   0.2083333   0.0923760   0.0000000), wk =   0.0034722
        k(  126) = (   0.2083333   0.1539601   0.0000000), wk =   0.0034722
        k(  127) = (   0.2083333   0.2155441   0.0000000), wk =   0.0034722
        k(  128) = (   0.2083333   0.2771281   0.0000000), wk =   0.0034722
        k(  129) = (   0.2083333   0.3387122   0.0000000), wk =   0.0034722
        k(  130) = (   0.2083333   0.4002962   0.0000000), wk =   0.0034722
        k(  131) = (   0.2083333   0.4618802   0.0000000), wk =   0.0034722
        k(  132) = (   0.2083333   0.5234643   0.0000000), wk =   0.0034722
        k(  133) = (   0.2083333  -0.8929685   0.0000000), wk =   0.0034722
        k(  134) = (   0.2083333  -0.8313844   0.0000000), wk =   0.0034722
        k(  135) = (   0.2083333  -0.7698004   0.0000000), wk =   0.0034722
        k(  136) = (   0.2083333  -0.7082164   0.0000000), wk =   0.0034722
        k(  137) = (   0.2083333  -0.6466323   0.0000000), wk =   0.0034722
        k(  138) = (   0.2083333  -0.5850483   0.0000000), wk =   0.0034722
        k(  139) = (   0.2083333  -0.5234643   0.0000000), wk =   0.0034722
        k(  140) = (   0.2083333  -0.4618802   0.0000000), wk =   0.0034722
        k(  141) = (   0.2083333  -0.4002962   0.0000000), wk =   0.0034722
        k(  142) = (   0.2083333  -0.3387122   0.0000000), wk =   0.0034722
        k(  143) = (   0.2083333  -0.2771281   0.0000000), wk =   0.0034722
        k(  144) = (   0.2083333  -0.2155441   0.0000000), wk =   0.0034722
        k(  145) = (   0.2500000  -0.1847521   0.0000000), wk =   0.0034722
        k(  146) = (   0.2500000  -0.1231681   0.0000000), wk =   0.0034722
        k(  147) = (   0.2500000  -0.0615840   0.0000000), wk =   0.0034722
        k(  148) = (   0.2500000   0.0000000   0.0000000), wk =   0.0034722
        k(  149) = (   0.2500000   0.0615840   0.0000000), wk =   0.0034722
        k(  150) = (   0.2500000   0.1231681   0.0000000), wk =   0.0034722
        k(  151) = (   0.2500000   0.1847521   0.0000000), wk =   0.0034722
        k(  152) = (   0.2500000   0.2463361   0.0000000), wk =   0.0034722
        k(  153) = (   0.2500000   0.3079202   0.0000000), wk =   0.0034722
        k(  154) = (   0.2500000   0.3695042   0.0000000), wk =   0.0034722
        k(  155) = (   0.2500000   0.4310882   0.0000000), wk =   0.0034722
        k(  156) = (   0.2500000   0.4926723   0.0000000), wk =   0.0034722
        k(  157) = (   0.2500000  -0.9237605   0.0000000), wk =   0.0034722
        k(  158) = (   0.2500000  -0.8621764   0.0000000), wk =   0.0034722
        k(  159) = (   0.2500000  -0.8005924   0.0000000), wk =   0.0034722
        k(  160) = (   0.2500000  -0.7390084   0.0000000), wk =   0.0034722
        k(  161) = (   0.2500000  -0.6774244   0.0000000), wk =   0.0034722
        k(  162) = (   0.2500000  -0.6158403   0.0000000), wk =   0.0034722
        k(  163) = (   0.2500000  -0.5542563   0.0000000), wk =   0.0034722
        k(  164) = (   0.2500000  -0.4926723   0.0000000), wk =   0.0034722
        k(  165) = (   0.2500000  -0.4310882   0.0000000), wk =   0.0034722
        k(  166) = (   0.2500000  -0.3695042   0.0000000), wk =   0.0034722
        k(  167) = (   0.2500000  -0.3079202   0.0000000), wk =   0.0034722
        k(  168) = (   0.2500000  -0.2463361   0.0000000), wk =   0.0034722
        k(  169) = (   0.2916667  -0.2155441   0.0000000), wk =   0.0034722
        k(  170) = (   0.2916667  -0.1539601   0.0000000), wk =   0.0034722
        k(  171) = (   0.2916667  -0.0923760   0.0000000), wk =   0.0034722
        k(  172) = (   0.2916667  -0.0307920   0.0000000), wk =   0.0034722
        k(  173) = (   0.2916667   0.0307920   0.0000000), wk =   0.0034722
        k(  174) = (   0.2916667   0.0923760   0.0000000), wk =   0.0034722
        k(  175) = (   0.2916667   0.1539601   0.0000000), wk =   0.0034722
        k(  176) = (   0.2916667   0.2155441   0.0000000), wk =   0.0034722
        k(  177) = (   0.2916667   0.2771281   0.0000000), wk =   0.0034722
        k(  178) = (   0.2916667   0.3387122   0.0000000), wk =   0.0034722
        k(  179) = (   0.2916667   0.4002962   0.0000000), wk =   0.0034722
        k(  180) = (   0.2916667   0.4618802   0.0000000), wk =   0.0034722
        k(  181) = (   0.2916667  -0.9545525   0.0000000), wk =   0.0034722
        k(  182) = (   0.2916667  -0.8929685   0.0000000), wk =   0.0034722
        k(  183) = (   0.2916667  -0.8313844   0.0000000), wk =   0.0034722
        k(  184) = (   0.2916667  -0.7698004   0.0000000), wk =   0.0034722
        k(  185) = (   0.2916667  -0.7082164   0.0000000), wk =   0.0034722
        k(  186) = (   0.2916667  -0.6466323   0.0000000), wk =   0.0034722
        k(  187) = (   0.2916667  -0.5850483   0.0000000), wk =   0.0034722
        k(  188) = (   0.2916667  -0.5234643   0.0000000), wk =   0.0034722
        k(  189) = (   0.2916667  -0.4618802   0.0000000), wk =   0.0034722
        k(  190) = (   0.2916667  -0.4002962   0.0000000), wk =   0.0034722
        k(  191) = (   0.2916667  -0.3387122   0.0000000), wk =   0.0034722
        k(  192) = (   0.2916667  -0.2771281   0.0000000), wk =   0.0034722
        k(  193) = (   0.3333333  -0.2463361   0.0000000), wk =   0.0034722
        k(  194) = (   0.3333333  -0.1847521   0.0000000), wk =   0.0034722
        k(  195) = (   0.3333333  -0.1231681   0.0000000), wk =   0.0034722
        k(  196) = (   0.3333333  -0.0615840   0.0000000), wk =   0.0034722
        k(  197) = (   0.3333333  -0.0000000   0.0000000), wk =   0.0034722
        k(  198) = (   0.3333333   0.0615840   0.0000000), wk =   0.0034722
        k(  199) = (   0.3333333   0.1231681   0.0000000), wk =   0.0034722
        k(  200) = (   0.3333333   0.1847521   0.0000000), wk =   0.0034722
        k(  201) = (   0.3333333   0.2463361   0.0000000), wk =   0.0034722
        k(  202) = (   0.3333333   0.3079202   0.0000000), wk =   0.0034722
        k(  203) = (   0.3333333   0.3695042   0.0000000), wk =   0.0034722
        k(  204) = (   0.3333333   0.4310882   0.0000000), wk =   0.0034722
        k(  205) = (   0.3333333  -0.9853445   0.0000000), wk =   0.0034722
        k(  206) = (   0.3333333  -0.9237605   0.0000000), wk =   0.0034722
        k(  207) = (   0.3333333  -0.8621764   0.0000000), wk =   0.0034722
        k(  208) = (   0.3333333  -0.8005924   0.0000000), wk =   0.0034722
        k(  209) = (   0.3333333  -0.7390084   0.0000000), wk =   0.0034722
        k(  210) = (   0.3333333  -0.6774244   0.0000000), wk =   0.0034722
        k(  211) = (   0.3333333  -0.6158403   0.0000000), wk =   0.0034722
        k(  212) = (   0.3333333  -0.5542563   0.0000000), wk =   0.0034722
        k(  213) = (   0.3333333  -0.4926723   0.0000000), wk =   0.0034722
        k(  214) = (   0.3333333  -0.4310882   0.0000000), wk =   0.0034722
        k(  215) = (   0.3333333  -0.3695042   0.0000000), wk =   0.0034722
        k(  216) = (   0.3333333  -0.3079202   0.0000000), wk =   0.0034722
        k(  217) = (   0.3750000  -0.2771281   0.0000000), wk =   0.0034722
        k(  218) = (   0.3750000  -0.2155441   0.0000000), wk =   0.0034722
        k(  219) = (   0.3750000  -0.1539601   0.0000000), wk =   0.0034722
        k(  220) = (   0.3750000  -0.0923760   0.0000000), wk =   0.0034722
        k(  221) = (   0.3750000  -0.0307920   0.0000000), wk =   0.0034722
        k(  222) = (   0.3750000   0.0307920   0.0000000), wk =   0.0034722
        k(  223) = (   0.3750000   0.0923760   0.0000000), wk =   0.0034722
        k(  224) = (   0.3750000   0.1539601   0.0000000), wk =   0.0034722
        k(  225) = (   0.3750000   0.2155441   0.0000000), wk =   0.0034722
        k(  226) = (   0.3750000   0.2771281   0.0000000), wk =   0.0034722
        k(  227) = (   0.3750000   0.3387122   0.0000000), wk =   0.0034722
        k(  228) = (   0.3750000   0.4002962   0.0000000), wk =   0.0034722
        k(  229) = (   0.3750000  -1.0161365   0.0000000), wk =   0.0034722
        k(  230) = (   0.3750000  -0.9545525   0.0000000), wk =   0.0034722
        k(  231) = (   0.3750000  -0.8929685   0.0000000), wk =   0.0034722
        k(  232) = (   0.3750000  -0.8313844   0.0000000), wk =   0.0034722
        k(  233) = (   0.3750000  -0.7698004   0.0000000), wk =   0.0034722
        k(  234) = (   0.3750000  -0.7082164   0.0000000), wk =   0.0034722
        k(  235) = (   0.3750000  -0.6466323   0.0000000), wk =   0.0034722
        k(  236) = (   0.3750000  -0.5850483   0.0000000), wk =   0.0034722
        k(  237) = (   0.3750000  -0.5234643   0.0000000), wk =   0.0034722
        k(  238) = (   0.3750000  -0.4618802   0.0000000), wk =   0.0034722
        k(  239) = (   0.3750000  -0.4002962   0.0000000), wk =   0.0034722
        k(  240) = (   0.3750000  -0.3387122   0.0000000), wk =   0.0034722
        k(  241) = (   0.4166667  -0.3079202   0.0000000), wk =   0.0034722
        k(  242) = (   0.4166667  -0.2463361   0.0000000), wk =   0.0034722
        k(  243) = (   0.4166667  -0.1847521   0.0000000), wk =   0.0034722
        k(  244) = (   0.4166667  -0.1231681   0.0000000), wk =   0.0034722
        k(  245) = (   0.4166667  -0.0615840   0.0000000), wk =   0.0034722
        k(  246) = (   0.4166667  -0.0000000   0.0000000), wk =   0.0034722
        k(  247) = (   0.4166667   0.0615840   0.0000000), wk =   0.0034722
        k(  248) = (   0.4166667   0.1231681   0.0000000), wk =   0.0034722
        k(  249) = (   0.4166667   0.1847521   0.0000000), wk =   0.0034722
        k(  250) = (   0.4166667   0.2463361   0.0000000), wk =   0.0034722
        k(  251) = (   0.4166667   0.3079202   0.0000000), wk =   0.0034722
        k(  252) = (   0.4166667   0.3695042   0.0000000), wk =   0.0034722
        k(  253) = (   0.4166667  -1.0469285   0.0000000), wk =   0.0034722
        k(  254) = (   0.4166667  -0.9853445   0.0000000), wk =   0.0034722
        k(  255) = (   0.4166667  -0.9237605   0.0000000), wk =   0.0034722
        k(  256) = (   0.4166667  -0.8621764   0.0000000), wk =   0.0034722
        k(  257) = (   0.4166667  -0.8005924   0.0000000), wk =   0.0034722
        k(  258) = (   0.4166667  -0.7390084   0.0000000), wk =   0.0034722
        k(  259) = (   0.4166667  -0.6774244   0.0000000), wk =   0.0034722
        k(  260) = (   0.4166667  -0.6158403   0.0000000), wk =   0.0034722
        k(  261) = (   0.4166667  -0.5542563   0.0000000), wk =   0.0034722
        k(  262) = (   0.4166667  -0.4926723   0.0000000), wk =   0.0034722
        k(  263) = (   0.4166667  -0.4310882   0.0000000), wk =   0.0034722
        k(  264) = (   0.4166667  -0.3695042   0.0000000), wk =   0.0034722
        k(  265) = (   0.4583333  -0.3387122   0.0000000), wk =   0.0034722
        k(  266) = (   0.4583333  -0.2771281   0.0000000), wk =   0.0034722
        k(  267) = (   0.4583333  -0.2155441   0.0000000), wk =   0.0034722
        k(  268) = (   0.4583333  -0.1539601   0.0000000), wk =   0.0034722
        k(  269) = (   0.4583333  -0.0923760   0.0000000), wk =   0.0034722
        k(  270) = (   0.4583333  -0.0307920   0.0000000), wk =   0.0034722
        k(  271) = (   0.4583333   0.0307920   0.0000000), wk =   0.0034722
        k(  272) = (   0.4583333   0.0923760   0.0000000), wk =   0.0034722
        k(  273) = (   0.4583333   0.1539601   0.0000000), wk =   0.0034722
        k(  274) = (   0.4583333   0.2155441   0.0000000), wk =   0.0034722
        k(  275) = (   0.4583333   0.2771281   0.0000000), wk =   0.0034722
        k(  276) = (   0.4583333   0.3387122   0.0000000), wk =   0.0034722
        k(  277) = (   0.4583333  -1.0777206   0.0000000), wk =   0.0034722
        k(  278) = (   0.4583333  -1.0161365   0.0000000), wk =   0.0034722
        k(  279) = (   0.4583333  -0.9545525   0.0000000), wk =   0.0034722
        k(  280) = (   0.4583333  -0.8929685   0.0000000), wk =   0.0034722
        k(  281) = (   0.4583333  -0.8313844   0.0000000), wk =   0.0034722
        k(  282) = (   0.4583333  -0.7698004   0.0000000), wk =   0.0034722
        k(  283) = (   0.4583333  -0.7082164   0.0000000), wk =   0.0034722
        k(  284) = (   0.4583333  -0.6466323   0.0000000), wk =   0.0034722
        k(  285) = (   0.4583333  -0.5850483   0.0000000), wk =   0.0034722
        k(  286) = (   0.4583333  -0.5234643   0.0000000), wk =   0.0034722
        k(  287) = (   0.4583333  -0.4618802   0.0000000), wk =   0.0034722
        k(  288) = (   0.4583333  -0.4002962   0.0000000), wk =   0.0034722
        k(  289) = (  -0.5000000   0.3695042   0.0000000), wk =   0.0034722
        k(  290) = (  -0.5000000   0.4310882   0.0000000), wk =   0.0034722
        k(  291) = (  -0.5000000   0.4926723   0.0000000), wk =   0.0034722
        k(  292) = (  -0.5000000   0.5542563   0.0000000), wk =   0.0034722
        k(  293) = (  -0.5000000   0.6158403   0.0000000), wk =   0.0034722
        k(  294) = (  -0.5000000   0.6774244   0.0000000), wk =   0.0034722
        k(  295) = (  -0.5000000   0.7390084   0.0000000), wk =   0.0034722
        k(  296) = (  -0.5000000   0.8005924   0.0000000), wk =   0.0034722
        k(  297) = (  -0.5000000   0.8621764   0.0000000), wk =   0.0034722
        k(  298) = (  -0.5000000   0.9237605   0.0000000), wk =   0.0034722
        k(  299) = (  -0.5000000   0.9853445   0.0000000), wk =   0.0034722
        k(  300) = (  -0.5000000   1.0469285   0.0000000), wk =   0.0034722
        k(  301) = (  -0.5000000  -0.3695042   0.0000000), wk =   0.0034722
        k(  302) = (  -0.5000000  -0.3079202   0.0000000), wk =   0.0034722
        k(  303) = (  -0.5000000  -0.2463361   0.0000000), wk =   0.0034722
        k(  304) = (  -0.5000000  -0.1847521   0.0000000), wk =   0.0034722
        k(  305) = (  -0.5000000  -0.1231681   0.0000000), wk =   0.0034722
        k(  306) = (  -0.5000000  -0.0615840   0.0000000), wk =   0.0034722
        k(  307) = (  -0.5000000   0.0000000   0.0000000), wk =   0.0034722
        k(  308) = (  -0.5000000   0.0615840   0.0000000), wk =   0.0034722
        k(  309) = (  -0.5000000   0.1231681   0.0000000), wk =   0.0034722
        k(  310) = (  -0.5000000   0.1847521   0.0000000), wk =   0.0034722
        k(  311) = (  -0.5000000   0.2463361   0.0000000), wk =   0.0034722
        k(  312) = (  -0.5000000   0.3079202   0.0000000), wk =   0.0034722
        k(  313) = (  -0.4583333   0.3387122   0.0000000), wk =   0.0034722
        k(  314) = (  -0.4583333   0.4002962   0.0000000), wk =   0.0034722
        k(  315) = (  -0.4583333   0.4618802   0.0000000), wk =   0.0034722
        k(  316) = (  -0.4583333   0.5234643   0.0000000), wk =   0.0034722
        k(  317) = (  -0.4583333   0.5850483   0.0000000), wk =   0.0034722
        k(  318) = (  -0.4583333   0.6466323   0.0000000), wk =   0.0034722
        k(  319) = (  -0.4583333   0.7082164   0.0000000), wk =   0.0034722
        k(  320) = (  -0.4583333   0.7698004   0.0000000), wk =   0.0034722
        k(  321) = (  -0.4583333   0.8313844   0.0000000), wk =   0.0034722
        k(  322) = (  -0.4583333   0.8929685   0.0000000), wk =   0.0034722
        k(  323) = (  -0.4583333   0.9545525   0.0000000), wk =   0.0034722
        k(  324) = (  -0.4583333   1.0161365   0.0000000), wk =   0.0034722
        k(  325) = (  -0.4583333  -0.4002962   0.0000000), wk =   0.0034722
        k(  326) = (  -0.4583333  -0.3387122   0.0000000), wk =   0.0034722
        k(  327) = (  -0.4583333  -0.2771281   0.0000000), wk =   0.0034722
        k(  328) = (  -0.4583333  -0.2155441   0.0000000), wk =   0.0034722
        k(  329) = (  -0.4583333  -0.1539601   0.0000000), wk =   0.0034722
        k(  330) = (  -0.4583333  -0.0923760   0.0000000), wk =   0.0034722
        k(  331) = (  -0.4583333  -0.0307920   0.0000000), wk =   0.0034722
        k(  332) = (  -0.4583333   0.0307920   0.0000000), wk =   0.0034722
        k(  333) = (  -0.4583333   0.0923760   0.0000000), wk =   0.0034722
        k(  334) = (  -0.4583333   0.1539601   0.0000000), wk =   0.0034722
        k(  335) = (  -0.4583333   0.2155441   0.0000000), wk =   0.0034722
        k(  336) = (  -0.4583333   0.2771281   0.0000000), wk =   0.0034722
        k(  337) = (  -0.4166667   0.3079202   0.0000000), wk =   0.0034722
        k(  338) = (  -0.4166667   0.3695042   0.0000000), wk =   0.0034722
        k(  339) = (  -0.4166667   0.4310882   0.0000000), wk =   0.0034722
        k(  340) = (  -0.4166667   0.4926723   0.0000000), wk =   0.0034722
        k(  341) = (  -0.4166667   0.5542563   0.0000000), wk =   0.0034722
        k(  342) = (  -0.4166667   0.6158403   0.0000000), wk =   0.0034722
        k(  343) = (  -0.4166667   0.6774244   0.0000000), wk =   0.0034722
        k(  344) = (  -0.4166667   0.7390084   0.0000000), wk =   0.0034722
        k(  345) = (  -0.4166667   0.8005924   0.0000000), wk =   0.0034722
        k(  346) = (  -0.4166667   0.8621764   0.0000000), wk =   0.0034722
        k(  347) = (  -0.4166667   0.9237605   0.0000000), wk =   0.0034722
        k(  348) = (  -0.4166667   0.9853445   0.0000000), wk =   0.0034722
        k(  349) = (  -0.4166667  -0.4310882   0.0000000), wk =   0.0034722
        k(  350) = (  -0.4166667  -0.3695042   0.0000000), wk =   0.0034722
        k(  351) = (  -0.4166667  -0.3079202   0.0000000), wk =   0.0034722
        k(  352) = (  -0.4166667  -0.2463361   0.0000000), wk =   0.0034722
        k(  353) = (  -0.4166667  -0.1847521   0.0000000), wk =   0.0034722
        k(  354) = (  -0.4166667  -0.1231681   0.0000000), wk =   0.0034722
        k(  355) = (  -0.4166667  -0.0615840   0.0000000), wk =   0.0034722
        k(  356) = (  -0.4166667  -0.0000000   0.0000000), wk =   0.0034722
        k(  357) = (  -0.4166667   0.0615840   0.0000000), wk =   0.0034722
        k(  358) = (  -0.4166667   0.1231681   0.0000000), wk =   0.0034722
        k(  359) = (  -0.4166667   0.1847521   0.0000000), wk =   0.0034722
        k(  360) = (  -0.4166667   0.2463361   0.0000000), wk =   0.0034722
        k(  361) = (  -0.3750000   0.2771281   0.0000000), wk =   0.0034722
        k(  362) = (  -0.3750000   0.3387122   0.0000000), wk =   0.0034722
        k(  363) = (  -0.3750000   0.4002962   0.0000000), wk =   0.0034722
        k(  364) = (  -0.3750000   0.4618802   0.0000000), wk =   0.0034722
        k(  365) = (  -0.3750000   0.5234643   0.0000000), wk =   0.0034722
        k(  366) = (  -0.3750000   0.5850483   0.0000000), wk =   0.0034722
        k(  367) = (  -0.3750000   0.6466323   0.0000000), wk =   0.0034722
        k(  368) = (  -0.3750000   0.7082164   0.0000000), wk =   0.0034722
        k(  369) = (  -0.3750000   0.7698004   0.0000000), wk =   0.0034722
        k(  370) = (  -0.3750000   0.8313844   0.0000000), wk =   0.0034722
        k(  371) = (  -0.3750000   0.8929685   0.0000000), wk =   0.0034722
        k(  372) = (  -0.3750000   0.9545525   0.0000000), wk =   0.0034722
        k(  373) = (  -0.3750000  -0.4618802   0.0000000), wk =   0.0034722
        k(  374) = (  -0.3750000  -0.4002962   0.0000000), wk =   0.0034722
        k(  375) = (  -0.3750000  -0.3387122   0.0000000), wk =   0.0034722
        k(  376) = (  -0.3750000  -0.2771281   0.0000000), wk =   0.0034722
        k(  377) = (  -0.3750000  -0.2155441   0.0000000), wk =   0.0034722
        k(  378) = (  -0.3750000  -0.1539601   0.0000000), wk =   0.0034722
        k(  379) = (  -0.3750000  -0.0923760   0.0000000), wk =   0.0034722
        k(  380) = (  -0.3750000  -0.0307920   0.0000000), wk =   0.0034722
        k(  381) = (  -0.3750000   0.0307920   0.0000000), wk =   0.0034722
        k(  382) = (  -0.3750000   0.0923760   0.0000000), wk =   0.0034722
        k(  383) = (  -0.3750000   0.1539601   0.0000000), wk =   0.0034722
        k(  384) = (  -0.3750000   0.2155441   0.0000000), wk =   0.0034722
        k(  385) = (  -0.3333333   0.2463361   0.0000000), wk =   0.0034722
        k(  386) = (  -0.3333333   0.3079202   0.0000000), wk =   0.0034722
        k(  387) = (  -0.3333333   0.3695042   0.0000000), wk =   0.0034722
        k(  388) = (  -0.3333333   0.4310882   0.0000000), wk =   0.0034722
        k(  389) = (  -0.3333333   0.4926723   0.0000000), wk =   0.0034722
        k(  390) = (  -0.3333333   0.5542563   0.0000000), wk =   0.0034722
        k(  391) = (  -0.3333333   0.6158403   0.0000000), wk =   0.0034722
        k(  392) = (  -0.3333333   0.6774244   0.0000000), wk =   0.0034722
        k(  393) = (  -0.3333333   0.7390084   0.0000000), wk =   0.0034722
        k(  394) = (  -0.3333333   0.8005924   0.0000000), wk =   0.0034722
        k(  395) = (  -0.3333333   0.8621764   0.0000000), wk =   0.0034722
        k(  396) = (  -0.3333333   0.9237605   0.0000000), wk =   0.0034722
        k(  397) = (  -0.3333333  -0.4926723   0.0000000), wk =   0.0034722
        k(  398) = (  -0.3333333  -0.4310882   0.0000000), wk =   0.0034722
        k(  399) = (  -0.3333333  -0.3695042   0.0000000), wk =   0.0034722
        k(  400) = (  -0.3333333  -0.3079202   0.0000000), wk =   0.0034722
        k(  401) = (  -0.3333333  -0.2463361   0.0000000), wk =   0.0034722
        k(  402) = (  -0.3333333  -0.1847521   0.0000000), wk =   0.0034722
        k(  403) = (  -0.3333333  -0.1231681   0.0000000), wk =   0.0034722
        k(  404) = (  -0.3333333  -0.0615840   0.0000000), wk =   0.0034722
        k(  405) = (  -0.3333333   0.0000000   0.0000000), wk =   0.0034722
        k(  406) = (  -0.3333333   0.0615840   0.0000000), wk =   0.0034722
        k(  407) = (  -0.3333333   0.1231681   0.0000000), wk =   0.0034722
        k(  408) = (  -0.3333333   0.1847521   0.0000000), wk =   0.0034722
        k(  409) = (  -0.2916667   0.2155441   0.0000000), wk =   0.0034722
        k(  410) = (  -0.2916667   0.2771281   0.0000000), wk =   0.0034722
        k(  411) = (  -0.2916667   0.3387122   0.0000000), wk =   0.0034722
        k(  412) = (  -0.2916667   0.4002962   0.0000000), wk =   0.0034722
        k(  413) = (  -0.2916667   0.4618802   0.0000000), wk =   0.0034722
        k(  414) = (  -0.2916667   0.5234643   0.0000000), wk =   0.0034722
        k(  415) = (  -0.2916667   0.5850483   0.0000000), wk =   0.0034722
        k(  416) = (  -0.2916667   0.6466323   0.0000000), wk =   0.0034722
        k(  417) = (  -0.2916667   0.7082164   0.0000000), wk =   0.0034722
        k(  418) = (  -0.2916667   0.7698004   0.0000000), wk =   0.0034722
        k(  419) = (  -0.2916667   0.8313844   0.0000000), wk =   0.0034722
        k(  420) = (  -0.2916667   0.8929685   0.0000000), wk =   0.0034722
        k(  421) = (  -0.2916667  -0.5234643   0.0000000), wk =   0.0034722
        k(  422) = (  -0.2916667  -0.4618802   0.0000000), wk =   0.0034722
        k(  423) = (  -0.2916667  -0.4002962   0.0000000), wk =   0.0034722
        k(  424) = (  -0.2916667  -0.3387122   0.0000000), wk =   0.0034722
        k(  425) = (  -0.2916667  -0.2771281   0.0000000), wk =   0.0034722
        k(  426) = (  -0.2916667  -0.2155441   0.0000000), wk =   0.0034722
        k(  427) = (  -0.2916667  -0.1539601   0.0000000), wk =   0.0034722
        k(  428) = (  -0.2916667  -0.0923760   0.0000000), wk =   0.0034722
        k(  429) = (  -0.2916667  -0.0307920   0.0000000), wk =   0.0034722
        k(  430) = (  -0.2916667   0.0307920   0.0000000), wk =   0.0034722
        k(  431) = (  -0.2916667   0.0923760   0.0000000), wk =   0.0034722
        k(  432) = (  -0.2916667   0.1539601   0.0000000), wk =   0.0034722
        k(  433) = (  -0.2500000   0.1847521   0.0000000), wk =   0.0034722
        k(  434) = (  -0.2500000   0.2463361   0.0000000), wk =   0.0034722
        k(  435) = (  -0.2500000   0.3079202   0.0000000), wk =   0.0034722
        k(  436) = (  -0.2500000   0.3695042   0.0000000), wk =   0.0034722
        k(  437) = (  -0.2500000   0.4310882   0.0000000), wk =   0.0034722
        k(  438) = (  -0.2500000   0.4926723   0.0000000), wk =   0.0034722
        k(  439) = (  -0.2500000   0.5542563   0.0000000), wk =   0.0034722
        k(  440) = (  -0.2500000   0.6158403   0.0000000), wk =   0.0034722
        k(  441) = (  -0.2500000   0.6774244   0.0000000), wk =   0.0034722
        k(  442) = (  -0.2500000   0.7390084   0.0000000), wk =   0.0034722
        k(  443) = (  -0.2500000   0.8005924   0.0000000), wk =   0.0034722
        k(  444) = (  -0.2500000   0.8621764   0.0000000), wk =   0.0034722
        k(  445) = (  -0.2500000  -0.5542563   0.0000000), wk =   0.0034722
        k(  446) = (  -0.2500000  -0.4926723   0.0000000), wk =   0.0034722
        k(  447) = (  -0.2500000  -0.4310882   0.0000000), wk =   0.0034722
        k(  448) = (  -0.2500000  -0.3695042   0.0000000), wk =   0.0034722
        k(  449) = (  -0.2500000  -0.3079202   0.0000000), wk =   0.0034722
        k(  450) = (  -0.2500000  -0.2463361   0.0000000), wk =   0.0034722
        k(  451) = (  -0.2500000  -0.1847521   0.0000000), wk =   0.0034722
        k(  452) = (  -0.2500000  -0.1231681   0.0000000), wk =   0.0034722
        k(  453) = (  -0.2500000  -0.0615840   0.0000000), wk =   0.0034722
        k(  454) = (  -0.2500000   0.0000000   0.0000000), wk =   0.0034722
        k(  455) = (  -0.2500000   0.0615840   0.0000000), wk =   0.0034722
        k(  456) = (  -0.2500000   0.1231681   0.0000000), wk =   0.0034722
        k(  457) = (  -0.2083333   0.1539601   0.0000000), wk =   0.0034722
        k(  458) = (  -0.2083333   0.2155441   0.0000000), wk =   0.0034722
        k(  459) = (  -0.2083333   0.2771281   0.0000000), wk =   0.0034722
        k(  460) = (  -0.2083333   0.3387122   0.0000000), wk =   0.0034722
        k(  461) = (  -0.2083333   0.4002962   0.0000000), wk =   0.0034722
        k(  462) = (  -0.2083333   0.4618802   0.0000000), wk =   0.0034722
        k(  463) = (  -0.2083333   0.5234643   0.0000000), wk =   0.0034722
        k(  464) = (  -0.2083333   0.5850483   0.0000000), wk =   0.0034722
        k(  465) = (  -0.2083333   0.6466323   0.0000000), wk =   0.0034722
        k(  466) = (  -0.2083333   0.7082164   0.0000000), wk =   0.0034722
        k(  467) = (  -0.2083333   0.7698004   0.0000000), wk =   0.0034722
        k(  468) = (  -0.2083333   0.8313844   0.0000000), wk =   0.0034722
        k(  469) = (  -0.2083333  -0.5850483   0.0000000), wk =   0.0034722
        k(  470) = (  -0.2083333  -0.5234643   0.0000000), wk =   0.0034722
        k(  471) = (  -0.2083333  -0.4618802   0.0000000), wk =   0.0034722
        k(  472) = (  -0.2083333  -0.4002962   0.0000000), wk =   0.0034722
        k(  473) = (  -0.2083333  -0.3387122   0.0000000), wk =   0.0034722
        k(  474) = (  -0.2083333  -0.2771281   0.0000000), wk =   0.0034722
        k(  475) = (  -0.2083333  -0.2155441   0.0000000), wk =   0.0034722
        k(  476) = (  -0.2083333  -0.1539601   0.0000000), wk =   0.0034722
        k(  477) = (  -0.2083333  -0.0923760   0.0000000), wk =   0.0034722
        k(  478) = (  -0.2083333  -0.0307920   0.0000000), wk =   0.0034722
        k(  479) = (  -0.2083333   0.0307920   0.0000000), wk =   0.0034722
        k(  480) = (  -0.2083333   0.0923760   0.0000000), wk =   0.0034722
        k(  481) = (  -0.1666667   0.1231681   0.0000000), wk =   0.0034722
        k(  482) = (  -0.1666667   0.1847521   0.0000000), wk =   0.0034722
        k(  483) = (  -0.1666667   0.2463361   0.0000000), wk =   0.0034722
        k(  484) = (  -0.1666667   0.3079202   0.0000000), wk =   0.0034722
        k(  485) = (  -0.1666667   0.3695042   0.0000000), wk =   0.0034722
        k(  486) = (  -0.1666667   0.4310882   0.0000000), wk =   0.0034722
        k(  487) = (  -0.1666667   0.4926723   0.0000000), wk =   0.0034722
        k(  488) = (  -0.1666667   0.5542563   0.0000000), wk =   0.0034722
        k(  489) = (  -0.1666667   0.6158403   0.0000000), wk =   0.0034722
        k(  490) = (  -0.1666667   0.6774244   0.0000000), wk =   0.0034722
        k(  491) = (  -0.1666667   0.7390084   0.0000000), wk =   0.0034722
        k(  492) = (  -0.1666667   0.8005924   0.0000000), wk =   0.0034722
        k(  493) = (  -0.1666667  -0.6158403   0.0000000), wk =   0.0034722
        k(  494) = (  -0.1666667  -0.5542563   0.0000000), wk =   0.0034722
        k(  495) = (  -0.1666667  -0.4926723   0.0000000), wk =   0.0034722
        k(  496) = (  -0.1666667  -0.4310882   0.0000000), wk =   0.0034722
        k(  497) = (  -0.1666667  -0.3695042   0.0000000), wk =   0.0034722
        k(  498) = (  -0.1666667  -0.3079202   0.0000000), wk =   0.0034722
        k(  499) = (  -0.1666667  -0.2463361   0.0000000), wk =   0.0034722
        k(  500) = (  -0.1666667  -0.1847521   0.0000000), wk =   0.0034722
        k(  501) = (  -0.1666667  -0.1231681   0.0000000), wk =   0.0034722
        k(  502) = (  -0.1666667  -0.0615840   0.0000000), wk =   0.0034722
        k(  503) = (  -0.1666667  -0.0000000   0.0000000), wk =   0.0034722
        k(  504) = (  -0.1666667   0.0615840   0.0000000), wk =   0.0034722
        k(  505) = (  -0.1250000   0.0923760   0.0000000), wk =   0.0034722
        k(  506) = (  -0.1250000   0.1539601   0.0000000), wk =   0.0034722
        k(  507) = (  -0.1250000   0.2155441   0.0000000), wk =   0.0034722
        k(  508) = (  -0.1250000   0.2771281   0.0000000), wk =   0.0034722
        k(  509) = (  -0.1250000   0.3387122   0.0000000), wk =   0.0034722
        k(  510) = (  -0.1250000   0.4002962   0.0000000), wk =   0.0034722
        k(  511) = (  -0.1250000   0.4618802   0.0000000), wk =   0.0034722
        k(  512) = (  -0.1250000   0.5234643   0.0000000), wk =   0.0034722
        k(  513) = (  -0.1250000   0.5850483   0.0000000), wk =   0.0034722
        k(  514) = (  -0.1250000   0.6466323   0.0000000), wk =   0.0034722
        k(  515) = (  -0.1250000   0.7082164   0.0000000), wk =   0.0034722
        k(  516) = (  -0.1250000   0.7698004   0.0000000), wk =   0.0034722
        k(  517) = (  -0.1250000  -0.6466323   0.0000000), wk =   0.0034722
        k(  518) = (  -0.1250000  -0.5850483   0.0000000), wk =   0.0034722
        k(  519) = (  -0.1250000  -0.5234643   0.0000000), wk =   0.0034722
        k(  520) = (  -0.1250000  -0.4618802   0.0000000), wk =   0.0034722
        k(  521) = (  -0.1250000  -0.4002962   0.0000000), wk =   0.0034722
        k(  522) = (  -0.1250000  -0.3387122   0.0000000), wk =   0.0034722
        k(  523) = (  -0.1250000  -0.2771281   0.0000000), wk =   0.0034722
        k(  524) = (  -0.1250000  -0.2155441   0.0000000), wk =   0.0034722
        k(  525) = (  -0.1250000  -0.1539601   0.0000000), wk =   0.0034722
        k(  526) = (  -0.1250000  -0.0923760   0.0000000), wk =   0.0034722
        k(  527) = (  -0.1250000  -0.0307920   0.0000000), wk =   0.0034722
        k(  528) = (  -0.1250000   0.0307920   0.0000000), wk =   0.0034722
        k(  529) = (  -0.0833333   0.0615840   0.0000000), wk =   0.0034722
        k(  530) = (  -0.0833333   0.1231681   0.0000000), wk =   0.0034722
        k(  531) = (  -0.0833333   0.1847521   0.0000000), wk =   0.0034722
        k(  532) = (  -0.0833333   0.2463361   0.0000000), wk =   0.0034722
        k(  533) = (  -0.0833333   0.3079202   0.0000000), wk =   0.0034722
        k(  534) = (  -0.0833333   0.3695042   0.0000000), wk =   0.0034722
        k(  535) = (  -0.0833333   0.4310882   0.0000000), wk =   0.0034722
        k(  536) = (  -0.0833333   0.4926723   0.0000000), wk =   0.0034722
        k(  537) = (  -0.0833333   0.5542563   0.0000000), wk =   0.0034722
        k(  538) = (  -0.0833333   0.6158403   0.0000000), wk =   0.0034722
        k(  539) = (  -0.0833333   0.6774244   0.0000000), wk =   0.0034722
        k(  540) = (  -0.0833333   0.7390084   0.0000000), wk =   0.0034722
        k(  541) = (  -0.0833333  -0.6774244   0.0000000), wk =   0.0034722
        k(  542) = (  -0.0833333  -0.6158403   0.0000000), wk =   0.0034722
        k(  543) = (  -0.0833333  -0.5542563   0.0000000), wk =   0.0034722
        k(  544) = (  -0.0833333  -0.4926723   0.0000000), wk =   0.0034722
        k(  545) = (  -0.0833333  -0.4310882   0.0000000), wk =   0.0034722
        k(  546) = (  -0.0833333  -0.3695042   0.0000000), wk =   0.0034722
        k(  547) = (  -0.0833333  -0.3079202   0.0000000), wk =   0.0034722
        k(  548) = (  -0.0833333  -0.2463361   0.0000000), wk =   0.0034722
        k(  549) = (  -0.0833333  -0.1847521   0.0000000), wk =   0.0034722
        k(  550) = (  -0.0833333  -0.1231681   0.0000000), wk =   0.0034722
        k(  551) = (  -0.0833333  -0.0615840   0.0000000), wk =   0.0034722
        k(  552) = (  -0.0833333   0.0000000   0.0000000), wk =   0.0034722
        k(  553) = (  -0.0416667   0.0307920   0.0000000), wk =   0.0034722
        k(  554) = (  -0.0416667   0.0923760   0.0000000), wk =   0.0034722
        k(  555) = (  -0.0416667   0.1539601   0.0000000), wk =   0.0034722
        k(  556) = (  -0.0416667   0.2155441   0.0000000), wk =   0.0034722
        k(  557) = (  -0.0416667   0.2771281   0.0000000), wk =   0.0034722
        k(  558) = (  -0.0416667   0.3387122   0.0000000), wk =   0.0034722
        k(  559) = (  -0.0416667   0.4002962   0.0000000), wk =   0.0034722
        k(  560) = (  -0.0416667   0.4618802   0.0000000), wk =   0.0034722
        k(  561) = (  -0.0416667   0.5234643   0.0000000), wk =   0.0034722
        k(  562) = (  -0.0416667   0.5850483   0.0000000), wk =   0.0034722
        k(  563) = (  -0.0416667   0.6466323   0.0000000), wk =   0.0034722
        k(  564) = (  -0.0416667   0.7082164   0.0000000), wk =   0.0034722
        k(  565) = (  -0.0416667  -0.7082164   0.0000000), wk =   0.0034722
        k(  566) = (  -0.0416667  -0.6466323   0.0000000), wk =   0.0034722
        k(  567) = (  -0.0416667  -0.5850483   0.0000000), wk =   0.0034722
        k(  568) = (  -0.0416667  -0.5234643   0.0000000), wk =   0.0034722
        k(  569) = (  -0.0416667  -0.4618802   0.0000000), wk =   0.0034722
        k(  570) = (  -0.0416667  -0.4002962   0.0000000), wk =   0.0034722
        k(  571) = (  -0.0416667  -0.3387122   0.0000000), wk =   0.0034722
        k(  572) = (  -0.0416667  -0.2771281   0.0000000), wk =   0.0034722
        k(  573) = (  -0.0416667  -0.2155441   0.0000000), wk =   0.0034722
        k(  574) = (  -0.0416667  -0.1539601   0.0000000), wk =   0.0034722
        k(  575) = (  -0.0416667  -0.0923760   0.0000000), wk =   0.0034722
        k(  576) = (  -0.0416667  -0.0307920   0.0000000), wk =   0.0034722

                       cryst. coord.
        k(    1) = (   0.0000000   0.0000000   0.0000000), wk =   0.0034722
        k(    2) = (   0.0000000   0.0416667   0.0000000), wk =   0.0034722
        k(    3) = (   0.0000000   0.0833333   0.0000000), wk =   0.0034722
        k(    4) = (   0.0000000   0.1250000   0.0000000), wk =   0.0034722
        k(    5) = (   0.0000000   0.1666667   0.0000000), wk =   0.0034722
        k(    6) = (   0.0000000   0.2083333   0.0000000), wk =   0.0034722
        k(    7) = (   0.0000000   0.2500000   0.0000000), wk =   0.0034722
        k(    8) = (   0.0000000   0.2916667   0.0000000), wk =   0.0034722
        k(    9) = (   0.0000000   0.3333333   0.0000000), wk =   0.0034722
        k(   10) = (   0.0000000   0.3750000   0.0000000), wk =   0.0034722
        k(   11) = (   0.0000000   0.4166667   0.0000000), wk =   0.0034722
        k(   12) = (   0.0000000   0.4583333   0.0000000), wk =   0.0034722
        k(   13) = (   0.0000000  -0.5000000   0.0000000), wk =   0.0034722
        k(   14) = (   0.0000000  -0.4583333   0.0000000), wk =   0.0034722
        k(   15) = (   0.0000000  -0.4166667   0.0000000), wk =   0.0034722
        k(   16) = (   0.0000000  -0.3750000   0.0000000), wk =   0.0034722
        k(   17) = (   0.0000000  -0.3333333   0.0000000), wk =   0.0034722
        k(   18) = (   0.0000000  -0.2916667   0.0000000), wk =   0.0034722
        k(   19) = (   0.0000000  -0.2500000   0.0000000), wk =   0.0034722
        k(   20) = (   0.0000000  -0.2083333   0.0000000), wk =   0.0034722
        k(   21) = (   0.0000000  -0.1666667   0.0000000), wk =   0.0034722
        k(   22) = (   0.0000000  -0.1250000   0.0000000), wk =   0.0034722
        k(   23) = (   0.0000000  -0.0833333   0.0000000), wk =   0.0034722
        k(   24) = (   0.0000000  -0.0416667   0.0000000), wk =   0.0034722
        k(   25) = (   0.0416667   0.0000000   0.0000000), wk =   0.0034722
        k(   26) = (   0.0416667   0.0416667   0.0000000), wk =   0.0034722
        k(   27) = (   0.0416667   0.0833333   0.0000000), wk =   0.0034722
        k(   28) = (   0.0416667   0.1250000   0.0000000), wk =   0.0034722
        k(   29) = (   0.0416667   0.1666667   0.0000000), wk =   0.0034722
        k(   30) = (   0.0416667   0.2083333   0.0000000), wk =   0.0034722
        k(   31) = (   0.0416667   0.2500000   0.0000000), wk =   0.0034722
        k(   32) = (   0.0416667   0.2916667   0.0000000), wk =   0.0034722
        k(   33) = (   0.0416667   0.3333333   0.0000000), wk =   0.0034722
        k(   34) = (   0.0416667   0.3750000   0.0000000), wk =   0.0034722
        k(   35) = (   0.0416667   0.4166667   0.0000000), wk =   0.0034722
        k(   36) = (   0.0416667   0.4583333   0.0000000), wk =   0.0034722
        k(   37) = (   0.0416667  -0.5000000   0.0000000), wk =   0.0034722
        k(   38) = (   0.0416667  -0.4583333   0.0000000), wk =   0.0034722
        k(   39) = (   0.0416667  -0.4166667   0.0000000), wk =   0.0034722
        k(   40) = (   0.0416667  -0.3750000   0.0000000), wk =   0.0034722
        k(   41) = (   0.0416667  -0.3333333   0.0000000), wk =   0.0034722
        k(   42) = (   0.0416667  -0.2916667   0.0000000), wk =   0.0034722
        k(   43) = (   0.0416667  -0.2500000   0.0000000), wk =   0.0034722
        k(   44) = (   0.0416667  -0.2083333   0.0000000), wk =   0.0034722
        k(   45) = (   0.0416667  -0.1666667   0.0000000), wk =   0.0034722
        k(   46) = (   0.0416667  -0.1250000   0.0000000), wk =   0.0034722
        k(   47) = (   0.0416667  -0.0833333   0.0000000), wk =   0.0034722
        k(   48) = (   0.0416667  -0.0416667   0.0000000), wk =   0.0034722
        k(   49) = (   0.0833333   0.0000000   0.0000000), wk =   0.0034722
        k(   50) = (   0.0833333   0.0416667   0.0000000), wk =   0.0034722
        k(   51) = (   0.0833333   0.0833333   0.0000000), wk =   0.0034722
        k(   52) = (   0.0833333   0.1250000   0.0000000), wk =   0.0034722
        k(   53) = (   0.0833333   0.1666667   0.0000000), wk =   0.0034722
        k(   54) = (   0.0833333   0.2083333   0.0000000), wk =   0.0034722
        k(   55) = (   0.0833333   0.2500000   0.0000000), wk =   0.0034722
        k(   56) = (   0.0833333   0.2916667   0.0000000), wk =   0.0034722
        k(   57) = (   0.0833333   0.3333333   0.0000000), wk =   0.0034722
        k(   58) = (   0.0833333   0.3750000   0.0000000), wk =   0.0034722
        k(   59) = (   0.0833333   0.4166667   0.0000000), wk =   0.0034722
        k(   60) = (   0.0833333   0.4583333   0.0000000), wk =   0.0034722
        k(   61) = (   0.0833333  -0.5000000   0.0000000), wk =   0.0034722
        k(   62) = (   0.0833333  -0.4583333   0.0000000), wk =   0.0034722
        k(   63) = (   0.0833333  -0.4166667   0.0000000), wk =   0.0034722
        k(   64) = (   0.0833333  -0.3750000   0.0000000), wk =   0.0034722
        k(   65) = (   0.0833333  -0.3333333   0.0000000), wk =   0.0034722
        k(   66) = (   0.0833333  -0.2916667   0.0000000), wk =   0.0034722
        k(   67) = (   0.0833333  -0.2500000   0.0000000), wk =   0.0034722
        k(   68) = (   0.0833333  -0.2083333   0.0000000), wk =   0.0034722
        k(   69) = (   0.0833333  -0.1666667   0.0000000), wk =   0.0034722
        k(   70) = (   0.0833333  -0.1250000   0.0000000), wk =   0.0034722
        k(   71) = (   0.0833333  -0.0833333   0.0000000), wk =   0.0034722
        k(   72) = (   0.0833333  -0.0416667   0.0000000), wk =   0.0034722
        k(   73) = (   0.1250000   0.0000000   0.0000000), wk =   0.0034722
        k(   74) = (   0.1250000   0.0416667   0.0000000), wk =   0.0034722
        k(   75) = (   0.1250000   0.0833333   0.0000000), wk =   0.0034722
        k(   76) = (   0.1250000   0.1250000   0.0000000), wk =   0.0034722
        k(   77) = (   0.1250000   0.1666667   0.0000000), wk =   0.0034722
        k(   78) = (   0.1250000   0.2083333   0.0000000), wk =   0.0034722
        k(   79) = (   0.1250000   0.2500000   0.0000000), wk =   0.0034722
        k(   80) = (   0.1250000   0.2916667   0.0000000), wk =   0.0034722
        k(   81) = (   0.1250000   0.3333333   0.0000000), wk =   0.0034722
        k(   82) = (   0.1250000   0.3750000   0.0000000), wk =   0.0034722
        k(   83) = (   0.1250000   0.4166667   0.0000000), wk =   0.0034722
        k(   84) = (   0.1250000   0.4583333   0.0000000), wk =   0.0034722
        k(   85) = (   0.1250000  -0.5000000   0.0000000), wk =   0.0034722
        k(   86) = (   0.1250000  -0.4583333   0.0000000), wk =   0.0034722
        k(   87) = (   0.1250000  -0.4166667   0.0000000), wk =   0.0034722
        k(   88) = (   0.1250000  -0.3750000   0.0000000), wk =   0.0034722
        k(   89) = (   0.1250000  -0.3333333   0.0000000), wk =   0.0034722
        k(   90) = (   0.1250000  -0.2916667   0.0000000), wk =   0.0034722
        k(   91) = (   0.1250000  -0.2500000   0.0000000), wk =   0.0034722
        k(   92) = (   0.1250000  -0.2083333   0.0000000), wk =   0.0034722
        k(   93) = (   0.1250000  -0.1666667   0.0000000), wk =   0.0034722
        k(   94) = (   0.1250000  -0.1250000   0.0000000), wk =   0.0034722
        k(   95) = (   0.1250000  -0.0833333   0.0000000), wk =   0.0034722
        k(   96) = (   0.1250000  -0.0416667   0.0000000), wk =   0.0034722
        k(   97) = (   0.1666667   0.0000000   0.0000000), wk =   0.0034722
        k(   98) = (   0.1666667   0.0416667   0.0000000), wk =   0.0034722
        k(   99) = (   0.1666667   0.0833333   0.0000000), wk =   0.0034722
        k(  100) = (   0.1666667   0.1250000   0.0000000), wk =   0.0034722
        k(  101) = (   0.1666667   0.1666667   0.0000000), wk =   0.0034722
        k(  102) = (   0.1666667   0.2083333   0.0000000), wk =   0.0034722
        k(  103) = (   0.1666667   0.2500000   0.0000000), wk =   0.0034722
        k(  104) = (   0.1666667   0.2916667   0.0000000), wk =   0.0034722
        k(  105) = (   0.1666667   0.3333333   0.0000000), wk =   0.0034722
        k(  106) = (   0.1666667   0.3750000   0.0000000), wk =   0.0034722
        k(  107) = (   0.1666667   0.4166667   0.0000000), wk =   0.0034722
        k(  108) = (   0.1666667   0.4583333   0.0000000), wk =   0.0034722
        k(  109) = (   0.1666667  -0.5000000   0.0000000), wk =   0.0034722
        k(  110) = (   0.1666667  -0.4583333   0.0000000), wk =   0.0034722
        k(  111) = (   0.1666667  -0.4166667   0.0000000), wk =   0.0034722
        k(  112) = (   0.1666667  -0.3750000   0.0000000), wk =   0.0034722
        k(  113) = (   0.1666667  -0.3333333   0.0000000), wk =   0.0034722
        k(  114) = (   0.1666667  -0.2916667   0.0000000), wk =   0.0034722
        k(  115) = (   0.1666667  -0.2500000   0.0000000), wk =   0.0034722
        k(  116) = (   0.1666667  -0.2083333   0.0000000), wk =   0.0034722
        k(  117) = (   0.1666667  -0.1666667   0.0000000), wk =   0.0034722
        k(  118) = (   0.1666667  -0.1250000   0.0000000), wk =   0.0034722
        k(  119) = (   0.1666667  -0.0833333   0.0000000), wk =   0.0034722
        k(  120) = (   0.1666667  -0.0416667   0.0000000), wk =   0.0034722
        k(  121) = (   0.2083333   0.0000000   0.0000000), wk =   0.0034722
        k(  122) = (   0.2083333   0.0416667   0.0000000), wk =   0.0034722
        k(  123) = (   0.2083333   0.0833333   0.0000000), wk =   0.0034722
        k(  124) = (   0.2083333   0.1250000   0.0000000), wk =   0.0034722
        k(  125) = (   0.2083333   0.1666667   0.0000000), wk =   0.0034722
        k(  126) = (   0.2083333   0.2083333   0.0000000), wk =   0.0034722
        k(  127) = (   0.2083333   0.2500000   0.0000000), wk =   0.0034722
        k(  128) = (   0.2083333   0.2916667   0.0000000), wk =   0.0034722
        k(  129) = (   0.2083333   0.3333333   0.0000000), wk =   0.0034722
        k(  130) = (   0.2083333   0.3750000   0.0000000), wk =   0.0034722
        k(  131) = (   0.2083333   0.4166667   0.0000000), wk =   0.0034722
        k(  132) = (   0.2083333   0.4583333   0.0000000), wk =   0.0034722
        k(  133) = (   0.2083333  -0.5000000   0.0000000), wk =   0.0034722
        k(  134) = (   0.2083333  -0.4583333   0.0000000), wk =   0.0034722
        k(  135) = (   0.2083333  -0.4166667   0.0000000), wk =   0.0034722
        k(  136) = (   0.2083333  -0.3750000   0.0000000), wk =   0.0034722
        k(  137) = (   0.2083333  -0.3333333   0.0000000), wk =   0.0034722
        k(  138) = (   0.2083333  -0.2916667   0.0000000), wk =   0.0034722
        k(  139) = (   0.2083333  -0.2500000   0.0000000), wk =   0.0034722
        k(  140) = (   0.2083333  -0.2083333   0.0000000), wk =   0.0034722
        k(  141) = (   0.2083333  -0.1666667   0.0000000), wk =   0.0034722
        k(  142) = (   0.2083333  -0.1250000   0.0000000), wk =   0.0034722
        k(  143) = (   0.2083333  -0.0833333   0.0000000), wk =   0.0034722
        k(  144) = (   0.2083333  -0.0416667   0.0000000), wk =   0.0034722
        k(  145) = (   0.2500000   0.0000000   0.0000000), wk =   0.0034722
        k(  146) = (   0.2500000   0.0416667   0.0000000), wk =   0.0034722
        k(  147) = (   0.2500000   0.0833333   0.0000000), wk =   0.0034722
        k(  148) = (   0.2500000   0.1250000   0.0000000), wk =   0.0034722
        k(  149) = (   0.2500000   0.1666667   0.0000000), wk =   0.0034722
        k(  150) = (   0.2500000   0.2083333   0.0000000), wk =   0.0034722
        k(  151) = (   0.2500000   0.2500000   0.0000000), wk =   0.0034722
        k(  152) = (   0.2500000   0.2916667   0.0000000), wk =   0.0034722
        k(  153) = (   0.2500000   0.3333333   0.0000000), wk =   0.0034722
        k(  154) = (   0.2500000   0.3750000   0.0000000), wk =   0.0034722
        k(  155) = (   0.2500000   0.4166667   0.0000000), wk =   0.0034722
        k(  156) = (   0.2500000   0.4583333   0.0000000), wk =   0.0034722
        k(  157) = (   0.2500000  -0.5000000   0.0000000), wk =   0.0034722
        k(  158) = (   0.2500000  -0.4583333   0.0000000), wk =   0.0034722
        k(  159) = (   0.2500000  -0.4166667   0.0000000), wk =   0.0034722
        k(  160) = (   0.2500000  -0.3750000   0.0000000), wk =   0.0034722
        k(  161) = (   0.2500000  -0.3333333   0.0000000), wk =   0.0034722
        k(  162) = (   0.2500000  -0.2916667   0.0000000), wk =   0.0034722
        k(  163) = (   0.2500000  -0.2500000   0.0000000), wk =   0.0034722
        k(  164) = (   0.2500000  -0.2083333   0.0000000), wk =   0.0034722
        k(  165) = (   0.2500000  -0.1666667   0.0000000), wk =   0.0034722
        k(  166) = (   0.2500000  -0.1250000   0.0000000), wk =   0.0034722
        k(  167) = (   0.2500000  -0.0833333   0.0000000), wk =   0.0034722
        k(  168) = (   0.2500000  -0.0416667   0.0000000), wk =   0.0034722
        k(  169) = (   0.2916667   0.0000000   0.0000000), wk =   0.0034722
        k(  170) = (   0.2916667   0.0416667   0.0000000), wk =   0.0034722
        k(  171) = (   0.2916667   0.0833333   0.0000000), wk =   0.0034722
        k(  172) = (   0.2916667   0.1250000   0.0000000), wk =   0.0034722
        k(  173) = (   0.2916667   0.1666667   0.0000000), wk =   0.0034722
        k(  174) = (   0.2916667   0.2083333   0.0000000), wk =   0.0034722
        k(  175) = (   0.2916667   0.2500000   0.0000000), wk =   0.0034722
        k(  176) = (   0.2916667   0.2916667   0.0000000), wk =   0.0034722
        k(  177) = (   0.2916667   0.3333333   0.0000000), wk =   0.0034722
        k(  178) = (   0.2916667   0.3750000   0.0000000), wk =   0.0034722
        k(  179) = (   0.2916667   0.4166667   0.0000000), wk =   0.0034722
        k(  180) = (   0.2916667   0.4583333   0.0000000), wk =   0.0034722
        k(  181) = (   0.2916667  -0.5000000   0.0000000), wk =   0.0034722
        k(  182) = (   0.2916667  -0.4583333   0.0000000), wk =   0.0034722
        k(  183) = (   0.2916667  -0.4166667   0.0000000), wk =   0.0034722
        k(  184) = (   0.2916667  -0.3750000   0.0000000), wk =   0.0034722
        k(  185) = (   0.2916667  -0.3333333   0.0000000), wk =   0.0034722
        k(  186) = (   0.2916667  -0.2916667   0.0000000), wk =   0.0034722
        k(  187) = (   0.2916667  -0.2500000   0.0000000), wk =   0.0034722
        k(  188) = (   0.2916667  -0.2083333   0.0000000), wk =   0.0034722
        k(  189) = (   0.2916667  -0.1666667   0.0000000), wk =   0.0034722
        k(  190) = (   0.2916667  -0.1250000   0.0000000), wk =   0.0034722
        k(  191) = (   0.2916667  -0.0833333   0.0000000), wk =   0.0034722
        k(  192) = (   0.2916667  -0.0416667   0.0000000), wk =   0.0034722
        k(  193) = (   0.3333333   0.0000000   0.0000000), wk =   0.0034722
        k(  194) = (   0.3333333   0.0416667   0.0000000), wk =   0.0034722
        k(  195) = (   0.3333333   0.0833333   0.0000000), wk =   0.0034722
        k(  196) = (   0.3333333   0.1250000   0.0000000), wk =   0.0034722
        k(  197) = (   0.3333333   0.1666667   0.0000000), wk =   0.0034722
        k(  198) = (   0.3333333   0.2083333   0.0000000), wk =   0.0034722
        k(  199) = (   0.3333333   0.2500000   0.0000000), wk =   0.0034722
        k(  200) = (   0.3333333   0.2916667   0.0000000), wk =   0.0034722
        k(  201) = (   0.3333333   0.3333333   0.0000000), wk =   0.0034722
        k(  202) = (   0.3333333   0.3750000   0.0000000), wk =   0.0034722
        k(  203) = (   0.3333333   0.4166667   0.0000000), wk =   0.0034722
        k(  204) = (   0.3333333   0.4583333   0.0000000), wk =   0.0034722
        k(  205) = (   0.3333333  -0.5000000   0.0000000), wk =   0.0034722
        k(  206) = (   0.3333333  -0.4583333   0.0000000), wk =   0.0034722
        k(  207) = (   0.3333333  -0.4166667   0.0000000), wk =   0.0034722
        k(  208) = (   0.3333333  -0.3750000   0.0000000), wk =   0.0034722
        k(  209) = (   0.3333333  -0.3333333   0.0000000), wk =   0.0034722
        k(  210) = (   0.3333333  -0.2916667   0.0000000), wk =   0.0034722
        k(  211) = (   0.3333333  -0.2500000   0.0000000), wk =   0.0034722
        k(  212) = (   0.3333333  -0.2083333   0.0000000), wk =   0.0034722
        k(  213) = (   0.3333333  -0.1666667   0.0000000), wk =   0.0034722
        k(  214) = (   0.3333333  -0.1250000   0.0000000), wk =   0.0034722
        k(  215) = (   0.3333333  -0.0833333   0.0000000), wk =   0.0034722
        k(  216) = (   0.3333333  -0.0416667   0.0000000), wk =   0.0034722
        k(  217) = (   0.3750000   0.0000000   0.0000000), wk =   0.0034722
        k(  218) = (   0.3750000   0.0416667   0.0000000), wk =   0.0034722
        k(  219) = (   0.3750000   0.0833333   0.0000000), wk =   0.0034722
        k(  220) = (   0.3750000   0.1250000   0.0000000), wk =   0.0034722
        k(  221) = (   0.3750000   0.1666667   0.0000000), wk =   0.0034722
        k(  222) = (   0.3750000   0.2083333   0.0000000), wk =   0.0034722
        k(  223) = (   0.3750000   0.2500000   0.0000000), wk =   0.0034722
        k(  224) = (   0.3750000   0.2916667   0.0000000), wk =   0.0034722
        k(  225) = (   0.3750000   0.3333333   0.0000000), wk =   0.0034722
        k(  226) = (   0.3750000   0.3750000   0.0000000), wk =   0.0034722
        k(  227) = (   0.3750000   0.4166667   0.0000000), wk =   0.0034722
        k(  228) = (   0.3750000   0.4583333   0.0000000), wk =   0.0034722
        k(  229) = (   0.3750000  -0.5000000   0.0000000), wk =   0.0034722
        k(  230) = (   0.3750000  -0.4583333   0.0000000), wk =   0.0034722
        k(  231) = (   0.3750000  -0.4166667   0.0000000), wk =   0.0034722
        k(  232) = (   0.3750000  -0.3750000   0.0000000), wk =   0.0034722
        k(  233) = (   0.3750000  -0.3333333   0.0000000), wk =   0.0034722
        k(  234) = (   0.3750000  -0.2916667   0.0000000), wk =   0.0034722
        k(  235) = (   0.3750000  -0.2500000   0.0000000), wk =   0.0034722
        k(  236) = (   0.3750000  -0.2083333   0.0000000), wk =   0.0034722
        k(  237) = (   0.3750000  -0.1666667   0.0000000), wk =   0.0034722
        k(  238) = (   0.3750000  -0.1250000   0.0000000), wk =   0.0034722
        k(  239) = (   0.3750000  -0.0833333   0.0000000), wk =   0.0034722
        k(  240) = (   0.3750000  -0.0416667   0.0000000), wk =   0.0034722
        k(  241) = (   0.4166667   0.0000000   0.0000000), wk =   0.0034722
        k(  242) = (   0.4166667   0.0416667   0.0000000), wk =   0.0034722
        k(  243) = (   0.4166667   0.0833333   0.0000000), wk =   0.0034722
        k(  244) = (   0.4166667   0.1250000   0.0000000), wk =   0.0034722
        k(  245) = (   0.4166667   0.1666667   0.0000000), wk =   0.0034722
        k(  246) = (   0.4166667   0.2083333   0.0000000), wk =   0.0034722
        k(  247) = (   0.4166667   0.2500000   0.0000000), wk =   0.0034722
        k(  248) = (   0.4166667   0.2916667   0.0000000), wk =   0.0034722
        k(  249) = (   0.4166667   0.3333333   0.0000000), wk =   0.0034722
        k(  250) = (   0.4166667   0.3750000   0.0000000), wk =   0.0034722
        k(  251) = (   0.4166667   0.4166667   0.0000000), wk =   0.0034722
        k(  252) = (   0.4166667   0.4583333   0.0000000), wk =   0.0034722
        k(  253) = (   0.4166667  -0.5000000   0.0000000), wk =   0.0034722
        k(  254) = (   0.4166667  -0.4583333   0.0000000), wk =   0.0034722
        k(  255) = (   0.4166667  -0.4166667   0.0000000), wk =   0.0034722
        k(  256) = (   0.4166667  -0.3750000   0.0000000), wk =   0.0034722
        k(  257) = (   0.4166667  -0.3333333   0.0000000), wk =   0.0034722
        k(  258) = (   0.4166667  -0.2916667   0.0000000), wk =   0.0034722
        k(  259) = (   0.4166667  -0.2500000   0.0000000), wk =   0.0034722
        k(  260) = (   0.4166667  -0.2083333   0.0000000), wk =   0.0034722
        k(  261) = (   0.4166667  -0.1666667   0.0000000), wk =   0.0034722
        k(  262) = (   0.4166667  -0.1250000   0.0000000), wk =   0.0034722
        k(  263) = (   0.4166667  -0.0833333   0.0000000), wk =   0.0034722
        k(  264) = (   0.4166667  -0.0416667   0.0000000), wk =   0.0034722
        k(  265) = (   0.4583333  -0.0000000   0.0000000), wk =   0.0034722
        k(  266) = (   0.4583333   0.0416667   0.0000000), wk =   0.0034722
        k(  267) = (   0.4583333   0.0833333   0.0000000), wk =   0.0034722
        k(  268) = (   0.4583333   0.1250000   0.0000000), wk =   0.0034722
        k(  269) = (   0.4583333   0.1666667   0.0000000), wk =   0.0034722
        k(  270) = (   0.4583333   0.2083333   0.0000000), wk =   0.0034722
        k(  271) = (   0.4583333   0.2500000   0.0000000), wk =   0.0034722
        k(  272) = (   0.4583333   0.2916667   0.0000000), wk =   0.0034722
        k(  273) = (   0.4583333   0.3333333   0.0000000), wk =   0.0034722
        k(  274) = (   0.4583333   0.3750000   0.0000000), wk =   0.0034722
        k(  275) = (   0.4583333   0.4166667   0.0000000), wk =   0.0034722
        k(  276) = (   0.4583333   0.4583333   0.0000000), wk =   0.0034722
        k(  277) = (   0.4583333  -0.5000000   0.0000000), wk =   0.0034722
        k(  278) = (   0.4583333  -0.4583333   0.0000000), wk =   0.0034722
        k(  279) = (   0.4583333  -0.4166667   0.0000000), wk =   0.0034722
        k(  280) = (   0.4583333  -0.3750000   0.0000000), wk =   0.0034722
        k(  281) = (   0.4583333  -0.3333333   0.0000000), wk =   0.0034722
        k(  282) = (   0.4583333  -0.2916667   0.0000000), wk =   0.0034722
        k(  283) = (   0.4583333  -0.2500000   0.0000000), wk =   0.0034722
        k(  284) = (   0.4583333  -0.2083333   0.0000000), wk =   0.0034722
        k(  285) = (   0.4583333  -0.1666667   0.0000000), wk =   0.0034722
        k(  286) = (   0.4583333  -0.1250000   0.0000000), wk =   0.0034722
        k(  287) = (   0.4583333  -0.0833333   0.0000000), wk =   0.0034722
        k(  288) = (   0.4583333  -0.0416667   0.0000000), wk =   0.0034722
        k(  289) = (  -0.5000000   0.0000000   0.0000000), wk =   0.0034722
        k(  290) = (  -0.5000000   0.0416667   0.0000000), wk =   0.0034722
        k(  291) = (  -0.5000000   0.0833333   0.0000000), wk =   0.0034722
        k(  292) = (  -0.5000000   0.1250000   0.0000000), wk =   0.0034722
        k(  293) = (  -0.5000000   0.1666667   0.0000000), wk =   0.0034722
        k(  294) = (  -0.5000000   0.2083333   0.0000000), wk =   0.0034722
        k(  295) = (  -0.5000000   0.2500000   0.0000000), wk =   0.0034722
        k(  296) = (  -0.5000000   0.2916667   0.0000000), wk =   0.0034722
        k(  297) = (  -0.5000000   0.3333333   0.0000000), wk =   0.0034722
        k(  298) = (  -0.5000000   0.3750000   0.0000000), wk =   0.0034722
        k(  299) = (  -0.5000000   0.4166667   0.0000000), wk =   0.0034722
        k(  300) = (  -0.5000000   0.4583333   0.0000000), wk =   0.0034722
        k(  301) = (  -0.5000000  -0.5000000   0.0000000), wk =   0.0034722
        k(  302) = (  -0.5000000  -0.4583333   0.0000000), wk =   0.0034722
        k(  303) = (  -0.5000000  -0.4166667   0.0000000), wk =   0.0034722
        k(  304) = (  -0.5000000  -0.3750000   0.0000000), wk =   0.0034722
        k(  305) = (  -0.5000000  -0.3333333   0.0000000), wk =   0.0034722
        k(  306) = (  -0.5000000  -0.2916667   0.0000000), wk =   0.0034722
        k(  307) = (  -0.5000000  -0.2500000   0.0000000), wk =   0.0034722
        k(  308) = (  -0.5000000  -0.2083333   0.0000000), wk =   0.0034722
        k(  309) = (  -0.5000000  -0.1666667   0.0000000), wk =   0.0034722
        k(  310) = (  -0.5000000  -0.1250000   0.0000000), wk =   0.0034722
        k(  311) = (  -0.5000000  -0.0833333   0.0000000), wk =   0.0034722
        k(  312) = (  -0.5000000  -0.0416667   0.0000000), wk =   0.0034722
        k(  313) = (  -0.4583333   0.0000000   0.0000000), wk =   0.0034722
        k(  314) = (  -0.4583333   0.0416667   0.0000000), wk =   0.0034722
        k(  315) = (  -0.4583333   0.0833333   0.0000000), wk =   0.0034722
        k(  316) = (  -0.4583333   0.1250000   0.0000000), wk =   0.0034722
        k(  317) = (  -0.4583333   0.1666667   0.0000000), wk =   0.0034722
        k(  318) = (  -0.4583333   0.2083333   0.0000000), wk =   0.0034722
        k(  319) = (  -0.4583333   0.2500000   0.0000000), wk =   0.0034722
        k(  320) = (  -0.4583333   0.2916667   0.0000000), wk =   0.0034722
        k(  321) = (  -0.4583333   0.3333333   0.0000000), wk =   0.0034722
        k(  322) = (  -0.4583333   0.3750000   0.0000000), wk =   0.0034722
        k(  323) = (  -0.4583333   0.4166667   0.0000000), wk =   0.0034722
        k(  324) = (  -0.4583333   0.4583333   0.0000000), wk =   0.0034722
        k(  325) = (  -0.4583333  -0.5000000   0.0000000), wk =   0.0034722
        k(  326) = (  -0.4583333  -0.4583333   0.0000000), wk =   0.0034722
        k(  327) = (  -0.4583333  -0.4166667   0.0000000), wk =   0.0034722
        k(  328) = (  -0.4583333  -0.3750000   0.0000000), wk =   0.0034722
        k(  329) = (  -0.4583333  -0.3333333   0.0000000), wk =   0.0034722
        k(  330) = (  -0.4583333  -0.2916667   0.0000000), wk =   0.0034722
        k(  331) = (  -0.4583333  -0.2500000   0.0000000), wk =   0.0034722
        k(  332) = (  -0.4583333  -0.2083333   0.0000000), wk =   0.0034722
        k(  333) = (  -0.4583333  -0.1666667   0.0000000), wk =   0.0034722
        k(  334) = (  -0.4583333  -0.1250000   0.0000000), wk =   0.0034722
        k(  335) = (  -0.4583333  -0.0833333   0.0000000), wk =   0.0034722
        k(  336) = (  -0.4583333  -0.0416667   0.0000000), wk =   0.0034722
        k(  337) = (  -0.4166667   0.0000000   0.0000000), wk =   0.0034722
        k(  338) = (  -0.4166667   0.0416667   0.0000000), wk =   0.0034722
        k(  339) = (  -0.4166667   0.0833333   0.0000000), wk =   0.0034722
        k(  340) = (  -0.4166667   0.1250000   0.0000000), wk =   0.0034722
        k(  341) = (  -0.4166667   0.1666667   0.0000000), wk =   0.0034722
        k(  342) = (  -0.4166667   0.2083333   0.0000000), wk =   0.0034722
        k(  343) = (  -0.4166667   0.2500000   0.0000000), wk =   0.0034722
        k(  344) = (  -0.4166667   0.2916667   0.0000000), wk =   0.0034722
        k(  345) = (  -0.4166667   0.3333333   0.0000000), wk =   0.0034722
        k(  346) = (  -0.4166667   0.3750000   0.0000000), wk =   0.0034722
        k(  347) = (  -0.4166667   0.4166667   0.0000000), wk =   0.0034722
        k(  348) = (  -0.4166667   0.4583333   0.0000000), wk =   0.0034722
        k(  349) = (  -0.4166667  -0.5000000   0.0000000), wk =   0.0034722
        k(  350) = (  -0.4166667  -0.4583333   0.0000000), wk =   0.0034722
        k(  351) = (  -0.4166667  -0.4166667   0.0000000), wk =   0.0034722
        k(  352) = (  -0.4166667  -0.3750000   0.0000000), wk =   0.0034722
        k(  353) = (  -0.4166667  -0.3333333   0.0000000), wk =   0.0034722
        k(  354) = (  -0.4166667  -0.2916667   0.0000000), wk =   0.0034722
        k(  355) = (  -0.4166667  -0.2500000   0.0000000), wk =   0.0034722
        k(  356) = (  -0.4166667  -0.2083333   0.0000000), wk =   0.0034722
        k(  357) = (  -0.4166667  -0.1666667   0.0000000), wk =   0.0034722
        k(  358) = (  -0.4166667  -0.1250000   0.0000000), wk =   0.0034722
        k(  359) = (  -0.4166667  -0.0833333   0.0000000), wk =   0.0034722
        k(  360) = (  -0.4166667  -0.0416667   0.0000000), wk =   0.0034722
        k(  361) = (  -0.3750000   0.0000000   0.0000000), wk =   0.0034722
        k(  362) = (  -0.3750000   0.0416667   0.0000000), wk =   0.0034722
        k(  363) = (  -0.3750000   0.0833333   0.0000000), wk =   0.0034722
        k(  364) = (  -0.3750000   0.1250000   0.0000000), wk =   0.0034722
        k(  365) = (  -0.3750000   0.1666667   0.0000000), wk =   0.0034722
        k(  366) = (  -0.3750000   0.2083333   0.0000000), wk =   0.0034722
        k(  367) = (  -0.3750000   0.2500000   0.0000000), wk =   0.0034722
        k(  368) = (  -0.3750000   0.2916667   0.0000000), wk =   0.0034722
        k(  369) = (  -0.3750000   0.3333333   0.0000000), wk =   0.0034722
        k(  370) = (  -0.3750000   0.3750000   0.0000000), wk =   0.0034722
        k(  371) = (  -0.3750000   0.4166667   0.0000000), wk =   0.0034722
        k(  372) = (  -0.3750000   0.4583333   0.0000000), wk =   0.0034722
        k(  373) = (  -0.3750000  -0.5000000   0.0000000), wk =   0.0034722
        k(  374) = (  -0.3750000  -0.4583333   0.0000000), wk =   0.0034722
        k(  375) = (  -0.3750000  -0.4166667   0.0000000), wk =   0.0034722
        k(  376) = (  -0.3750000  -0.3750000   0.0000000), wk =   0.0034722
        k(  377) = (  -0.3750000  -0.3333333   0.0000000), wk =   0.0034722
        k(  378) = (  -0.3750000  -0.2916667   0.0000000), wk =   0.0034722
        k(  379) = (  -0.3750000  -0.2500000   0.0000000), wk =   0.0034722
        k(  380) = (  -0.3750000  -0.2083333   0.0000000), wk =   0.0034722
        k(  381) = (  -0.3750000  -0.1666667   0.0000000), wk =   0.0034722
        k(  382) = (  -0.3750000  -0.1250000   0.0000000), wk =   0.0034722
        k(  383) = (  -0.3750000  -0.0833333   0.0000000), wk =   0.0034722
        k(  384) = (  -0.3750000  -0.0416667   0.0000000), wk =   0.0034722
        k(  385) = (  -0.3333333   0.0000000   0.0000000), wk =   0.0034722
        k(  386) = (  -0.3333333   0.0416667   0.0000000), wk =   0.0034722
        k(  387) = (  -0.3333333   0.0833333   0.0000000), wk =   0.0034722
        k(  388) = (  -0.3333333   0.1250000   0.0000000), wk =   0.0034722
        k(  389) = (  -0.3333333   0.1666667   0.0000000), wk =   0.0034722
        k(  390) = (  -0.3333333   0.2083333   0.0000000), wk =   0.0034722
        k(  391) = (  -0.3333333   0.2500000   0.0000000), wk =   0.0034722
        k(  392) = (  -0.3333333   0.2916667   0.0000000), wk =   0.0034722
        k(  393) = (  -0.3333333   0.3333333   0.0000000), wk =   0.0034722
        k(  394) = (  -0.3333333   0.3750000   0.0000000), wk =   0.0034722
        k(  395) = (  -0.3333333   0.4166667   0.0000000), wk =   0.0034722
        k(  396) = (  -0.3333333   0.4583333   0.0000000), wk =   0.0034722
        k(  397) = (  -0.3333333  -0.5000000   0.0000000), wk =   0.0034722
        k(  398) = (  -0.3333333  -0.4583333   0.0000000), wk =   0.0034722
        k(  399) = (  -0.3333333  -0.4166667   0.0000000), wk =   0.0034722
        k(  400) = (  -0.3333333  -0.3750000   0.0000000), wk =   0.0034722
        k(  401) = (  -0.3333333  -0.3333333   0.0000000), wk =   0.0034722
        k(  402) = (  -0.3333333  -0.2916667   0.0000000), wk =   0.0034722
        k(  403) = (  -0.3333333  -0.2500000   0.0000000), wk =   0.0034722
        k(  404) = (  -0.3333333  -0.2083333   0.0000000), wk =   0.0034722
        k(  405) = (  -0.3333333  -0.1666667   0.0000000), wk =   0.0034722
        k(  406) = (  -0.3333333  -0.1250000   0.0000000), wk =   0.0034722
        k(  407) = (  -0.3333333  -0.0833333   0.0000000), wk =   0.0034722
        k(  408) = (  -0.3333333  -0.0416667   0.0000000), wk =   0.0034722
        k(  409) = (  -0.2916667   0.0000000   0.0000000), wk =   0.0034722
        k(  410) = (  -0.2916667   0.0416667   0.0000000), wk =   0.0034722
        k(  411) = (  -0.2916667   0.0833333   0.0000000), wk =   0.0034722
        k(  412) = (  -0.2916667   0.1250000   0.0000000), wk =   0.0034722
        k(  413) = (  -0.2916667   0.1666667   0.0000000), wk =   0.0034722
        k(  414) = (  -0.2916667   0.2083333   0.0000000), wk =   0.0034722
        k(  415) = (  -0.2916667   0.2500000   0.0000000), wk =   0.0034722
        k(  416) = (  -0.2916667   0.2916667   0.0000000), wk =   0.0034722
        k(  417) = (  -0.2916667   0.3333333   0.0000000), wk =   0.0034722
        k(  418) = (  -0.2916667   0.3750000   0.0000000), wk =   0.0034722
        k(  419) = (  -0.2916667   0.4166667   0.0000000), wk =   0.0034722
        k(  420) = (  -0.2916667   0.4583333   0.0000000), wk =   0.0034722
        k(  421) = (  -0.2916667  -0.5000000   0.0000000), wk =   0.0034722
        k(  422) = (  -0.2916667  -0.4583333   0.0000000), wk =   0.0034722
        k(  423) = (  -0.2916667  -0.4166667   0.0000000), wk =   0.0034722
        k(  424) = (  -0.2916667  -0.3750000   0.0000000), wk =   0.0034722
        k(  425) = (  -0.2916667  -0.3333333   0.0000000), wk =   0.0034722
        k(  426) = (  -0.2916667  -0.2916667   0.0000000), wk =   0.0034722
        k(  427) = (  -0.2916667  -0.2500000   0.0000000), wk =   0.0034722
        k(  428) = (  -0.2916667  -0.2083333   0.0000000), wk =   0.0034722
        k(  429) = (  -0.2916667  -0.1666667   0.0000000), wk =   0.0034722
        k(  430) = (  -0.2916667  -0.1250000   0.0000000), wk =   0.0034722
        k(  431) = (  -0.2916667  -0.0833333   0.0000000), wk =   0.0034722
        k(  432) = (  -0.2916667  -0.0416667   0.0000000), wk =   0.0034722
        k(  433) = (  -0.2500000   0.0000000   0.0000000), wk =   0.0034722
        k(  434) = (  -0.2500000   0.0416667   0.0000000), wk =   0.0034722
        k(  435) = (  -0.2500000   0.0833333   0.0000000), wk =   0.0034722
        k(  436) = (  -0.2500000   0.1250000   0.0000000), wk =   0.0034722
        k(  437) = (  -0.2500000   0.1666667   0.0000000), wk =   0.0034722
        k(  438) = (  -0.2500000   0.2083333   0.0000000), wk =   0.0034722
        k(  439) = (  -0.2500000   0.2500000   0.0000000), wk =   0.0034722
        k(  440) = (  -0.2500000   0.2916667   0.0000000), wk =   0.0034722
        k(  441) = (  -0.2500000   0.3333333   0.0000000), wk =   0.0034722
        k(  442) = (  -0.2500000   0.3750000   0.0000000), wk =   0.0034722
        k(  443) = (  -0.2500000   0.4166667   0.0000000), wk =   0.0034722
        k(  444) = (  -0.2500000   0.4583333   0.0000000), wk =   0.0034722
        k(  445) = (  -0.2500000  -0.5000000   0.0000000), wk =   0.0034722
        k(  446) = (  -0.2500000  -0.4583333   0.0000000), wk =   0.0034722
        k(  447) = (  -0.2500000  -0.4166667   0.0000000), wk =   0.0034722
        k(  448) = (  -0.2500000  -0.3750000   0.0000000), wk =   0.0034722
        k(  449) = (  -0.2500000  -0.3333333   0.0000000), wk =   0.0034722
        k(  450) = (  -0.2500000  -0.2916667   0.0000000), wk =   0.0034722
        k(  451) = (  -0.2500000  -0.2500000   0.0000000), wk =   0.0034722
        k(  452) = (  -0.2500000  -0.2083333   0.0000000), wk =   0.0034722
        k(  453) = (  -0.2500000  -0.1666667   0.0000000), wk =   0.0034722
        k(  454) = (  -0.2500000  -0.1250000   0.0000000), wk =   0.0034722
        k(  455) = (  -0.2500000  -0.0833333   0.0000000), wk =   0.0034722
        k(  456) = (  -0.2500000  -0.0416667   0.0000000), wk =   0.0034722
        k(  457) = (  -0.2083333  -0.0000000   0.0000000), wk =   0.0034722
        k(  458) = (  -0.2083333   0.0416667   0.0000000), wk =   0.0034722
        k(  459) = (  -0.2083333   0.0833333   0.0000000), wk =   0.0034722
        k(  460) = (  -0.2083333   0.1250000   0.0000000), wk =   0.0034722
        k(  461) = (  -0.2083333   0.1666667   0.0000000), wk =   0.0034722
        k(  462) = (  -0.2083333   0.2083333   0.0000000), wk =   0.0034722
        k(  463) = (  -0.2083333   0.2500000   0.0000000), wk =   0.0034722
        k(  464) = (  -0.2083333   0.2916667   0.0000000), wk =   0.0034722
        k(  465) = (  -0.2083333   0.3333333   0.0000000), wk =   0.0034722
        k(  466) = (  -0.2083333   0.3750000   0.0000000), wk =   0.0034722
        k(  467) = (  -0.2083333   0.4166667   0.0000000), wk =   0.0034722
        k(  468) = (  -0.2083333   0.4583333   0.0000000), wk =   0.0034722
        k(  469) = (  -0.2083333  -0.5000000   0.0000000), wk =   0.0034722
        k(  470) = (  -0.2083333  -0.4583333   0.0000000), wk =   0.0034722
        k(  471) = (  -0.2083333  -0.4166667   0.0000000), wk =   0.0034722
        k(  472) = (  -0.2083333  -0.3750000   0.0000000), wk =   0.0034722
        k(  473) = (  -0.2083333  -0.3333333   0.0000000), wk =   0.0034722
        k(  474) = (  -0.2083333  -0.2916667   0.0000000), wk =   0.0034722
        k(  475) = (  -0.2083333  -0.2500000   0.0000000), wk =   0.0034722
        k(  476) = (  -0.2083333  -0.2083333   0.0000000), wk =   0.0034722
        k(  477) = (  -0.2083333  -0.1666667   0.0000000), wk =   0.0034722
        k(  478) = (  -0.2083333  -0.1250000   0.0000000), wk =   0.0034722
        k(  479) = (  -0.2083333  -0.0833333   0.0000000), wk =   0.0034722
        k(  480) = (  -0.2083333  -0.0416667   0.0000000), wk =   0.0034722
        k(  481) = (  -0.1666667   0.0000000   0.0000000), wk =   0.0034722
        k(  482) = (  -0.1666667   0.0416667   0.0000000), wk =   0.0034722
        k(  483) = (  -0.1666667   0.0833333   0.0000000), wk =   0.0034722
        k(  484) = (  -0.1666667   0.1250000   0.0000000), wk =   0.0034722
        k(  485) = (  -0.1666667   0.1666667   0.0000000), wk =   0.0034722
        k(  486) = (  -0.1666667   0.2083333   0.0000000), wk =   0.0034722
        k(  487) = (  -0.1666667   0.2500000   0.0000000), wk =   0.0034722
        k(  488) = (  -0.1666667   0.2916667   0.0000000), wk =   0.0034722
        k(  489) = (  -0.1666667   0.3333333   0.0000000), wk =   0.0034722
        k(  490) = (  -0.1666667   0.3750000   0.0000000), wk =   0.0034722
        k(  491) = (  -0.1666667   0.4166667   0.0000000), wk =   0.0034722
        k(  492) = (  -0.1666667   0.4583333   0.0000000), wk =   0.0034722
        k(  493) = (  -0.1666667  -0.5000000   0.0000000), wk =   0.0034722
        k(  494) = (  -0.1666667  -0.4583333   0.0000000), wk =   0.0034722
        k(  495) = (  -0.1666667  -0.4166667   0.0000000), wk =   0.0034722
        k(  496) = (  -0.1666667  -0.3750000   0.0000000), wk =   0.0034722
        k(  497) = (  -0.1666667  -0.3333333   0.0000000), wk =   0.0034722
        k(  498) = (  -0.1666667  -0.2916667   0.0000000), wk =   0.0034722
        k(  499) = (  -0.1666667  -0.2500000   0.0000000), wk =   0.0034722
        k(  500) = (  -0.1666667  -0.2083333   0.0000000), wk =   0.0034722
        k(  501) = (  -0.1666667  -0.1666667   0.0000000), wk =   0.0034722
        k(  502) = (  -0.1666667  -0.1250000   0.0000000), wk =   0.0034722
        k(  503) = (  -0.1666667  -0.0833333   0.0000000), wk =   0.0034722
        k(  504) = (  -0.1666667  -0.0416667   0.0000000), wk =   0.0034722
        k(  505) = (  -0.1250000   0.0000000   0.0000000), wk =   0.0034722
        k(  506) = (  -0.1250000   0.0416667   0.0000000), wk =   0.0034722
        k(  507) = (  -0.1250000   0.0833333   0.0000000), wk =   0.0034722
        k(  508) = (  -0.1250000   0.1250000   0.0000000), wk =   0.0034722
        k(  509) = (  -0.1250000   0.1666667   0.0000000), wk =   0.0034722
        k(  510) = (  -0.1250000   0.2083333   0.0000000), wk =   0.0034722
        k(  511) = (  -0.1250000   0.2500000   0.0000000), wk =   0.0034722
        k(  512) = (  -0.1250000   0.2916667   0.0000000), wk =   0.0034722
        k(  513) = (  -0.1250000   0.3333333   0.0000000), wk =   0.0034722
        k(  514) = (  -0.1250000   0.3750000   0.0000000), wk =   0.0034722
        k(  515) = (  -0.1250000   0.4166667   0.0000000), wk =   0.0034722
        k(  516) = (  -0.1250000   0.4583333   0.0000000), wk =   0.0034722
        k(  517) = (  -0.1250000  -0.5000000   0.0000000), wk =   0.0034722
        k(  518) = (  -0.1250000  -0.4583333   0.0000000), wk =   0.0034722
        k(  519) = (  -0.1250000  -0.4166667   0.0000000), wk =   0.0034722
        k(  520) = (  -0.1250000  -0.3750000   0.0000000), wk =   0.0034722
        k(  521) = (  -0.1250000  -0.3333333   0.0000000), wk =   0.0034722
        k(  522) = (  -0.1250000  -0.2916667   0.0000000), wk =   0.0034722
        k(  523) = (  -0.1250000  -0.2500000   0.0000000), wk =   0.0034722
        k(  524) = (  -0.1250000  -0.2083333   0.0000000), wk =   0.0034722
        k(  525) = (  -0.1250000  -0.1666667   0.0000000), wk =   0.0034722
        k(  526) = (  -0.1250000  -0.1250000   0.0000000), wk =   0.0034722
        k(  527) = (  -0.1250000  -0.0833333   0.0000000), wk =   0.0034722
        k(  528) = (  -0.1250000  -0.0416667   0.0000000), wk =   0.0034722
        k(  529) = (  -0.0833333   0.0000000   0.0000000), wk =   0.0034722
        k(  530) = (  -0.0833333   0.0416667   0.0000000), wk =   0.0034722
        k(  531) = (  -0.0833333   0.0833333   0.0000000), wk =   0.0034722
        k(  532) = (  -0.0833333   0.1250000   0.0000000), wk =   0.0034722
        k(  533) = (  -0.0833333   0.1666667   0.0000000), wk =   0.0034722
        k(  534) = (  -0.0833333   0.2083333   0.0000000), wk =   0.0034722
        k(  535) = (  -0.0833333   0.2500000   0.0000000), wk =   0.0034722
        k(  536) = (  -0.0833333   0.2916667   0.0000000), wk =   0.0034722
        k(  537) = (  -0.0833333   0.3333333   0.0000000), wk =   0.0034722
        k(  538) = (  -0.0833333   0.3750000   0.0000000), wk =   0.0034722
        k(  539) = (  -0.0833333   0.4166667   0.0000000), wk =   0.0034722
        k(  540) = (  -0.0833333   0.4583333   0.0000000), wk =   0.0034722
        k(  541) = (  -0.0833333  -0.5000000   0.0000000), wk =   0.0034722
        k(  542) = (  -0.0833333  -0.4583333   0.0000000), wk =   0.0034722
        k(  543) = (  -0.0833333  -0.4166667   0.0000000), wk =   0.0034722
        k(  544) = (  -0.0833333  -0.3750000   0.0000000), wk =   0.0034722
        k(  545) = (  -0.0833333  -0.3333333   0.0000000), wk =   0.0034722
        k(  546) = (  -0.0833333  -0.2916667   0.0000000), wk =   0.0034722
        k(  547) = (  -0.0833333  -0.2500000   0.0000000), wk =   0.0034722
        k(  548) = (  -0.0833333  -0.2083333   0.0000000), wk =   0.0034722
        k(  549) = (  -0.0833333  -0.1666667   0.0000000), wk =   0.0034722
        k(  550) = (  -0.0833333  -0.1250000   0.0000000), wk =   0.0034722
        k(  551) = (  -0.0833333  -0.0833333   0.0000000), wk =   0.0034722
        k(  552) = (  -0.0833333  -0.0416667   0.0000000), wk =   0.0034722
        k(  553) = (  -0.0416667   0.0000000   0.0000000), wk =   0.0034722
        k(  554) = (  -0.0416667   0.0416667   0.0000000), wk =   0.0034722
        k(  555) = (  -0.0416667   0.0833333   0.0000000), wk =   0.0034722
        k(  556) = (  -0.0416667   0.1250000   0.0000000), wk =   0.0034722
        k(  557) = (  -0.0416667   0.1666667   0.0000000), wk =   0.0034722
        k(  558) = (  -0.0416667   0.2083333   0.0000000), wk =   0.0034722
        k(  559) = (  -0.0416667   0.2500000   0.0000000), wk =   0.0034722
        k(  560) = (  -0.0416667   0.2916667   0.0000000), wk =   0.0034722
        k(  561) = (  -0.0416667   0.3333333   0.0000000), wk =   0.0034722
        k(  562) = (  -0.0416667   0.3750000   0.0000000), wk =   0.0034722
        k(  563) = (  -0.0416667   0.4166667   0.0000000), wk =   0.0034722
        k(  564) = (  -0.0416667   0.4583333   0.0000000), wk =   0.0034722
        k(  565) = (  -0.0416667  -0.5000000   0.0000000), wk =   0.0034722
        k(  566) = (  -0.0416667  -0.4583333   0.0000000), wk =   0.0034722
        k(  567) = (  -0.0416667  -0.4166667   0.0000000), wk =   0.0034722
        k(  568) = (  -0.0416667  -0.3750000   0.0000000), wk =   0.0034722
        k(  569) = (  -0.0416667  -0.3333333   0.0000000), wk =   0.0034722
        k(  570) = (  -0.0416667  -0.2916667   0.0000000), wk =   0.0034722
        k(  571) = (  -0.0416667  -0.2500000   0.0000000), wk =   0.0034722
        k(  572) = (  -0.0416667  -0.2083333   0.0000000), wk =   0.0034722
        k(  573) = (  -0.0416667  -0.1666667   0.0000000), wk =   0.0034722
        k(  574) = (  -0.0416667  -0.1250000   0.0000000), wk =   0.0034722
        k(  575) = (  -0.0416667  -0.0833333   0.0000000), wk =   0.0034722
        k(  576) = (  -0.0416667  -0.0416667   0.0000000), wk =   0.0034722

     Dense  grid:    22849 G-vectors     FFT dimensions: (  24,  24, 120)

     Dynamical RAM for                 wfc:       0.35 MB

     Dynamical RAM for     wfc (w. buffer):      25.60 MB

     Dynamical RAM for           str. fact:       0.35 MB

     Dynamical RAM for           local pot:       0.00 MB

     Dynamical RAM for          nlocal pot:       0.70 MB

     Dynamical RAM for                qrad:       0.29 MB

     Dynamical RAM for          rho,v,vnew:       2.63 MB

     Dynamical RAM for               rhoin:       0.88 MB

     Dynamical RAM for            rho*nmix:       5.58 MB

     Dynamical RAM for           G-vectors:       1.48 MB

     Dynamical RAM for          h,s,v(r/c):       0.01 MB

     Dynamical RAM for          <psi|beta>:       0.00 MB

     Dynamical RAM for                 psi:       0.70 MB

     Dynamical RAM for                hpsi:       0.70 MB

     Dynamical RAM for                spsi:       0.70 MB

     Dynamical RAM for      wfcinit/wfcrot:       0.70 MB

     Dynamical RAM for           addusdens:       2.27 MB

     Estimated static dynamical RAM per process >      35.26 MB

     Estimated max dynamical RAM per process >      43.11 MB

     Estimated total dynamical RAM >     305.80 MB

     Check: negative core charge=   -0.000012

     Initial potential from superposition of free atoms

     starting charge       7.9999, renormalised to       8.0000

     negative rho (up, down):  1.149E-03 0.000E+00
     Starting wfcs are    8 randomized atomic wfcs
     Checking if some PAW data can be deallocated... 

     total cpu time spent up to now is        1.8 secs

     per-process dynamical memory:    43.0 Mb

     Self-consistent Calculation

     iteration #  1     ecut=    40.00 Ry     beta= 0.70
     Davidson diagonalization with overlap

---- Real-time Memory Report at c_bands before calling an iterative solver
            74 MiB given to the printing process from OS
            42 MiB allocation reported by mallinfo(arena+hblkhd)
         25761 MiB available memory on the node where the printing process lives
------------------
     ethr =  1.00E-02,  avg # of iterations =  5.7

     negative rho (up, down):  1.739E-03 0.000E+00

     total cpu time spent up to now is        4.4 secs

     WARNING: integrated charge=     8.00042010, expected=     8.00000000

     total energy              =     -36.69546391 Ry
     estimated scf accuracy    <       0.11394734 Ry

     iteration #  2     ecut=    40.00 Ry     beta= 0.70
     Davidson diagonalization with overlap

---- Real-time Memory Report at c_bands before calling an iterative solver
            86 MiB given to the printing process from OS
            53 MiB allocation reported by mallinfo(arena+hblkhd)
         25690 MiB available memory on the node where the printing process lives
------------------
     ethr =  1.42E-03,  avg # of iterations =  2.8

     negative rho (up, down):  1.891E-03 0.000E+00

     total cpu time spent up to now is        6.3 secs

     WARNING: integrated charge=     8.00012975, expected=     8.00000000

     total energy              =     -36.71191608 Ry
     estimated scf accuracy    <       0.00195283 Ry

     iteration #  3     ecut=    40.00 Ry     beta= 0.70
     Davidson diagonalization with overlap

---- Real-time Memory Report at c_bands before calling an iterative solver
            86 MiB given to the printing process from OS
            54 MiB allocation reported by mallinfo(arena+hblkhd)
         25674 MiB available memory on the node where the printing process lives
------------------
     c_bands:  1 eigenvalues not converged
     ethr =  2.44E-05,  avg # of iterations = 10.8

     negative rho (up, down):  1.959E-03 0.000E+00

     total cpu time spent up to now is        9.9 secs

     WARNING: integrated charge=     8.00000566, expected=     8.00000000

     total energy              =     -36.71212399 Ry
     estimated scf accuracy    <       0.00017867 Ry

     iteration #  4     ecut=    40.00 Ry     beta= 0.70
     Davidson diagonalization with overlap

---- Real-time Memory Report at c_bands before calling an iterative solver
            87 MiB given to the printing process from OS
            54 MiB allocation reported by mallinfo(arena+hblkhd)
         25676 MiB available memory on the node where the printing process lives
------------------
     c_bands:  1 eigenvalues not converged
     ethr =  2.23E-06,  avg # of iterations =  5.5

     negative rho (up, down):  1.962E-03 0.000E+00

     total cpu time spent up to now is       12.4 secs

     WARNING: integrated charge=     8.00000130, expected=     8.00000000

     total energy              =     -36.71212551 Ry
     estimated scf accuracy    <       0.00003980 Ry

     iteration #  5     ecut=    40.00 Ry     beta= 0.70
     Davidson diagonalization with overlap

---- Real-time Memory Report at c_bands before calling an iterative solver
            88 MiB given to the printing process from OS
            55 MiB allocation reported by mallinfo(arena+hblkhd)
         25700 MiB available memory on the node where the printing process lives
------------------
     ethr =  4.98E-07,  avg # of iterations =  1.4

     negative rho (up, down):  1.963E-03 0.000E+00

     total cpu time spent up to now is       14.0 secs

     total energy              =     -36.71213471 Ry
     estimated scf accuracy    <       0.00000279 Ry

     iteration #  6     ecut=    40.00 Ry     beta= 0.70
     Davidson diagonalization with overlap

---- Real-time Memory Report at c_bands before calling an iterative solver
            89 MiB given to the printing process from OS
            56 MiB allocation reported by mallinfo(arena+hblkhd)
         25698 MiB available memory on the node where the printing process lives
------------------
     ethr =  3.49E-08,  avg # of iterations =  1.5

     negative rho (up, down):  1.963E-03 0.000E+00

     total cpu time spent up to now is       15.6 secs

     total energy              =     -36.71213523 Ry
     estimated scf accuracy    <       0.00000004 Ry

     iteration #  7     ecut=    40.00 Ry     beta= 0.70
     Davidson diagonalization with overlap

---- Real-time Memory Report at c_bands before calling an iterative solver
            89 MiB given to the printing process from OS
            56 MiB allocation reported by mallinfo(arena+hblkhd)
         25706 MiB available memory on the node where the printing process lives
------------------
     ethr =  5.52E-10,  avg # of iterations =  2.3

     negative rho (up, down):  1.963E-03 0.000E+00

     total cpu time spent up to now is       17.4 secs

     End of self-consistent calculation

          k = 0.0000 0.0000 0.0000 (  2789 PWs)   bands (ev):

   -19.9378  -8.4762  -6.5649  -4.8666   0.0470   1.0460   1.0960   1.8075

     occupation numbers 
     1.0000   1.0000   1.0000   1.0000   0.0000   0.0000   0.0000   0.0000

          k = 0.0000 0.0616 0.0000 (  2816 PWs)   bands (ev):

   -19.8977  -8.4293  -6.6575  -5.0508   0.0474   1.1533   1.3081   1.8634

     occupation numbers 
     1.0000   1.0000   1.0000   1.0000   0.0000   0.0000   0.0000   0.0000

          k = 0.0000 0.1232 0.0000 (  2824 PWs)   bands (ev):

   -19.7774  -8.2891  -6.9254  -5.5211   0.0313   1.3243   2.0116   2.0294

     occupation numbers 
     1.0000   1.0000   1.0000   1.0000   0.0000   0.0000   0.0000   0.0000

          k = 0.0000 0.1848 0.0000 (  2844 PWs)   bands (ev):

   -19.5780  -8.0568  -7.3450  -6.1316  -0.0430   1.6079   2.3023   2.6308

     occupation numbers 
     1.0000   1.0000   1.0000   1.0000   0.0000   0.0000   0.0000   0.0000

          k = 0.0000 0.2463 0.0000 (  2840 PWs)   bands (ev):

   -19.3006  -7.8881  -7.7340  -6.7777  -0.2138   2.0044   2.6594   3.0295

     occupation numbers 
     1.0000   1.0000   1.0000   1.0000   0.0000   0.0000   0.0000   0.0000

          k = 0.0000 0.3079 0.0000 (  2850 PWs)   bands (ev):

   -18.9476  -8.5294  -7.4013  -7.3239  -0.4893   2.5144   2.7660   3.3880

     occupation numbers 
     1.0000   1.0000   1.0000   1.0000   0.0000   0.0000   0.0000   0.0000

          k = 0.0000 0.3695 0.0000 (  2872 PWs)   bands (ev):

   -18.5220  -9.2467  -7.9713  -6.8302  -0.8402   2.1904   3.1375   3.9070

     occupation numbers 
     1.0000   1.0000   1.0000   1.0000   0.0000   0.0000   0.0000   0.0000

          k = 0.0000 0.4311 0.0000 (  2880 PWs)   bands (ev):

   -18.0286 -10.0188  -8.4700  -6.2583  -1.2185   1.4882   3.8730   4.6157

     occupation numbers 
     1.0000   1.0000   1.0000   1.0000   0.0000   0.0000   0.0000   0.0000

          k = 0.0000 0.4927 0.0000 (  2888 PWs)   bands (ev):

   -17.4747 -10.8246  -8.8873  -5.6147  -1.5779   0.7387   4.7199   5.7637

     occupation numbers 
     1.0000   1.0000   1.0000   1.0000   0.0000   0.0000   0.0000   0.0000

          k = 0.0000 0.5543 0.0000 (  2882 PWs)   bands (ev):

   -16.8729 -11.6382  -9.2167  -4.9086  -1.8838  -0.0454   5.6752   6.7293

     occupation numbers 
     1.0000   1.0000   1.0000   1.0000   0.0000   0.0000   0.0000   0.0000

          k = 0.0000 0.6158 0.0000 (  2874 PWs)   bands (ev):

   -16.2501 -12.4214  -9.4544  -4.1510  -2.1140  -0.8556   6.7335   7.3378

     occupation numbers 
     1.0000   1.0000   1.0000   1.0000   0.0008   0.0000   0.0000   0.0000

          k = 0.0000 0.6774 0.0000 (  2886 PWs)   bands (ev):

   -15.6818 -13.0900  -9.5979  -3.3568  -2.2562  -1.6804   7.8813   8.2826

     occupation numbers 
     1.0000   1.0000   1.0000   1.0044   0.0091   0.0000   0.0000   0.0000

          k = 0.0000-0.7390 0.0000 (  2878 PWs)   bands (ev):

   -15.4055 -13.4004  -9.6459  -2.6474  -2.3998  -2.3042   8.7770   8.9393

     occupation numbers 
     1.0000   1.0000   1.0000   0.4937   0.0616   0.0183   0.0000   0.0000

          k = 0.0000-0.6774 0.0000 (  2886 PWs)   bands (ev):

   -15.6818 -13.0900  -9.5979  -3.3568  -2.2562  -1.6804   7.8813   8.2825

     occupation numbers 
     1.0000   1.0000   1.0000   1.0044   0.0091   0.0000   0.0000   0.0000

          k = 0.0000-0.6158 0.0000 (  2874 PWs)   bands (ev):

   -16.2501 -12.4214  -9.4544  -4.1510  -2.1140  -0.8556   6.7335   7.3378

     occupation numbers 
     1.0000   1.0000   1.0000   1.0000   0.0008   0.0000   0.0000   0.0000

          k = 0.0000-0.5543 0.0000 (  2882 PWs)   bands (ev):

   -16.8729 -11.6382  -9.2167  -4.9086  -1.8838  -0.0454   5.6752   6.7291

     occupation numbers 
     1.0000   1.0000   1.0000   1.0000   0.0000   0.0000   0.0000   0.0000

          k = 0.0000-0.4927 0.0000 (  2888 PWs)   bands (ev):

   -17.4747 -10.8246  -8.8873  -5.6147  -1.5779   0.7387   4.7199   5.4383

     occupation numbers 
     1.0000   1.0000   1.0000   1.0000   0.0000   0.0000   0.0000   0.0000

          k = 0.0000-0.4311 0.0000 (  2880 PWs)   bands (ev):

   -18.0286 -10.0188  -8.4700  -6.2583  -1.2185   1.4882   3.8730   4.6157

     occupation numbers 
     1.0000   1.0000   1.0000   1.0000   0.0000   0.0000   0.0000   0.0000

          k = 0.0000-0.3695 0.0000 (  2872 PWs)   bands (ev):

   -18.5220  -9.2467  -7.9713  -6.8302  -0.8402   2.1904   3.1375   3.9071

     occupation numbers 
     1.0000   1.0000   1.0000   1.0000   0.0000   0.0000   0.0000   0.0000

          k = 0.0000-0.3079 0.0000 (  2850 PWs)   bands (ev):

   -18.9476  -8.5294  -7.4013  -7.3239  -0.4893   2.5142   2.7660   3.3879

     occupation numbers 
     1.0000   1.0000   1.0000   1.0000   0.0000   0.0000   0.0000   0.0000

          k = 0.0000-0.2463 0.0000 (  2840 PWs)   bands (ev):

   -19.3006  -7.8881  -7.7340  -6.7777  -0.2138   2.0044   2.6594   3.0295

     occupation numbers 
     1.0000   1.0000   1.0000   1.0000   0.0000   0.0000   0.0000   0.0000

          k = 0.0000-0.1848 0.0000 (  2844 PWs)   bands (ev):

   -19.5780  -8.0568  -7.3450  -6.1316  -0.0430   1.6079   2.3023   2.6308

     occupation numbers 
     1.0000   1.0000   1.0000   1.0000   0.0000   0.0000   0.0000   0.0000

          k = 0.0000-0.1232 0.0000 (  2824 PWs)   bands (ev):

   -19.7774  -8.2891  -6.9254  -5.5211   0.0313   1.3242   2.0116   2.0291

     occupation numbers 
     1.0000   1.0000   1.0000   1.0000   0.0000   0.0000   0.0000   0.0000

          k = 0.0000-0.0616 0.0000 (  2816 PWs)   bands (ev):

   -19.8977  -8.4293  -6.6575  -5.0508   0.0474   1.1532   1.3081   1.8627

     occupation numbers 
     1.0000   1.0000   1.0000   1.0000   0.0000   0.0000   0.0000   0.0000

          k = 0.0417-0.0308 0.0000 (  2798 PWs)   bands (ev):

   -19.9096  -8.4443  -6.6490  -5.0391   0.1948   1.1057   1.2058   1.8467

     occupation numbers 
     1.0000   1.0000   1.0000   1.0000   0.0000   0.0000   0.0000   0.0000

          k = 0.0417 0.0308 0.0000 (  2798 PWs)   bands (ev):

   -19.9096  -8.4442  -6.6491  -5.0389   0.1946   1.1058   1.2059   1.8467

     occupation numbers 
     1.0000   1.0000   1.0000   1.0000   0.0000   0.0000   0.0000   0.0000

          k = 0.0417 0.0924 0.0000 (  2817 PWs)   bands (ev):

   -19.8295  -8.3508  -6.8558  -5.3288   0.1464   1.2458   1.6911   1.9578

     occupation numbers 
     1.0000   1.0000   1.0000   1.0000   0.0000   0.0000   0.0000   0.0000

          k = 0.0417 0.1540 0.0000 (  2832 PWs)   bands (ev):

   -19.6697  -8.1647  -7.2393  -5.8135   0.0829   1.4764   2.1779   2.4813

     occupation numbers 
     1.0000   1.0000   1.0000   1.0000   0.0000   0.0000   0.0000   0.0000

          k = 0.0417 0.2155 0.0000 (  2840 PWs)   bands (ev):

   -19.4313  -7.8873  -7.7542  -6.3954  -0.0398   1.8175   2.4971   2.8412

     occupation numbers 
     1.0000   1.0000   1.0000   1.0000   0.0000   0.0000   0.0000   0.0000

          k = 0.0417 0.2771 0.0000 (  2844 PWs)   bands (ev):

   -19.1162  -8.3571  -7.5213  -7.0122  -0.2590   2.2711   2.8127   3.2976

     occupation numbers 
     1.0000   1.0000   1.0000   1.0000   0.0000   0.0000   0.0000   0.0000

          k = 0.0417 0.3387 0.0000 (  2866 PWs)   bands (ev):

   -18.7271  -9.0206  -7.6223  -7.0699  -0.5696   2.4625   2.8377   3.6317

     occupation numbers 
     1.0000   1.0000   1.0000   1.0000   0.0000   0.0000   0.0000   0.0000

          k = 0.0417 0.4003 0.0000 (  2877 PWs)   bands (ev):

   -18.2679  -9.7327  -8.1899  -6.5377  -0.9329   1.8021   3.5172   4.2714

     occupation numbers 
     1.0000   1.0000   1.0000   1.0000   0.0000   0.0000   0.0000   0.0000

          k = 0.0417 0.4619 0.0000 (  2883 PWs)   bands (ev):

   -17.7444 -10.4867  -8.6853  -5.9310  -1.3004   1.0805   4.3086   5.0398

     occupation numbers 
     1.0000   1.0000   1.0000   1.0000   0.0000   0.0000   0.0000   0.0000

          k = 0.0417 0.5235 0.0000 (  2886 PWs)   bands (ev):

   -17.1664 -11.2688  -9.0897  -5.2576  -1.6312   0.3209   5.2100   5.9112

     occupation numbers 
     1.0000   1.0000   1.0000   1.0000   0.0000   0.0000   0.0000   0.0000

          k = 0.0417 0.5850 0.0000 (  2880 PWs)   bands (ev):

   -16.5524 -12.0504  -9.3950  -4.5277  -1.8973  -0.4682   6.2174   6.8632

     occupation numbers 
     1.0000   1.0000   1.0000   1.0000   0.0000   0.0000   0.0000   0.0000

          k = 0.0417 0.6466 0.0000 (  2886 PWs)   bands (ev):

   -15.9465 -12.7758  -9.5989  -3.7545  -2.0819  -1.2784   7.3226   7.8353

     occupation numbers 
     1.0000   1.0000   1.0000   1.0000   0.0004   0.0000   0.0000   0.0000

          k = 0.0417-0.7698 0.0000 (  2881 PWs)   bands (ev):

   -15.4857 -13.2988  -9.7008  -2.9632  -2.1761  -2.0873   8.4970   8.5952

     occupation numbers 
     1.0000   1.0000   1.0000   1.0793   0.0025   0.0005   0.0000   0.0000

          k = 0.0417-0.7082 0.0000 (  2881 PWs)   bands (ev):

   -15.4857 -13.2987  -9.7008  -2.9633  -2.1761  -2.0873   8.4970   8.5951

     occupation numbers 
     1.0000   1.0000   1.0000   1.0793   0.0025   0.0005   0.0000   0.0000

          k = 0.0417-0.6466 0.0000 (  2886 PWs)   bands (ev):

   -15.9465 -12.7757  -9.5990  -3.7545  -2.0819  -1.2783   7.3226   7.8355

     occupation numbers 
     1.0000   1.0000   1.0000   1.0000   0.0004   0.0000   0.0000   0.0000

          k = 0.0417-0.5850 0.0000 (  2880 PWs)   bands (ev):

   -16.5524 -12.0502  -9.3952  -4.5277  -1.8972  -0.4681   6.2174   6.8632

     occupation numbers 
     1.0000   1.0000   1.0000   1.0000   0.0000   0.0000   0.0000   0.0000

          k = 0.0417-0.5235 0.0000 (  2886 PWs)   bands (ev):

   -17.1665 -11.2685  -9.0900  -5.2576  -1.6311   0.3210   5.2100   5.9112

     occupation numbers 
     1.0000   1.0000   1.0000   1.0000   0.0000   0.0000   0.0000   0.0000

          k = 0.0417-0.4619 0.0000 (  2883 PWs)   bands (ev):

   -17.7444 -10.4864  -8.6858  -5.9310  -1.3003   1.0806   4.3086   5.0398

     occupation numbers 
     1.0000   1.0000   1.0000   1.0000   0.0000   0.0000   0.0000   0.0000

          k = 0.0417-0.4003 0.0000 (  2877 PWs)   bands (ev):

   -18.2679  -9.7322  -8.1905  -6.5377  -0.9328   1.8022   3.5172   4.2715

     occupation numbers 
     1.0000   1.0000   1.0000   1.0000   0.0000   0.0000   0.0000   0.0000

          k = 0.0417-0.3387 0.0000 (  2866 PWs)   bands (ev):

   -18.7271  -9.0200  -7.6230  -7.0699  -0.5694   2.4626   2.8377   3.6317

     occupation numbers 
     1.0000   1.0000   1.0000   1.0000   0.0000   0.0000   0.0000   0.0000

          k = 0.0417-0.2771 0.0000 (  2844 PWs)   bands (ev):

   -19.1162  -8.3565  -7.5213  -7.0130  -0.2587   2.2711   2.8127   3.2976

     occupation numbers 
     1.0000   1.0000   1.0000   1.0000   0.0000   0.0000   0.0000   0.0000

          k = 0.0417-0.2155 0.0000 (  2840 PWs)   bands (ev):

   -19.4313  -7.8873  -7.7535  -6.3962  -0.0395   1.8175   2.4971   2.8412

     occupation numbers 
     1.0000   1.0000   1.0000   1.0000   0.0000   0.0000   0.0000   0.0000

          k = 0.0417-0.1540 0.0000 (  2832 PWs)   bands (ev):

   -19.6697  -8.1647  -7.2388  -5.8142   0.0833   1.4764   2.1779   2.4800

     occupation numbers 
     1.0000   1.0000   1.0000   1.0000   0.0000   0.0000   0.0000   0.0000

          k = 0.0417-0.0924 0.0000 (  2817 PWs)   bands (ev):

   -19.8295  -8.3508  -6.8554  -5.3293   0.1468   1.2458   1.6908   1.9579

     occupation numbers 
     1.0000   1.0000   1.0000   1.0000   0.0000   0.0000   0.0000   0.0000

          k = 0.0833-0.0616 0.0000 (  2807 PWs)   bands (ev):

   -19.8253  -8.3490  -6.9306  -5.4289   0.5083   1.2359   1.6087   1.9656

     occupation numbers 
     1.0000   1.0000   1.0000   1.0000   0.0000   0.0000   0.0000   0.0000

          k = 0.0833-0.0000 0.0000 (  2820 PWs)   bands (ev):

   -19.8653  -8.3955  -6.7884  -5.3555   0.6337   1.1370   1.3290   1.9101

     occupation numbers 
     1.0000   1.0000   1.0000   1.0000   0.0000   0.0000   0.0000   0.0000

          k = 0.0833 0.0616 0.0000 (  2807 PWs)   bands (ev):

   -19.8253  -8.3490  -6.9310  -5.4282   0.5075   1.2359   1.6092   1.9655

     occupation numbers 
     1.0000   1.0000   1.0000   1.0000   0.0000   0.0000   0.0000   0.0000

          k = 0.0833 0.1232 0.0000 (  2831 PWs)   bands (ev):

   -19.7057  -8.2098  -7.3095  -5.6599   0.3639   1.4201   2.1304   2.2649

     occupation numbers 
     1.0000   1.0000   1.0000   1.0000   0.0000   0.0000   0.0000   0.0000

          k = 0.0833 0.1848 0.0000 (  2841 PWs)   bands (ev):

   -19.5071  -7.9792  -7.8310  -6.0508   0.2465   1.7087   2.3986   2.7276

     occupation numbers 
     1.0000   1.0000   1.0000   1.0000   0.0000   0.0000   0.0000   0.0000

          k = 0.0833 0.2463 0.0000 (  2847 PWs)   bands (ev):

   -19.2312  -8.4236  -7.6590  -6.5679   0.0846   2.1075   2.7237   3.1326

     occupation numbers 
     1.0000   1.0000   1.0000   1.0000   0.0000   0.0000   0.0000   0.0000

          k = 0.0833 0.3079 0.0000 (  2852 PWs)   bands (ev):

   -18.8804  -9.0471  -7.2525  -7.1637  -0.1623   2.6060   2.6182   3.4483

     occupation numbers 
     1.0000   1.0000   1.0000   1.0000   0.0000   0.0000   0.0000   0.0000

          k = 0.0833 0.3695 0.0000 (  2880 PWs)   bands (ev):

   -18.4580  -9.6864  -7.7885  -6.7639  -0.4821   2.0053   3.2414   4.0084

     occupation numbers 
     1.0000   1.0000   1.0000   1.0000   0.0000   0.0000   0.0000   0.0000

          k = 0.0833 0.4311 0.0000 (  2886 PWs)   bands (ev):

   -17.9692 -10.3438  -8.3915  -6.1988  -0.8329   1.3246   3.9769   4.7194

     occupation numbers 
     1.0000   1.0000   1.0000   1.0000   0.0000   0.0000   0.0000   0.0000

          k = 0.0833 0.4927 0.0000 (  2884 PWs)   bands (ev):

   -17.4222 -11.0284  -8.9242  -5.5646  -1.1696   0.6056   4.8232   5.5397

     occupation numbers 
     1.0000   1.0000   1.0000   1.0000   0.0000   0.0000   0.0000   0.0000

          k = 0.0833 0.5543 0.0000 (  2894 PWs)   bands (ev):

   -16.8310 -11.7380  -9.3513  -4.8712  -1.4579  -0.1436   5.7775   6.4490

     occupation numbers 
     1.0000   1.0000   1.0000   1.0000   0.0000   0.0000   0.0000   0.0000

          k = 0.0833 0.6158 0.0000 (  2893 PWs)   bands (ev):

   -16.2252 -12.4408  -9.6569  -4.1311  -1.6758  -0.9165   6.8340   7.4014

     occupation numbers 
     1.0000   1.0000   1.0000   1.0000   0.0000   0.0000   0.0000   0.0000

          k = 0.0833-0.8006 0.0000 (  2887 PWs)   bands (ev):

   -15.6832 -13.0478  -9.8387  -3.3652  -1.8105  -1.6993   7.9774   8.2284

     occupation numbers 
     1.0000   1.0000   1.0000   1.0039   0.0000   0.0000   0.0000   0.0000

          k = 0.0833-0.7390 0.0000 (  2874 PWs)   bands (ev):

   -15.4278 -13.3259  -9.8989  -2.7547  -2.3149  -1.8560   8.5484   9.0191

     occupation numbers 
     1.0000   1.0000   1.0000   0.7843   0.0212   0.0000   0.0000   0.0000

          k = 0.0833-0.6774 0.0000 (  2887 PWs)   bands (ev):

   -15.6832 -13.0476  -9.8388  -3.3653  -1.8105  -1.6991   7.9774   8.2284

     occupation numbers 
     1.0000   1.0000   1.0000   1.0039   0.0000   0.0000   0.0000   0.0000

          k = 0.0833-0.6158 0.0000 (  2893 PWs)   bands (ev):

   -16.2253 -12.4405  -9.6572  -4.1312  -1.6757  -0.9163   6.8340   7.4012

     occupation numbers 
     1.0000   1.0000   1.0000   1.0000   0.0000   0.0000   0.0000   0.0000

          k = 0.0833-0.5543 0.0000 (  2894 PWs)   bands (ev):

   -16.8310 -11.7375  -9.3518  -4.8713  -1.4578  -0.1433   5.7775   6.4489

     occupation numbers 
     1.0000   1.0000   1.0000   1.0000   0.0000   0.0000   0.0000   0.0000

          k = 0.0833-0.4927 0.0000 (  2884 PWs)   bands (ev):

   -17.4222 -11.0278  -8.9249  -5.5647  -1.1694   0.6058   4.8232   5.5397

     occupation numbers 
     1.0000   1.0000   1.0000   1.0000   0.0000   0.0000   0.0000   0.0000

          k = 0.0833-0.4311 0.0000 (  2886 PWs)   bands (ev):

   -17.9692 -10.3430  -8.3923  -6.1989  -0.8327   1.3249   3.9769   4.7196

     occupation numbers 
     1.0000   1.0000   1.0000   1.0000   0.0000   0.0000   0.0000   0.0000

          k = 0.0833-0.3695 0.0000 (  2880 PWs)   bands (ev):

   -18.4580  -9.6856  -7.7895  -6.7640  -0.4818   2.0055   3.2414   4.0084

     occupation numbers 
     1.0000   1.0000   1.0000   1.0000   0.0000   0.0000   0.0000   0.0000

          k = 0.0833-0.3079 0.0000 (  2852 PWs)   bands (ev):

   -18.8804  -9.0463  -7.2526  -7.1647  -0.1618   2.6062   2.6182   3.4484

     occupation numbers 
     1.0000   1.0000   1.0000   1.0000   0.0000   0.0000   0.0000   0.0000

          k = 0.0833-0.2463 0.0000 (  2847 PWs)   bands (ev):

   -19.2312  -8.4227  -7.6591  -6.5690   0.0851   2.1075   2.7236   3.1326

     occupation numbers 
     1.0000   1.0000   1.0000   1.0000   0.0000   0.0000   0.0000   0.0000

          k = 0.0833-0.1848 0.0000 (  2841 PWs)   bands (ev):

   -19.5071  -7.9792  -7.8301  -6.0519   0.2472   1.7087   2.3986   2.7276

     occupation numbers 
     1.0000   1.0000   1.0000   1.0000   0.0000   0.0000   0.0000   0.0000

          k = 0.0833-0.1232 0.0000 (  2831 PWs)   bands (ev):

   -19.7057  -8.2098  -7.3087  -5.6609   0.3647   1.4201   2.1304   2.2644

     occupation numbers 
     1.0000   1.0000   1.0000   1.0000   0.0000   0.0000   0.0000   0.0000

          k = 0.1250-0.0924 0.0000 (  2826 PWs)   bands (ev):

   -19.6857  -8.1916  -7.4595  -5.8140   0.8292   1.4452   2.1619   2.2443

     occupation numbers 
     1.0000   1.0000   1.0000   1.0000   0.0000   0.0000   0.0000   0.0000

          k = 0.1250-0.0308 0.0000 (  2828 PWs)   bands (ev):

   -19.7652  -8.2836  -7.0992  -5.8384   1.1170   1.3187   1.7084   2.0527

     occupation numbers 
     1.0000   1.0000   1.0000   1.0000   0.0000   0.0000   0.0000   0.0000

          k = 0.1250 0.0308 0.0000 (  2828 PWs)   bands (ev):

   -19.7652  -8.2836  -7.0995  -5.8379   1.1161   1.3188   1.7091   2.0527

     occupation numbers 
     1.0000   1.0000   1.0000   1.0000   0.0000   0.0000   0.0000   0.0000

          k = 0.1250 0.0924 0.0000 (  2826 PWs)   bands (ev):

   -19.6857  -8.1916  -7.4602  -5.8130   0.8282   1.4453   2.1618   2.2454

     occupation numbers 
     1.0000   1.0000   1.0000   1.0000   0.0000   0.0000   0.0000   0.0000

          k = 0.1250 0.1540 0.0000 (  2837 PWs)   bands (ev):

   -19.5274  -8.0082  -7.9968  -5.9288   0.6400   1.6779   2.3749   2.6834

     occupation numbers 
     1.0000   1.0000   1.0000   1.0000   0.0000   0.0000   0.0000   0.0000

          k = 0.1250 0.2155 0.0000 (  2839 PWs)   bands (ev):

   -19.2915  -8.5969  -7.7354  -6.2441   0.4988   2.0225   2.6582   3.0447

     occupation numbers 
     1.0000   1.0000   1.0000   1.0000   0.0000   0.0000   0.0000   0.0000

          k = 0.1250 0.2771 0.0000 (  2853 PWs)   bands (ev):

   -18.9801  -9.2101  -7.3757  -6.7306   0.3226   2.4785   2.6380   3.3437

     occupation numbers 
     1.0000   1.0000   1.0000   1.0000   0.0000   0.0000   0.0000   0.0000

          k = 0.1250 0.3387 0.0000 (  2869 PWs)   bands (ev):

   -18.5965  -9.8136  -7.3312  -6.9333   0.0732   2.0974   3.0459   3.8266

     occupation numbers 
     1.0000   1.0000   1.0000   1.0000   0.0000   0.0000   0.0000   0.0000

          k = 0.1250 0.4003 0.0000 (  2884 PWs)   bands (ev):

   -18.1453 -10.4021  -7.9856  -6.4135  -0.2326   1.4617   3.7251   4.7590

     occupation numbers 
     1.0000   1.0000   1.0000   1.0000   0.0000   0.0000   0.0000   0.0000

          k = 0.1250 0.4619 0.0000 (  2886 PWs)   bands (ev):

   -17.6337 -10.9837  -8.6332  -5.8235  -0.5526   0.7918   4.5157   5.2459

     occupation numbers 
     1.0000   1.0000   1.0000   1.0000   0.0000   0.0000   0.0000   0.0000

          k = 0.1250 0.5235 0.0000 (  2895 PWs)   bands (ev):

   -17.0740 -11.5736  -9.2132  -5.1731  -0.8466   0.0971   5.4155   6.1080

     occupation numbers 
     1.0000   1.0000   1.0000   1.0000   0.0000   0.0000   0.0000   0.0000

          k = 0.1250 0.5850 0.0000 (  2903 PWs)   bands (ev):

   -16.4884 -12.1766  -9.6739  -4.4754  -1.0858  -0.6191   6.4202   7.0266

     occupation numbers 
     1.0000   1.0000   1.0000   1.0000   0.0000   0.0000   0.0000   0.0000

          k = 0.1250-0.8314 0.0000 (  2887 PWs)   bands (ev):

   -15.9277 -12.7543  -9.9851  -3.7507  -1.3480  -1.2528   7.5196   7.8606

     occupation numbers 
     1.0000   1.0000   1.0000   1.0000   0.0000   0.0000   0.0000   0.0000

          k = 0.1250-0.7698 0.0000 (  2885 PWs)   bands (ev):

   -15.5251 -13.1691 -10.1399  -3.0636  -2.0346  -1.3384   8.2671   8.6777

     occupation numbers 
     1.0000   1.0000   1.0000   1.0720   0.0002   0.0000   0.0000   0.0000

          k = 0.1250-0.7082 0.0000 (  2885 PWs)   bands (ev):

   -15.5251 -13.1689 -10.1401  -3.0638  -2.0344  -1.3383   8.2669   8.6778

     occupation numbers 
     1.0000   1.0000   1.0000   1.0719   0.0002   0.0000   0.0000   0.0000

          k = 0.1250-0.6466 0.0000 (  2887 PWs)   bands (ev):

   -15.9278 -12.7539  -9.9855  -3.7509  -1.3477  -1.2527   7.5196   7.8606

     occupation numbers 
     1.0000   1.0000   1.0000   1.0000   0.0000   0.0000   0.0000   0.0000

          k = 0.1250-0.5850 0.0000 (  2903 PWs)   bands (ev):

   -16.4885 -12.1761  -9.6744  -4.4756  -1.0857  -0.6188   6.4202   7.0265

     occupation numbers 
     1.0000   1.0000   1.0000   1.0000   0.0000   0.0000   0.0000   0.0000

          k = 0.1250-0.5235 0.0000 (  2895 PWs)   bands (ev):

   -17.0740 -11.5729  -9.2140  -5.1732  -0.8463   0.0974   5.4155   6.1081

     occupation numbers 
     1.0000   1.0000   1.0000   1.0000   0.0000   0.0000   0.0000   0.0000

          k = 0.1250-0.4619 0.0000 (  2886 PWs)   bands (ev):

   -17.6338 -10.9829  -8.6341  -5.8236  -0.5523   0.7921   4.5157   5.2462

     occupation numbers 
     1.0000   1.0000   1.0000   1.0000   0.0000   0.0000   0.0000   0.0000

          k = 0.1250-0.4003 0.0000 (  2884 PWs)   bands (ev):

   -18.1453 -10.4013  -7.9867  -6.4136  -0.2322   1.4620   3.7251   4.4784

     occupation numbers 
     1.0000   1.0000   1.0000   1.0000   0.0000   0.0000   0.0000   0.0000

          k = 0.1250-0.3387 0.0000 (  2869 PWs)   bands (ev):

   -18.5965  -9.8127  -7.3323  -6.9334   0.0738   2.0976   3.0459   3.8264

     occupation numbers 
     1.0000   1.0000   1.0000   1.0000   0.0000   0.0000   0.0000   0.0000

          k = 0.1250-0.2771 0.0000 (  2853 PWs)   bands (ev):

   -18.9802  -9.2092  -7.3758  -6.7318   0.3233   2.4786   2.6382   3.3437

     occupation numbers 
     1.0000   1.0000   1.0000   1.0000   0.0000   0.0000   0.0000   0.0000

          k = 0.1250-0.2155 0.0000 (  2839 PWs)   bands (ev):

   -19.2915  -8.5960  -7.7354  -6.2454   0.4996   2.0225   2.6583   3.0448

     occupation numbers 
     1.0000   1.0000   1.0000   1.0000   0.0000   0.0000   0.0000   0.0000

          k = 0.1250-0.1540 0.0000 (  2837 PWs)   bands (ev):

   -19.5274  -8.0083  -7.9959  -5.9301   0.6409   1.6778   2.3749   2.6835

     occupation numbers 
     1.0000   1.0000   1.0000   1.0000   0.0000   0.0000   0.0000   0.0000

          k = 0.1667-0.1232 0.0000 (  2828 PWs)   bands (ev):

   -19.4921  -8.1957  -7.9743  -6.1082   1.1403   1.7361   2.4288   2.7286

     occupation numbers 
     1.0000   1.0000   1.0000   1.0000   0.0000   0.0000   0.0000   0.0000

          k = 0.1667-0.0616 0.0000 (  2825 PWs)   bands (ev):

   -19.6100  -8.1102  -7.6473  -6.2660   1.3918   1.6198   2.2726   2.4156

     occupation numbers 
     1.0000   1.0000   1.0000   1.0000   0.0000   0.0000   0.0000   0.0000

          k = 0.1667-0.0000 0.0000 (  2832 PWs)   bands (ev):

   -19.6495  -8.1556  -7.3724  -6.4136   1.4401   1.9010   1.9754   2.2191

     occupation numbers 
     1.0000   1.0000   1.0000   1.0000   0.0000   0.0000   0.0000   0.0000

          k = 0.1667 0.0616 0.0000 (  2825 PWs)   bands (ev):

   -19.6100  -8.1102  -7.6480  -6.2650   1.3910   1.6196   2.2726   2.4162

     occupation numbers 
     1.0000   1.0000   1.0000   1.0000   0.0000   0.0000   0.0000   0.0000

          k = 0.1667 0.1232 0.0000 (  2828 PWs)   bands (ev):

   -19.4921  -8.1966  -7.9742  -6.1070   1.1393   1.7361   2.4287   2.7293

     occupation numbers 
     1.0000   1.0000   1.0000   1.0000   0.0000   0.0000   0.0000   0.0000

          k = 0.1667 0.1848 0.0000 (  2831 PWs)   bands (ev):

   -19.2966  -8.8124  -7.7493  -6.1513   0.9548   2.0179   2.6524   3.0352

     occupation numbers 
     1.0000   1.0000   1.0000   1.0000   0.0000   0.0000   0.0000   0.0000

          k = 0.1667 0.2463 0.0000 (  2855 PWs)   bands (ev):

   -19.0256  -9.4321  -7.4379  -6.4339   0.8206   2.4178   2.6006   3.2900

     occupation numbers 
     1.0000   1.0000   1.0000   1.0000   0.0000   0.0000   0.0000   0.0000

          k = 0.1667 0.3079 0.0000 (  2868 PWs)   bands (ev):

   -18.6821 -10.0283  -7.0436  -6.9170   0.6572   2.0926   2.9301   3.7173

     occupation numbers 
     1.0000   1.0000   1.0000   1.0000   0.0000   0.0000   0.0000   0.0000

          k = 0.1667 0.3695 0.0000 (  2889 PWs)   bands (ev):

   -18.2705 -10.5885  -7.5362  -6.5720   0.4286   1.4968   3.5534   4.3156

     occupation numbers 
     1.0000   1.0000   1.0000   1.0000   0.0000   0.0000   0.0000   0.0000

          k = 0.1667 0.4311 0.0000 (  2893 PWs)   bands (ev):

   -17.7977 -11.1105  -8.2238  -6.0302   0.1546   0.8761   4.2880   5.0302

     occupation numbers 
     1.0000   1.0000   1.0000   1.0000   0.0000   0.0000   0.0000   0.0000

          k = 0.1667 0.4927 0.0000 (  2895 PWs)   bands (ev):

   -17.2750 -11.6012  -8.9136  -5.4285  -0.1232   0.2417   5.1324   6.1786

     occupation numbers 
     1.0000   1.0000   1.0000   1.0000   0.0000   0.0000   0.0000   0.0000

          k = 0.1667 0.5543 0.0000 (  2893 PWs)   bands (ev):

   -16.7215 -12.0740  -9.5380  -4.7804  -0.4044  -0.3687   6.0835   6.7256

     occupation numbers 
     1.0000   1.0000   1.0000   1.0000   0.0000   0.0000   0.0000   0.0000

          k = 0.1667-0.8622 0.0000 (  2899 PWs)   bands (ev):

   -16.1751 -12.5332 -10.0301  -4.1075  -1.0581  -0.5575   7.1337   7.5561

     occupation numbers 
     1.0000   1.0000   1.0000   1.0000   0.0000   0.0000   0.0000   0.0000

          k = 0.1667-0.8006 0.0000 (  2886 PWs)   bands (ev):

   -15.7197 -12.9284 -10.3395  -3.4576  -1.6881  -0.6754   7.9794   8.2622

     occupation numbers 
     1.0000   1.0000   1.0000   1.0009   0.0000   0.0000   0.0000   0.0000

          k = 0.1667-0.7390 0.0000 (  2888 PWs)   bands (ev):

   -15.5249 -13.1027 -10.4441  -3.0759  -2.0618  -0.7154   8.0342   9.2486

     occupation numbers 
     1.0000   1.0000   1.0000   1.0682   0.0003   0.0000   0.0000   0.0000

          k = 0.1667-0.6774 0.0000 (  2886 PWs)   bands (ev):

   -15.7198 -12.9280 -10.3398  -3.4578  -1.6878  -0.6753   7.9793   8.2623

     occupation numbers 
     1.0000   1.0000   1.0000   1.0009   0.0000   0.0000   0.0000   0.0000

          k = 0.1667-0.6158 0.0000 (  2899 PWs)   bands (ev):

   -16.1752 -12.5325 -10.0307  -4.1077  -1.0577  -0.5574   7.1337   7.5560

     occupation numbers 
     1.0000   1.0000   1.0000   1.0000   0.0000   0.0000   0.0000   0.0000

          k = 0.1667-0.5543 0.0000 (  2893 PWs)   bands (ev):

   -16.7216 -12.0733  -9.5388  -4.7806  -0.4040  -0.3684   6.0835   6.7256

     occupation numbers 
     1.0000   1.0000   1.0000   1.0000   0.0000   0.0000   0.0000   0.0000

          k = 0.1667-0.4927 0.0000 (  2895 PWs)   bands (ev):

   -17.2750 -11.6003  -8.9146  -5.4286  -0.1229   0.2421   5.1324   5.8440

     occupation numbers 
     1.0000   1.0000   1.0000   1.0000   0.0000   0.0000   0.0000   0.0000

          k = 0.1667-0.4311 0.0000 (  2893 PWs)   bands (ev):

   -17.7978 -11.1096  -8.2248  -6.0304   0.1551   0.8765   4.2880   5.3262

     occupation numbers 
     1.0000   1.0000   1.0000   1.0000   0.0000   0.0000   0.0000   0.0000

          k = 0.1667-0.3695 0.0000 (  2889 PWs)   bands (ev):

   -18.2705 -10.5877  -7.5373  -6.5721   0.4292   1.4972   3.5535   4.3156

     occupation numbers 
     1.0000   1.0000   1.0000   1.0000   0.0000   0.0000   0.0000   0.0000

          k = 0.1667-0.3079 0.0000 (  2868 PWs)   bands (ev):

   -18.6821 -10.0274  -7.0437  -6.9182   0.6580   2.0929   2.9301   3.7174

     occupation numbers 
     1.0000   1.0000   1.0000   1.0000   0.0000   0.0000   0.0000   0.0000

          k = 0.1667-0.2463 0.0000 (  2855 PWs)   bands (ev):

   -19.0257  -9.4312  -7.4379  -6.4352   0.8215   2.4178   2.6008   3.2895

     occupation numbers 
     1.0000   1.0000   1.0000   1.0000   0.0000   0.0000   0.0000   0.0000

          k = 0.1667-0.1848 0.0000 (  2831 PWs)   bands (ev):

   -19.2967  -8.8115  -7.7494  -6.1525   0.9558   2.0179   2.6524   3.0351

     occupation numbers 
     1.0000   1.0000   1.0000   1.0000   0.0000   0.0000   0.0000   0.0000

          k = 0.2083-0.1540 0.0000 (  2839 PWs)   bands (ev):

   -19.2468  -9.0360  -7.7008  -6.3386   1.4480   2.1060   2.7033   3.1131

     occupation numbers 
     1.0000   1.0000   1.0000   1.0000   0.0000   0.0000   0.0000   0.0000

          k = 0.2083-0.0924 0.0000 (  2834 PWs)   bands (ev):

   -19.4016  -8.4012  -7.8778  -6.5646   1.6584   1.9527   2.5609   2.8830

     occupation numbers 
     1.0000   1.0000   1.0000   1.0000   0.0000   0.0000   0.0000   0.0000

          k = 0.2083-0.0308 0.0000 (  2834 PWs)   bands (ev):

   -19.4794  -7.9667  -7.8584  -6.9168   1.6754   2.1733   2.4629   2.7725

     occupation numbers 
     1.0000   1.0000   1.0000   1.0000   0.0000   0.0000   0.0000   0.0000

          k = 0.2083 0.0308 0.0000 (  2834 PWs)   bands (ev):

   -19.4794  -7.9667  -7.8590  -6.9162   1.6753   2.1728   2.4629   2.7736

     occupation numbers 
     1.0000   1.0000   1.0000   1.0000   0.0000   0.0000   0.0000   0.0000

          k = 0.2083 0.0924 0.0000 (  2834 PWs)   bands (ev):

   -19.4016  -8.4020  -7.8777  -6.5636   1.6578   1.9525   2.5606   2.8831

     occupation numbers 
     1.0000   1.0000   1.0000   1.0000   0.0000   0.0000   0.0000   0.0000

          k = 0.2083 0.1540 0.0000 (  2839 PWs)   bands (ev):

   -19.2468  -9.0368  -7.7007  -6.3374   1.4470   2.1060   2.7034   3.1133

     occupation numbers 
     1.0000   1.0000   1.0000   1.0000   0.0000   0.0000   0.0000   0.0000

          k = 0.2083 0.2155 0.0000 (  2851 PWs)   bands (ev):

   -19.0167  -9.6719  -7.4382  -6.3542   1.2895   2.4389   2.5178   3.2810

     occupation numbers 
     1.0000   1.0000   1.0000   1.0000   0.0000   0.0000   0.0000   0.0000

          k = 0.2083 0.2771 0.0000 (  2868 PWs)   bands (ev):

   -18.7141 -10.2764  -7.0936  -6.6314   1.1874   2.0132   2.8937   3.6814

     occupation numbers 
     1.0000   1.0000   1.0000   1.0000   0.0000   0.0000   0.0000   0.0000

          k = 0.2083 0.3387 0.0000 (  2880 PWs)   bands (ev):

   -18.3437 -10.8334  -7.1262  -6.6724   1.0616   1.4477   3.4614   4.2292

     occupation numbers 
     1.0000   1.0000   1.0000   1.0000   0.0000   0.0000   0.0000   0.0000

          k = 0.2083 0.4003 0.0000 (  2887 PWs)   bands (ev):

   -17.9122 -11.3338  -7.7689  -6.1821   0.8693   0.8740   4.1402   4.8922

     occupation numbers 
     1.0000   1.0000   1.0000   1.0000   0.0000   0.0000   0.0000   0.0000

          k = 0.2083 0.4619 0.0000 (  2895 PWs)   bands (ev):

   -17.4306 -11.7737  -8.4872  -5.6335   0.2921   0.6454   4.9289   5.6575

     occupation numbers 
     1.0000   1.0000   1.0000   1.0000   0.0000   0.0000   0.0000   0.0000

          k = 0.2083 0.5235 0.0000 (  2899 PWs)   bands (ev):

   -16.9171 -12.1538  -9.2123  -5.0416  -0.2801   0.4166   5.8251   6.8801

     occupation numbers 
     1.0000   1.0000   1.0000   1.0000   0.0000   0.0000   0.0000   0.0000

          k = 0.2083-0.8930 0.0000 (  2899 PWs)   bands (ev):

   -16.4037 -12.4779  -9.8726  -4.4291  -0.8450   0.2216   6.8235   7.3294

     occupation numbers 
     1.0000   1.0000   1.0000   1.0000   0.0000   0.0000   0.0000   0.0000

          k = 0.2083-0.8314 0.0000 (  2897 PWs)   bands (ev):

   -15.9509 -12.7431 -10.3865  -3.8386  -1.3847   0.0819   7.7765   7.9090

     occupation numbers 
     1.0000   1.0000   1.0000   1.0000   0.0000   0.0000   0.0000   0.0000

          k = 0.2083-0.7698 0.0000 (  2881 PWs)   bands (ev):

   -15.6648 -12.9116 -10.6707  -3.3889  -1.8023   0.0096   7.7871   9.0248

     occupation numbers 
     1.0000   1.0000   1.0000   1.0028   0.0000   0.0000   0.0000   0.0000

          k = 0.2083-0.7082 0.0000 (  2881 PWs)   bands (ev):

   -15.6648 -12.9113 -10.6709  -3.3890  -1.8021   0.0096   7.7870   9.0248

     occupation numbers 
     1.0000   1.0000   1.0000   1.0027   0.0000   0.0000   0.0000   0.0000

          k = 0.2083-0.6466 0.0000 (  2897 PWs)   bands (ev):

   -15.9510 -12.7424 -10.3871  -3.8389  -1.3842   0.0821   7.7762   7.9090

     occupation numbers 
     1.0000   1.0000   1.0000   1.0000   0.0000   0.0000   0.0000   0.0000

          k = 0.2083-0.5850 0.0000 (  2899 PWs)   bands (ev):

   -16.4039 -12.4770  -9.8734  -4.4293  -0.8445   0.2219   6.8235   7.3291

     occupation numbers 
     1.0000   1.0000   1.0000   1.0000   0.0000   0.0000   0.0000   0.0000

          k = 0.2083-0.5235 0.0000 (  2899 PWs)   bands (ev):

   -16.9172 -12.1529  -9.2132  -5.0418  -0.2796   0.4170   5.8252   6.5010

     occupation numbers 
     1.0000   1.0000   1.0000   1.0000   0.0000   0.0000   0.0000   0.0000

          k = 0.2083-0.4619 0.0000 (  2895 PWs)   bands (ev):

   -17.4307 -11.7729  -8.4882  -5.6338   0.2926   0.6459   4.9288   5.6573

     occupation numbers 
     1.0000   1.0000   1.0000   1.0000   0.0000   0.0000   0.0000   0.0000

          k = 0.2083-0.4003 0.0000 (  2887 PWs)   bands (ev):

   -17.9123 -11.3330  -7.7699  -6.1823   0.8697   0.8746   4.1402   5.1770

     occupation numbers 
     1.0000   1.0000   1.0000   1.0000   0.0000   0.0000   0.0000   0.0000

          k = 0.2083-0.3387 0.0000 (  2880 PWs)   bands (ev):

   -18.3438 -10.8326  -7.1273  -6.6725   1.0624   1.4481   3.4614   4.2292

     occupation numbers 
     1.0000   1.0000   1.0000   1.0000   0.0000   0.0000   0.0000   0.0000

          k = 0.2083-0.2771 0.0000 (  2868 PWs)   bands (ev):

   -18.7142 -10.2755  -7.0937  -6.6326   1.1884   2.0136   2.8936   3.6814

     occupation numbers 
     1.0000   1.0000   1.0000   1.0000   0.0000   0.0000   0.0000   0.0000

          k = 0.2083-0.2155 0.0000 (  2851 PWs)   bands (ev):

   -19.0167  -9.6711  -7.4382  -6.3553   1.2905   2.4390   2.5180   3.2811

     occupation numbers 
     1.0000   1.0000   1.0000   1.0000   0.0000   0.0000   0.0000   0.0000

          k = 0.2500-0.1848 0.0000 (  2845 PWs)   bands (ev):

   -18.9535  -9.9044  -7.3768  -6.5321   1.7418   2.3847   2.5525   3.3393

     occupation numbers 
     1.0000   1.0000   1.0000   1.0000   0.0000   0.0000   0.0000   0.0000

          k = 0.2500-0.1232 0.0000 (  2842 PWs)   bands (ev):

   -19.1426  -9.2492  -7.5904  -6.7811   1.9399   2.3320   2.7482   3.1452

     occupation numbers 
     1.0000   1.0000   1.0000   1.0000   0.0000   0.0000   0.0000   0.0000

          k = 0.2500-0.0616 0.0000 (  2851 PWs)   bands (ev):

   -19.2570  -8.5951  -7.7199  -7.2211   1.9759   2.4622   2.7675   3.1482

     occupation numbers 
     1.0000   1.0000   1.0000   1.0000   0.0000   0.0000   0.0000   0.0000

          k = 0.2500 0.0000 0.0000 (  2868 PWs)   bands (ev):

   -19.2953  -8.1492  -7.7632  -7.6018   1.9434   2.6217   2.7317   3.1580

     occupation numbers 
     1.0000   1.0000   1.0000   1.0000   0.0000   0.0000   0.0000   0.0000

          k = 0.2500 0.0616 0.0000 (  2851 PWs)   bands (ev):

   -19.2570  -8.5959  -7.7199  -7.2202   1.9758   2.4617   2.7675   3.1481

     occupation numbers 
     1.0000   1.0000   1.0000   1.0000   0.0000   0.0000   0.0000   0.0000

          k = 0.2500 0.1232 0.0000 (  2842 PWs)   bands (ev):

   -19.1425  -9.2500  -7.5903  -6.7801   1.9392   2.3319   2.7481   3.1447

     occupation numbers 
     1.0000   1.0000   1.0000   1.0000   0.0000   0.0000   0.0000   0.0000

          k = 0.2500 0.1848 0.0000 (  2845 PWs)   bands (ev):

   -18.9535  -9.9052  -7.3767  -6.5310   1.7409   2.3845   2.5525   3.3392

     occupation numbers 
     1.0000   1.0000   1.0000   1.0000   0.0000   0.0000   0.0000   0.0000

          k = 0.2500 0.2463 0.0000 (  2859 PWs)   bands (ev):

   -18.6927 -10.5260  -7.0827  -6.5450   1.6199   1.8796   2.9397   3.7172

     occupation numbers 
     1.0000   1.0000   1.0000   1.0000   0.0000   0.0000   0.0000   0.0000

          k = 0.2500 0.3079 0.0000 (  2882 PWs)   bands (ev):

   -18.3647 -11.0933  -6.8324  -6.7137   1.3364   1.5692   3.4489   4.2178

     occupation numbers 
     1.0000   1.0000   1.0000   1.0000   0.0000   0.0000   0.0000   0.0000

          k = 0.2500 0.3695 0.0000 (  2882 PWs)   bands (ev):

   -17.9765 -11.5938  -7.3462  -6.2777   0.7915   1.5027   4.0719   4.8303

     occupation numbers 
     1.0000   1.0000   1.0000   1.0000   0.0000   0.0000   0.0000   0.0000

          k = 0.2500 0.4311 0.0000 (  2895 PWs)   bands (ev):

   -17.5394 -12.0168  -8.0125  -5.7863   0.2633   1.3740   4.8050   5.5469

     occupation numbers 
     1.0000   1.0000   1.0000   1.0000   0.0000   0.0000   0.0000   0.0000

          k = 0.2500 0.4927 0.0000 (  2899 PWs)   bands (ev):

   -17.0718 -12.3518  -8.7561  -5.2561  -0.2396   1.2019   5.6459   6.3505

     occupation numbers 
     1.0000   1.0000   1.0000   1.0000   0.0000   0.0000   0.0000   0.0000

          k = 0.2500-0.9238 0.0000 (  2909 PWs)   bands (ev):

   -16.6039 -12.5877  -9.5077  -4.7115  -0.7129   1.0271   6.5905   7.1749

     occupation numbers 
     1.0000   1.0000   1.0000   1.0000   0.0000   0.0000   0.0000   0.0000

          k = 0.2500-0.8622 0.0000 (  2894 PWs)   bands (ev):

   -16.1845 -12.7147 -10.1930  -4.1922  -1.1458   0.8828   7.6277   7.6782

     occupation numbers 
     1.0000   1.0000   1.0000   1.0000   0.0000   0.0000   0.0000   0.0000

          k = 0.2500-0.8006 0.0000 (  2887 PWs)   bands (ev):

   -15.8837 -12.7420 -10.7106  -3.7734  -1.4953   0.7895   7.6264   8.7207

     occupation numbers 
     1.0000   1.0000   1.0000   1.0000   0.0000   0.0000   0.0000   0.0000

          k = 0.2500-0.7390 0.0000 (  2882 PWs)   bands (ev):

   -15.7729 -12.7316 -10.9145  -3.5978  -1.6445   0.7574   7.5555   9.5370

     occupation numbers 
     1.0000   1.0000   1.0000   1.0001   0.0000   0.0000   0.0000   0.0000

          k = 0.2500-0.6774 0.0000 (  2887 PWs)   bands (ev):

   -15.8838 -12.7414 -10.7112  -3.7737  -1.4949   0.7896   7.6263   8.7207

     occupation numbers 
     1.0000   1.0000   1.0000   1.0000   0.0000   0.0000   0.0000   0.0000

          k = 0.2500-0.6158 0.0000 (  2894 PWs)   bands (ev):

   -16.1847 -12.7139 -10.1938  -4.1925  -1.1453   0.8831   7.6278   7.6779

     occupation numbers 
     1.0000   1.0000   1.0000   1.0000   0.0000   0.0000   0.0000   0.0000

          k = 0.2500-0.5543 0.0000 (  2909 PWs)   bands (ev):

   -16.6041 -12.5868  -9.5086  -4.7118  -0.7124   1.0275   6.5906   7.1749

     occupation numbers 
     1.0000   1.0000   1.0000   1.0000   0.0000   0.0000   0.0000   0.0000

          k = 0.2500-0.4927 0.0000 (  2899 PWs)   bands (ev):

   -17.0720 -12.3509  -8.7570  -5.2564  -0.2391   1.2024   5.6459   6.3505

     occupation numbers 
     1.0000   1.0000   1.0000   1.0000   0.0000   0.0000   0.0000   0.0000

          k = 0.2500-0.4311 0.0000 (  2895 PWs)   bands (ev):

   -17.5395 -12.0159  -8.0135  -5.7865   0.2638   1.3747   4.8050   5.5469

     occupation numbers 
     1.0000   1.0000   1.0000   1.0000   0.0000   0.0000   0.0000   0.0000

          k = 0.2500-0.3695 0.0000 (  2882 PWs)   bands (ev):

   -17.9766 -11.5930  -7.3472  -6.2779   0.7920   1.5036   4.0719   4.8303

     occupation numbers 
     1.0000   1.0000   1.0000   1.0000   0.0000   0.0000   0.0000   0.0000

          k = 0.2500-0.3079 0.0000 (  2882 PWs)   bands (ev):

   -18.3647 -11.0925  -6.8335  -6.7139   1.3368   1.5702   3.4489   4.2179

     occupation numbers 
     1.0000   1.0000   1.0000   1.0000   0.0000   0.0000   0.0000   0.0000

          k = 0.2500-0.2463 0.0000 (  2859 PWs)   bands (ev):

   -18.6927 -10.5252  -7.0828  -6.5461   1.6208   1.8800   2.9397   3.7174

     occupation numbers 
     1.0000   1.0000   1.0000   1.0000   0.0000   0.0000   0.0000   0.0000

          k = 0.2917-0.2155 0.0000 (  2861 PWs)   bands (ev):

   -18.6185 -10.7571  -7.0114  -6.6981   1.7066   2.0033   3.0752   3.8268

     occupation numbers 
     1.0000   1.0000   1.0000   1.0000   0.0000   0.0000   0.0000   0.0000

          k = 0.2917-0.1540 0.0000 (  2863 PWs)   bands (ev):

   -18.8372 -10.1157  -7.2546  -6.9489   2.1947   2.2007   2.7790   3.4827

     occupation numbers 
     1.0000   1.0000   1.0000   1.0000   0.0000   0.0000   0.0000   0.0000

          k = 0.2917-0.0924 0.0000 (  2864 PWs)   bands (ev):

   -18.9852  -9.4379  -7.4196  -7.4136   2.3181   2.5967   2.7726   3.2410

     occupation numbers 
     1.0000   1.0000   1.0000   1.0000   0.0000   0.0000   0.0000   0.0000

          k = 0.2917-0.0308 0.0000 (  2874 PWs)   bands (ev):

   -19.0599  -8.7693  -7.9927  -7.5030   2.2737   2.8547   2.9642   3.0927

     occupation numbers 
     1.0000   1.0000   1.0000   1.0000   0.0000   0.0000   0.0000   0.0000

          k = 0.2917 0.0308 0.0000 (  2874 PWs)   bands (ev):

   -19.0599  -8.7700  -7.9919  -7.5029   2.2736   2.8547   2.9639   3.0926

     occupation numbers 
     1.0000   1.0000   1.0000   1.0000   0.0000   0.0000   0.0000   0.0000

          k = 0.2917 0.0924 0.0000 (  2864 PWs)   bands (ev):

   -18.9852  -9.4387  -7.4195  -7.4127   2.3178   2.5966   2.7724   3.2412

     occupation numbers 
     1.0000   1.0000   1.0000   1.0000   0.0000   0.0000   0.0000   0.0000

          k = 0.2917 0.1540 0.0000 (  2863 PWs)   bands (ev):

   -18.8371 -10.1164  -7.2545  -6.9479   2.1944   2.2000   2.7790   3.4816

     occupation numbers 
     1.0000   1.0000   1.0000   1.0000   0.0000   0.0000   0.0000   0.0000

          k = 0.2917 0.2155 0.0000 (  2861 PWs)   bands (ev):

   -18.6184 -10.7579  -7.0113  -6.6971   1.7062   2.0025   3.0752   3.8268

     occupation numbers 
     1.0000   1.0000   1.0000   1.0000   0.0000   0.0000   0.0000   0.0000

          k = 0.2917 0.2771 0.0000 (  2871 PWs)   bands (ev):

   -18.3337 -11.3422  -6.7222  -6.6957   1.1840   1.9214   3.5186   4.2815

     occupation numbers 
     1.0000   1.0000   1.0000   1.0000   0.0000   0.0000   0.0000   0.0000

          k = 0.2917 0.3387 0.0000 (  2880 PWs)   bands (ev):

   -17.9906 -11.8537  -7.0283  -6.3163   0.6661   1.9348   4.0827   4.8438

     occupation numbers 
     1.0000   1.0000   1.0000   1.0000   0.0000   0.0000   0.0000   0.0000

          k = 0.2917 0.4003 0.0000 (  2880 PWs)   bands (ev):

   -17.6011 -12.2771  -7.5636  -5.8857   0.1776   1.9449   4.7600   5.5114

     occupation numbers 
     1.0000   1.0000   1.0000   1.0000   0.0000   0.0000   0.0000   0.0000

          k = 0.2917 0.4619 0.0000 (  2897 PWs)   bands (ev):

   -17.1847 -12.5955  -8.2508  -5.4223  -0.2654   1.8911   5.5458   6.2728

     occupation numbers 
     1.0000   1.0000   1.0000   1.0000   0.0000   0.0000   0.0000   0.0000

          k = 0.2917-0.9546 0.0000 (  2897 PWs)   bands (ev):

   -16.7715 -12.7869  -9.0134  -4.9521  -0.6527   1.7853   6.4360   7.0845

     occupation numbers 
     1.0000   1.0000   1.0000   1.0000   0.0000   0.0000   0.0000   0.0000

          k = 0.2917-0.8930 0.0000 (  2898 PWs)   bands (ev):

   -16.4049 -12.8272  -9.7824  -4.5125  -0.9758   1.6682   7.4217   7.6666

     occupation numbers 
     1.0000   1.0000   1.0000   1.0000   0.0000   0.0000   0.0000   0.0000

          k = 0.2917-0.8314 0.0000 (  2889 PWs)   bands (ev):

   -16.1338 -12.7120 -10.4804  -4.1560  -1.2204   1.5741   7.5660   8.4693

     occupation numbers 
     1.0000   1.0000   1.0000   1.0000   0.0000   0.0000   0.0000   0.0000

          k = 0.2917-0.7698 0.0000 (  2893 PWs)   bands (ev):

   -15.9928 -12.5282 -10.9656  -3.9494  -1.3584   1.5224   7.3845   8.7639

     occupation numbers 
     1.0000   1.0000   1.0000   1.0000   0.0000   0.0000   0.0000   0.0000

          k = 0.2917-0.7082 0.0000 (  2893 PWs)   bands (ev):

   -15.9929 -12.5279 -10.9659  -3.9495  -1.3582   1.5225   7.3844   8.7639

     occupation numbers 
     1.0000   1.0000   1.0000   1.0000   0.0000   0.0000   0.0000   0.0000

          k = 0.2917-0.6466 0.0000 (  2889 PWs)   bands (ev):

   -16.1340 -12.7111 -10.4811  -4.1563  -1.2199   1.5743   7.5658   8.4692

     occupation numbers 
     1.0000   1.0000   1.0000   1.0000   0.0000   0.0000   0.0000   0.0000

          k = 0.2917-0.5850 0.0000 (  2898 PWs)   bands (ev):

   -16.4051 -12.8263  -9.7833  -4.5129  -0.9752   1.6686   7.4217   7.6663

     occupation numbers 
     1.0000   1.0000   1.0000   1.0000   0.0000   0.0000   0.0000   0.0000

          k = 0.2917-0.5235 0.0000 (  2897 PWs)   bands (ev):

   -16.7717 -12.7860  -9.0143  -4.9525  -0.6521   1.7858   6.4360   7.0844

     occupation numbers 
     1.0000   1.0000   1.0000   1.0000   0.0000   0.0000   0.0000   0.0000

          k = 0.2917-0.4619 0.0000 (  2897 PWs)   bands (ev):

   -17.1848 -12.5947  -8.2517  -5.4226  -0.2647   1.8918   5.5458   6.2728

     occupation numbers 
     1.0000   1.0000   1.0000   1.0000   0.0000   0.0000   0.0000   0.0000

          k = 0.2917-0.4003 0.0000 (  2880 PWs)   bands (ev):

   -17.6013 -12.2763  -7.5646  -5.8860   0.1782   1.9458   4.7600   5.5114

     occupation numbers 
     1.0000   1.0000   1.0000   1.0000   0.0000   0.0000   0.0000   0.0000

          k = 0.2917-0.3387 0.0000 (  2880 PWs)   bands (ev):

   -17.9907 -11.8529  -7.0293  -6.3165   0.6666   1.9357   4.0827   4.8438

     occupation numbers 
     1.0000   1.0000   1.0000   1.0000   0.0000   0.0000   0.0000   0.0000

          k = 0.2917-0.2771 0.0000 (  2871 PWs)   bands (ev):

   -18.3338 -11.3415  -6.7232  -6.6959   1.1845   1.9224   3.5186   4.2810

     occupation numbers 
     1.0000   1.0000   1.0000   1.0000   0.0000   0.0000   0.0000   0.0000

          k = 0.3333-0.2463 0.0000 (  2871 PWs)   bands (ev):

   -18.2519 -11.5634  -6.8376  -6.6191   1.0070   2.2167   3.6747   4.4186

     occupation numbers 
     1.0000   1.0000   1.0000   1.0000   0.0000   0.0000   0.0000   0.0000

          k = 0.3333-0.1848 0.0000 (  2865 PWs)   bands (ev):

   -18.4925 -10.9586  -7.0789  -6.8805   1.5024   2.4109   3.3078   4.0116

     occupation numbers 
     1.0000   1.0000   1.0000   1.0000   0.0000   0.0000   0.0000   0.0000

          k = 0.3333-0.1232 0.0000 (  2870 PWs)   bands (ev):

   -18.6690 -10.2945  -7.5481  -7.0732   1.9505   2.6333   3.1476   3.7101

     occupation numbers 
     1.0000   1.0000   1.0000   1.0000   0.0000   0.0000   0.0000   0.0000

          k = 0.3333-0.0616 0.0000 (  2878 PWs)   bands (ev):

   -18.7767  -9.5934  -8.1626  -7.1909   2.2818   2.6514   3.2809   3.5147

     occupation numbers 
     1.0000   1.0000   1.0000   1.0000   0.0000   0.0000   0.0000   0.0000

          k = 0.3333-0.0000 0.0000 (  2890 PWs)   bands (ev):

   -18.8129  -8.9779  -8.7546  -7.2306   2.4095   2.6241   3.3707   3.4430

     occupation numbers 
     1.0000   1.0000   1.0000   1.0000   0.0000   0.0000   0.0000   0.0000

          k = 0.3333 0.0616 0.0000 (  2878 PWs)   bands (ev):

   -18.7767  -9.5942  -8.1617  -7.1909   2.2816   2.6513   3.2807   3.5147

     occupation numbers 
     1.0000   1.0000   1.0000   1.0000   0.0000   0.0000   0.0000   0.0000

          k = 0.3333 0.1232 0.0000 (  2870 PWs)   bands (ev):

   -18.6690 -10.2952  -7.5472  -7.0731   1.9502   2.6329   3.1474   3.7100

     occupation numbers 
     1.0000   1.0000   1.0000   1.0000   0.0000   0.0000   0.0000   0.0000

          k = 0.3333 0.1848 0.0000 (  2865 PWs)   bands (ev):

   -18.4924 -10.9593  -7.0780  -6.8804   1.5020   2.4102   3.3078   4.0118

     occupation numbers 
     1.0000   1.0000   1.0000   1.0000   0.0000   0.0000   0.0000   0.0000

          k = 0.3333 0.2463 0.0000 (  2871 PWs)   bands (ev):

   -18.2518 -11.5641  -6.8367  -6.6189   1.0065   2.2159   3.6747   4.4187

     occupation numbers 
     1.0000   1.0000   1.0000   1.0000   0.0000   0.0000   0.0000   0.0000

          k = 0.3333 0.3079 0.0000 (  2874 PWs)   bands (ev):

   -17.9554 -12.0916  -6.8808  -6.2979   0.5135   2.1757   4.1747   4.9320

     occupation numbers 
     1.0000   1.0000   1.0000   1.0000   0.0000   0.0000   0.0000   0.0000

          k = 0.3333 0.3695 0.0000 (  2866 PWs)   bands (ev):

   -17.6164 -12.5236  -7.2101  -5.9313   0.0583   2.2576   4.7929   5.5508

     occupation numbers 
     1.0000   1.0000   1.0000   1.0000   0.0000   0.0000   0.0000   0.0000

          k = 0.3333 0.4311 0.0000 (  2883 PWs)   bands (ev):

   -17.2560 -12.8381  -7.7669  -5.5395  -0.3341   2.3544   5.5231   6.2669

     occupation numbers 
     1.0000   1.0000   1.0000   1.0000   0.0000   0.0000   0.0000   0.0000

          k = 0.3333-0.9853 0.0000 (  2890 PWs)   bands (ev):

   -16.9056 -13.0068  -8.4710  -5.1496  -0.6455   2.3871   6.3590   7.1835

     occupation numbers 
     1.0000   1.0000   1.0000   1.0000   0.0000   0.0000   0.0000   0.0000

          k = 0.3333-0.9238 0.0000 (  2896 PWs)   bands (ev):

   -16.6053 -12.9988  -9.2461  -4.7962  -0.8659   2.3555   7.2911   7.9119

     occupation numbers 
     1.0000   1.0000   1.0000   1.0000   0.0000   0.0000   0.0000   0.0000

          k = 0.3333-0.8622 0.0000 (  2894 PWs)   bands (ev):

   -16.3892 -12.8000 -10.0241  -4.5160  -0.9966   2.2985   7.5545   8.0654

     occupation numbers 
     1.0000   1.0000   1.0000   1.0000   0.0000   0.0000   0.0000   0.0000

          k = 0.3333-0.8006 0.0000 (  2893 PWs)   bands (ev):

   -16.2675 -12.4559 -10.7188  -4.3381  -1.0559   2.2512   7.2628   7.9502

     occupation numbers 
     1.0000   1.0000   1.0000   1.0000   0.0000   0.0000   0.0000   0.0000

          k = 0.3333-0.7390 0.0000 (  2884 PWs)   bands (ev):

   -16.2295 -12.2136 -11.0770  -4.2777  -1.0709   2.2335   7.1498   7.9006

     occupation numbers 
     1.0000   1.0000   1.0000   1.0000   0.0000   0.0000   0.0000   0.0000

          k = 0.3333-0.6774 0.0000 (  2893 PWs)   bands (ev):

   -16.2676 -12.4552 -10.7194  -4.3383  -1.0556   2.2514   7.2627   7.9502

     occupation numbers 
     1.0000   1.0000   1.0000   1.0000   0.0000   0.0000   0.0000   0.0000

          k = 0.3333-0.6158 0.0000 (  2894 PWs)   bands (ev):

   -16.3894 -12.7991 -10.0249  -4.5163  -0.9961   2.2989   7.5543   8.0654

     occupation numbers 
     1.0000   1.0000   1.0000   1.0000   0.0000   0.0000   0.0000   0.0000

          k = 0.3333-0.5543 0.0000 (  2896 PWs)   bands (ev):

   -16.6055 -12.9979  -9.2469  -4.7966  -0.8652   2.3560   7.2912   7.9110

     occupation numbers 
     1.0000   1.0000   1.0000   1.0000   0.0000   0.0000   0.0000   0.0000

          k = 0.3333-0.4927 0.0000 (  2890 PWs)   bands (ev):

   -16.9058 -13.0060  -8.4719  -5.1500  -0.6448   2.3878   6.3591   7.1822

     occupation numbers 
     1.0000   1.0000   1.0000   1.0000   0.0000   0.0000   0.0000   0.0000

          k = 0.3333-0.4311 0.0000 (  2883 PWs)   bands (ev):

   -17.2562 -12.8373  -7.7679  -5.5398  -0.3334   2.3553   5.5231   6.5605

     occupation numbers 
     1.0000   1.0000   1.0000   1.0000   0.0000   0.0000   0.0000   0.0000

          k = 0.3333-0.3695 0.0000 (  2866 PWs)   bands (ev):

   -17.6165 -12.5228  -7.2110  -5.9316   0.0589   2.2585   4.7929   5.5504

     occupation numbers 
     1.0000   1.0000   1.0000   1.0000   0.0000   0.0000   0.0000   0.0000

          k = 0.3333-0.3079 0.0000 (  2874 PWs)   bands (ev):

   -17.9555 -12.0908  -6.8818  -6.2981   0.5140   2.1766   4.1747   4.9320

     occupation numbers 
     1.0000   1.0000   1.0000   1.0000   0.0000   0.0000   0.0000   0.0000

          k = 0.3750-0.2771 0.0000 (  2881 PWs)   bands (ev):

   -17.8725 -12.2931  -6.9489  -6.2235   0.3495   2.3749   4.3503   5.0942

     occupation numbers 
     1.0000   1.0000   1.0000   1.0000   0.0000   0.0000   0.0000   0.0000

          k = 0.3750-0.2155 0.0000 (  2882 PWs)   bands (ev):

   -18.1207 -11.7478  -7.1739  -6.4847   0.8141   2.5593   3.9200   4.6302

     occupation numbers 
     1.0000   1.0000   1.0000   1.0000   0.0000   0.0000   0.0000   0.0000

          k = 0.3750-0.1540 0.0000 (  2876 PWs)   bands (ev):

   -18.3167 -11.1216  -7.6387  -6.6919   1.2714   2.8457   3.6459   4.2717

     occupation numbers 
     1.0000   1.0000   1.0000   1.0000   0.0000   0.0000   0.0000   0.0000

          k = 0.3750-0.0924 0.0000 (  2872 PWs)   bands (ev):

   -18.4516 -10.4346  -8.2621  -6.8352   1.6558   3.0152   3.6203   4.0209

     occupation numbers 
     1.0000   1.0000   1.0000   1.0000   0.0000   0.0000   0.0000   0.0000

          k = 0.3750-0.0308 0.0000 (  2890 PWs)   bands (ev):

   -18.5201  -9.7098  -8.9689  -6.9082   1.8838   3.0122   3.7315   3.8871

     occupation numbers 
     1.0000   1.0000   1.0000   1.0000   0.0000   0.0000   0.0000   0.0000

          k = 0.3750 0.0308 0.0000 (  2890 PWs)   bands (ev):

   -18.5201  -9.7106  -8.9682  -6.9082   1.8837   3.0121   3.7313   3.8871

     occupation numbers 
     1.0000   1.0000   1.0000   1.0000   0.0000   0.0000   0.0000   0.0000

          k = 0.3750 0.0924 0.0000 (  2872 PWs)   bands (ev):

   -18.4515 -10.4353  -8.2613  -6.8351   1.6555   3.0150   3.6201   4.0209

     occupation numbers 
     1.0000   1.0000   1.0000   1.0000   0.0000   0.0000   0.0000   0.0000

          k = 0.3750 0.1540 0.0000 (  2876 PWs)   bands (ev):

   -18.3167 -11.1223  -7.6378  -6.6918   1.2710   2.8452   3.6458   4.2717

     occupation numbers 
     1.0000   1.0000   1.0000   1.0000   0.0000   0.0000   0.0000   0.0000

          k = 0.3750 0.2155 0.0000 (  2882 PWs)   bands (ev):

   -18.1206 -11.7485  -7.1730  -6.4845   0.8136   2.5586   3.9200   4.6302

     occupation numbers 
     1.0000   1.0000   1.0000   1.0000   0.0000   0.0000   0.0000   0.0000

          k = 0.3750 0.2771 0.0000 (  2881 PWs)   bands (ev):

   -17.8724 -12.2939  -6.9480  -6.2233   0.3489   2.3742   4.3503   5.0942

     occupation numbers 
     1.0000   1.0000   1.0000   1.0000   0.0000   0.0000   0.0000   0.0000

          k = 0.3750 0.3387 0.0000 (  2870 PWs)   bands (ev):

   -17.5868 -12.7371  -7.0164  -5.9237  -0.0752   2.3744   4.9053   5.6631

     occupation numbers 
     1.0000   1.0000   1.0000   1.0000   0.0000   0.0000   0.0000   0.0000

          k = 0.3750 0.4003 0.0000 (  2874 PWs)   bands (ev):

   -17.2873 -13.0521  -7.3704  -5.6077  -0.4233   2.5223   5.5752   6.3329

     occupation numbers 
     1.0000   1.0000   1.0000   1.0000   0.0000   0.0000   0.0000   0.0000

          k = 0.3750-1.0161 0.0000 (  2895 PWs)   bands (ev):

   -17.0072 -13.2062  -7.9470  -5.3034  -0.6687   2.7050   6.3523   6.9462

     occupation numbers 
     1.0000   1.0000   1.0000   1.0000   0.0000   0.0000   0.0000   0.0000

          k = 0.3750-0.9546 0.0000 (  2892 PWs)   bands (ev):

   -16.7828 -13.1669  -8.6635  -5.0411  -0.7982   2.8272   7.1974   7.3624

     occupation numbers 
     1.0000   1.0000   1.0000   1.0000   0.0000   0.0000   0.0000   0.0000

          k = 0.3750-0.8930 0.0000 (  2892 PWs)   bands (ev):

   -16.6361 -12.9222  -9.4450  -4.8444  -0.8219   2.8720   7.3644   7.4572

     occupation numbers 
     1.0000   1.0000   1.0000   1.0000   0.0000   0.0000   0.0000   0.0000

          k = 0.3750-0.8314 0.0000 (  2881 PWs)   bands (ev):

   -16.5599 -12.5017 -10.2239  -4.7206  -0.7806   2.8729   7.0978   7.2096

     occupation numbers 
     1.0000   1.0000   1.0000   1.0000   0.0000   0.0000   0.0000   0.0000

          k = 0.3750-0.7698 0.0000 (  2881 PWs)   bands (ev):

   -16.5307 -12.0167 -10.8856  -4.6630  -0.7361   2.8642   6.8896   7.1138

     occupation numbers 
     1.0000   1.0000   1.0000   1.0000   0.0000   0.0000   0.0000   0.0000

          k = 0.3750-0.7082 0.0000 (  2881 PWs)   bands (ev):

   -16.5307 -12.0161 -10.8861  -4.6631  -0.7360   2.8643   6.8896   7.1138

     occupation numbers 
     1.0000   1.0000   1.0000   1.0000   0.0000   0.0000   0.0000   0.0000

          k = 0.3750-0.6466 0.0000 (  2881 PWs)   bands (ev):

   -16.5600 -12.5009 -10.2247  -4.7208  -0.7802   2.8732   7.0977   7.2096

     occupation numbers 
     1.0000   1.0000   1.0000   1.0000   0.0000   0.0000   0.0000   0.0000

          k = 0.3750-0.5850 0.0000 (  2892 PWs)   bands (ev):

   -16.6363 -12.9213  -9.4458  -4.8447  -0.8213   2.8725   7.3644   7.4572

     occupation numbers 
     1.0000   1.0000   1.0000   1.0000   0.0000   0.0000   0.0000   0.0000

          k = 0.3750-0.5235 0.0000 (  2892 PWs)   bands (ev):

   -16.7831 -13.1660  -8.6643  -5.0415  -0.7975   2.8279   7.1972   7.3618

     occupation numbers 
     1.0000   1.0000   1.0000   1.0000   0.0000   0.0000   0.0000   0.0000

          k = 0.3750-0.4619 0.0000 (  2895 PWs)   bands (ev):

   -17.0074 -13.2054  -7.9478  -5.3038  -0.6680   2.7058   6.3523   6.9450

     occupation numbers 
     1.0000   1.0000   1.0000   1.0000   0.0000   0.0000   0.0000   0.0000

          k = 0.3750-0.4003 0.0000 (  2874 PWs)   bands (ev):

   -17.2875 -13.0513  -7.3714  -5.6081  -0.4226   2.5231   5.5752   6.3332

     occupation numbers 
     1.0000   1.0000   1.0000   1.0000   0.0000   0.0000   0.0000   0.0000

          k = 0.3750-0.3387 0.0000 (  2870 PWs)   bands (ev):

   -17.5869 -12.7363  -7.0173  -5.9240  -0.0746   2.3752   4.9053   5.9431

     occupation numbers 
     1.0000   1.0000   1.0000   1.0000   0.0000   0.0000   0.0000   0.0000

          k = 0.4167-0.3079 0.0000 (  2880 PWs)   bands (ev):

   -17.5147 -12.9050  -7.0300  -5.8641  -0.2084   2.4804   5.0986   5.8486

     occupation numbers 
     1.0000   1.0000   1.0000   1.0000   0.0000   0.0000   0.0000   0.0000

          k = 0.4167-0.2463 0.0000 (  2876 PWs)   bands (ev):

   -17.7438 -12.4509  -7.2337  -6.0940   0.1818   2.6476   4.6113   5.6349

     occupation numbers 
     1.0000   1.0000   1.0000   1.0000   0.0000   0.0000   0.0000   0.0000

          k = 0.4167-0.1848 0.0000 (  2883 PWs)   bands (ev):

   -17.9425 -11.8881  -7.6887  -6.2944   0.6095   2.9568   4.2586   4.9134

     occupation numbers 
     1.0000   1.0000   1.0000   1.0000   0.0000   0.0000   0.0000   0.0000

          k = 0.4167-0.1232 0.0000 (  2884 PWs)   bands (ev):

   -18.0940 -11.2412  -8.3139  -6.4484   1.0127   3.2506   4.0823   4.6046

     occupation numbers 
     1.0000   1.0000   1.0000   1.0000   0.0000   0.0000   0.0000   0.0000

          k = 0.4167-0.0616 0.0000 (  2883 PWs)   bands (ev):

   -18.1882 -10.5327  -9.0326  -6.5447   1.3119   3.3675   4.0982   4.4088

     occupation numbers 
     1.0000   1.0000   1.0000   1.0000   0.0000   0.0000   0.0000   0.0000

          k = 0.4167-0.0000 0.0000 (  2884 PWs)   bands (ev):

   -18.2202  -9.8120  -9.7605  -6.5774   1.4245   3.3772   4.1362   4.3405

     occupation numbers 
     1.0000   1.0000   1.0000   1.0000   0.0000   0.0000   0.0000   0.0000

          k = 0.4167 0.0616 0.0000 (  2883 PWs)   bands (ev):

   -18.1882 -10.5334  -9.0318  -6.5447   1.3117   3.3673   4.0980   4.4088

     occupation numbers 
     1.0000   1.0000   1.0000   1.0000   0.0000   0.0000   0.0000   0.0000

          k = 0.4167 0.1232 0.0000 (  2884 PWs)   bands (ev):

   -18.0939 -11.2419  -8.3131  -6.4483   1.0124   3.2502   4.0822   4.6046

     occupation numbers 
     1.0000   1.0000   1.0000   1.0000   0.0000   0.0000   0.0000   0.0000

          k = 0.4167 0.1848 0.0000 (  2883 PWs)   bands (ev):

   -17.9424 -11.8888  -7.6878  -6.2943   0.6090   2.9562   4.2586   4.9134

     occupation numbers 
     1.0000   1.0000   1.0000   1.0000   0.0000   0.0000   0.0000   0.0000

          k = 0.4167 0.2463 0.0000 (  2876 PWs)   bands (ev):

   -17.7437 -12.4516  -7.2328  -6.0938   0.1812   2.6470   4.6112   5.3288

     occupation numbers 
     1.0000   1.0000   1.0000   1.0000   0.0000   0.0000   0.0000   0.0000

          k = 0.4167 0.3079 0.0000 (  2880 PWs)   bands (ev):

   -17.5145 -12.9058  -7.0291  -5.8637  -0.2090   2.4797   5.0986   5.8485

     occupation numbers 
     1.0000   1.0000   1.0000   1.0000   0.0000   0.0000   0.0000   0.0000

          k = 0.4167 0.3695 0.0000 (  2875 PWs)   bands (ev):

   -17.2810 -13.2210  -7.1247  -5.6276  -0.5147   2.5193   5.7034   6.4703

     occupation numbers 
     1.0000   1.0000   1.0000   1.0000   0.0000   0.0000   0.0000   0.0000

          k = 0.4167-1.0469 0.0000 (  2887 PWs)   bands (ev):

   -17.0777 -13.3616  -7.5034  -5.4131  -0.7014   2.7252   6.4077   6.9910

     occupation numbers 
     1.0000   1.0000   1.0000   1.0000   0.0000   0.0000   0.0000   0.0000

          k = 0.4167-0.9853 0.0000 (  2897 PWs)   bands (ev):

   -16.9364 -13.2973  -8.0967  -5.2453  -0.7529   2.9825   6.8540   7.2914

     occupation numbers 
     1.0000   1.0000   1.0000   1.0000   0.0000   0.0000   0.0000   0.0000

          k = 0.4167-0.9238 0.0000 (  2889 PWs)   bands (ev):

   -16.8664 -13.0241  -8.8212  -5.1357  -0.6834   3.1841   6.7244   7.1707

     occupation numbers 
     1.0000   1.0000   1.0000   1.0000   0.0000   0.0000   0.0000   0.0000

          k = 0.4167-0.8622 0.0000 (  2886 PWs)   bands (ev):

   -16.8481 -12.5722  -9.6039  -5.0777  -0.5433   3.2962   6.5385   6.7952

     occupation numbers 
     1.0000   1.0000   1.0000   1.0000   0.0000   0.0000   0.0000   0.0000

          k = 0.4167-0.8006 0.0000 (  2885 PWs)   bands (ev):

   -16.8520 -11.9994 -10.3753  -5.0537  -0.4088   3.3425   6.4065   6.5392

     occupation numbers 
     1.0000   1.0000   1.0000   1.0000   0.0000   0.0000   0.0000   0.0000

          k = 0.4167-0.7390 0.0000 (  2880 PWs)   bands (ev):

   -16.8558 -11.5513 -10.8895  -5.0477  -0.3535   3.3541   6.3604   6.4463

     occupation numbers 
     1.0000   1.0000   1.0000   1.0000   0.0000   0.0000   0.0000   0.0000

          k = 0.4167-0.6774 0.0000 (  2885 PWs)   bands (ev):

   -16.8521 -11.9987 -10.3760  -5.0538  -0.4086   3.3428   6.4066   6.5391

     occupation numbers 
     1.0000   1.0000   1.0000   1.0000   0.0000   0.0000   0.0000   0.0000

          k = 0.4167-0.6158 0.0000 (  2886 PWs)   bands (ev):

   -16.8483 -12.5714  -9.6046  -5.0780  -0.5428   3.2967   6.5390   7.5169

     occupation numbers 
     1.0000   1.0000   1.0000   1.0000   0.0000   0.0000   0.0000   0.0000

          k = 0.4167-0.5543 0.0000 (  2889 PWs)   bands (ev):

   -16.8666 -13.0233  -8.8220  -5.1361  -0.6827   3.1848   6.7244   7.1708

     occupation numbers 
     1.0000   1.0000   1.0000   1.0000   0.0000   0.0000   0.0000   0.0000

          k = 0.4167-0.4927 0.0000 (  2897 PWs)   bands (ev):

   -16.9367 -13.2964  -8.0975  -5.2457  -0.7522   2.9833   6.8536   7.2915

     occupation numbers 
     1.0000   1.0000   1.0000   1.0000   0.0000   0.0000   0.0000   0.0000

          k = 0.4167-0.4311 0.0000 (  2887 PWs)   bands (ev):

   -17.0780 -13.3608  -7.5043  -5.4135  -0.7006   2.7260   6.4077   6.9902

     occupation numbers 
     1.0000   1.0000   1.0000   1.0000   0.0000   0.0000   0.0000   0.0000

          k = 0.4167-0.3695 0.0000 (  2875 PWs)   bands (ev):

   -17.2812 -13.2202  -7.1256  -5.6279  -0.5140   2.5200   5.7034   6.4704

     occupation numbers 
     1.0000   1.0000   1.0000   1.0000   0.0000   0.0000   0.0000   0.0000

          k = 0.4583-0.3387 0.0000 (  2878 PWs)   bands (ev):

   -17.2401 -13.3335  -7.0793  -5.6003  -0.5954   2.5394   5.9062   6.6784

     occupation numbers 
     1.0000   1.0000   1.0000   1.0000   0.0000   0.0000   0.0000   0.0000

          k = 0.4583-0.2771 0.0000 (  2873 PWs)   bands (ev):

   -17.4026 -13.0210  -7.2584  -5.7531  -0.3346   2.6824   5.3729   6.1042

     occupation numbers 
     1.0000   1.0000   1.0000   1.0000   0.0000   0.0000   0.0000   0.0000

          k = 0.4583-0.2155 0.0000 (  2878 PWs)   bands (ev):

   -17.5724 -12.5586  -7.6991  -5.9116   0.0141   2.9897   4.9607   5.6318

     occupation numbers 
     1.0000   1.0000   1.0000   1.0000   0.0000   0.0000   0.0000   0.0000

          k = 0.4583-0.1540 0.0000 (  2881 PWs)   bands (ev):

   -17.7207 -11.9805  -8.3219  -6.0513   0.3916   3.3321   4.6907   5.2635

     occupation numbers 
     1.0000   1.0000   1.0000   1.0000   0.0000   0.0000   0.0000   0.0000

          k = 0.4583-0.0924 0.0000 (  2887 PWs)   bands (ev):

   -17.8283 -11.3157  -9.0471  -6.1539   0.7224   3.5662   4.5766   5.0045

     occupation numbers 
     1.0000   1.0000   1.0000   1.0000   0.0000   0.0000   0.0000   0.0000

          k = 0.4583-0.0308 0.0000 (  2877 PWs)   bands (ev):

   -17.8845 -10.5941  -9.8078  -6.2079   0.9204   3.6507   4.5648   4.8675

     occupation numbers 
     1.0000   1.0000   1.0000   1.0000   0.0000   0.0000   0.0000   0.0000

          k = 0.4583 0.0308 0.0000 (  2877 PWs)   bands (ev):

   -17.8845 -10.5948  -9.8071  -6.2079   0.9203   3.6506   4.5647   4.8675

     occupation numbers 
     1.0000   1.0000   1.0000   1.0000   0.0000   0.0000   0.0000   0.0000

          k = 0.4583 0.0924 0.0000 (  2887 PWs)   bands (ev):

   -17.8283 -11.3164  -9.0464  -6.1538   0.7221   3.5659   4.5766   5.0045

     occupation numbers 
     1.0000   1.0000   1.0000   1.0000   0.0000   0.0000   0.0000   0.0000

          k = 0.4583 0.1540 0.0000 (  2881 PWs)   bands (ev):

   -17.7206 -11.9812  -8.3211  -6.0511   0.3912   3.3315   4.6907   5.2634

     occupation numbers 
     1.0000   1.0000   1.0000   1.0000   0.0000   0.0000   0.0000   0.0000

          k = 0.4583 0.2155 0.0000 (  2878 PWs)   bands (ev):

   -17.5723 -12.5593  -7.6982  -5.9113   0.0135   2.9891   4.9607   5.6317

     occupation numbers 
     1.0000   1.0000   1.0000   1.0000   0.0000   0.0000   0.0000   0.0000

          k = 0.4583 0.2771 0.0000 (  2873 PWs)   bands (ev):

   -17.4025 -13.0218  -7.2576  -5.7527  -0.3352   2.6817   5.3729   6.1043

     occupation numbers 
     1.0000   1.0000   1.0000   1.0000   0.0000   0.0000   0.0000   0.0000

          k = 0.4583 0.3387 0.0000 (  2878 PWs)   bands (ev):

   -17.2398 -13.3343  -7.0784  -5.5999  -0.5962   2.5388   5.9062   6.6784

     occupation numbers 
     1.0000   1.0000   1.0000   1.0000   0.0000   0.0000   0.0000   0.0000

          k = 0.4583-1.0777 0.0000 (  2879 PWs)   bands (ev):

   -17.1191 -13.4596  -7.2023  -5.4788  -0.7274   2.6162   6.5188   6.9874

     occupation numbers 
     1.0000   1.0000   1.0000   1.0000   0.0000   0.0000   0.0000   0.0000

          k = 0.4583-1.0161 0.0000 (  2883 PWs)   bands (ev):

   -17.0650 -13.3728  -7.6043  -5.4075  -0.7117   2.8693   6.4993   7.3089

     occupation numbers 
     1.0000   1.0000   1.0000   1.0000   0.0000   0.0000   0.0000   0.0000

          k = 0.4583-0.9546 0.0000 (  2889 PWs)   bands (ev):

   -17.0741 -13.0803  -8.2110  -5.3863  -0.5651   3.1819   6.1779   6.7927

     occupation numbers 
     1.0000   1.0000   1.0000   1.0000   0.0000   0.0000   0.0000   0.0000

          k = 0.4583-0.8930 0.0000 (  2889 PWs)   bands (ev):

   -17.1187 -12.6162  -8.9395  -5.3993  -0.3391   3.4392   5.9334   6.3981

     occupation numbers 
     1.0000   1.0000   1.0000   1.0000   0.0000   0.0000   0.0000   0.0000

          k = 0.4583-0.8314 0.0000 (  2886 PWs)   bands (ev):

   -17.1670 -12.0247  -9.7186  -5.4237  -0.1110   3.5924   5.7728   6.1106

     occupation numbers 
     1.0000   1.0000   1.0000   1.0000   0.0000   0.0000   0.0000   0.0000

          k = 0.4583-0.7698 0.0000 (  2878 PWs)   bands (ev):

   -17.1966 -11.3713 -10.4688  -5.4409   0.0335   3.6565   5.6931   5.9541

     occupation numbers 
     1.0000   1.0000   1.0000   1.0000   0.0000   0.0000   0.0000   0.0000

          k = 0.4583-0.7082 0.0000 (  2878 PWs)   bands (ev):

   -17.1966 -11.3707 -10.4694  -5.4410   0.0337   3.6566   5.6931   5.9540

     occupation numbers 
     1.0000   1.0000   1.0000   1.0000   0.0000   0.0000   0.0000   0.0000

          k = 0.4583-0.6466 0.0000 (  2886 PWs)   bands (ev):

   -17.1671 -12.0240  -9.7193  -5.4239  -0.1106   3.5928   5.7728   6.1107

     occupation numbers 
     1.0000   1.0000   1.0000   1.0000   0.0000   0.0000   0.0000   0.0000

          k = 0.4583-0.5850 0.0000 (  2889 PWs)   bands (ev):

   -17.1188 -12.6154  -8.9403  -5.3995  -0.3386   3.4398   5.9334   6.3981

     occupation numbers 
     1.0000   1.0000   1.0000   1.0000   0.0000   0.0000   0.0000   0.0000

          k = 0.4583-0.5235 0.0000 (  2889 PWs)   bands (ev):

   -17.0743 -13.0795  -8.2118  -5.3866  -0.5644   3.1826   6.1779   6.7927

     occupation numbers 
     1.0000   1.0000   1.0000   1.0000   0.0000   0.0000   0.0000   0.0000

          k = 0.4583-0.4619 0.0000 (  2883 PWs)   bands (ev):

   -17.0652 -13.3720  -7.6051  -5.4079  -0.7109   2.8700   6.4991   7.3089

     occupation numbers 
     1.0000   1.0000   1.0000   1.0000   0.0000   0.0000   0.0000   0.0000

          k = 0.4583-0.4003 0.0000 (  2879 PWs)   bands (ev):

   -17.1193 -13.4587  -7.2032  -5.4793  -0.7266   2.6168   6.5187   6.9871

     occupation numbers 
     1.0000   1.0000   1.0000   1.0000   0.0000   0.0000   0.0000   0.0000

          k =-0.5000 0.3695 0.0000 (  2880 PWs)   bands (ev):

   -17.1330 -13.4921  -7.0959  -5.5012  -0.7363   2.5583   6.6049   6.9104

     occupation numbers 
     1.0000   1.0000   1.0000   1.0000   0.0000   0.0000   0.0000   0.0000

          k =-0.5000 0.4311 0.0000 (  2879 PWs)   bands (ev):

   -17.1671 -13.3850  -7.2480  -5.5266  -0.6609   2.6708   6.1763   6.9530

     occupation numbers 
     1.0000   1.0000   1.0000   1.0000   0.0000   0.0000   0.0000   0.0000

          k =-0.5000 0.4927 0.0000 (  2875 PWs)   bands (ev):

   -17.2545 -13.0797  -7.6708  -5.5932  -0.4518   2.9584   5.7304   6.4239

     occupation numbers 
     1.0000   1.0000   1.0000   1.0000   0.0000   0.0000   0.0000   0.0000

          k =-0.5000 0.5543 0.0000 (  2889 PWs)   bands (ev):

   -17.3624 -12.6132  -8.2874  -5.6790  -0.1567   3.3017   5.4027   5.9948

     occupation numbers 
     1.0000   1.0000   1.0000   1.0000   0.0000   0.0000   0.0000   0.0000

          k =-0.5000 0.6158 0.0000 (  2876 PWs)   bands (ev):

   -17.4599 -12.0242  -9.0159  -5.7592   0.1543   3.5764   5.2014   5.6700

     occupation numbers 
     1.0000   1.0000   1.0000   1.0000   0.0000   0.0000   0.0000   0.0000

          k =-0.5000 0.6774 0.0000 (  2883 PWs)   bands (ev):

   -17.5260 -11.3491  -9.7875  -5.8150   0.3960   3.7243   5.1063   5.4611

     occupation numbers 
     1.0000   1.0000   1.0000   1.0000   0.0000   0.0000   0.0000   0.0000

          k =-0.5000 0.7390 0.0000 (  2880 PWs)   bands (ev):

   -17.5492 -10.7485 -10.4222  -5.8348   0.4883   3.7659   5.0803   5.3877

     occupation numbers 
     1.0000   1.0000   1.0000   1.0000   0.0000   0.0000   0.0000   0.0000

          k =-0.5000 0.8006 0.0000 (  2883 PWs)   bands (ev):

   -17.5260 -11.3498  -9.7867  -5.8149   0.3958   3.7241   5.1062   5.4611

     occupation numbers 
     1.0000   1.0000   1.0000   1.0000   0.0000   0.0000   0.0000   0.0000

          k =-0.5000 0.8622 0.0000 (  2876 PWs)   bands (ev):

   -17.4599 -12.0250  -9.0151  -5.7590   0.1538   3.5759   5.2014   5.6701

     occupation numbers 
     1.0000   1.0000   1.0000   1.0000   0.0000   0.0000   0.0000   0.0000

          k =-0.5000 0.9238 0.0000 (  2889 PWs)   bands (ev):

   -17.3623 -12.6140  -8.2866  -5.6787  -0.1573   3.3010   5.4027   5.9947

     occupation numbers 
     1.0000   1.0000   1.0000   1.0000   0.0000   0.0000   0.0000   0.0000

          k =-0.5000 0.9853 0.0000 (  2875 PWs)   bands (ev):

   -17.2543 -13.0805  -7.6699  -5.5929  -0.4524   2.9578   5.7304   6.4240

     occupation numbers 
     1.0000   1.0000   1.0000   1.0000   0.0000   0.0000   0.0000   0.0000

          k =-0.5000 1.0469 0.0000 (  2879 PWs)   bands (ev):

   -17.1669 -13.3858  -7.2471  -5.5262  -0.6617   2.6701   6.1764   6.9529

     occupation numbers 
     1.0000   1.0000   1.0000   1.0000   0.0000   0.0000   0.0000   0.0000

          k =-0.5000-0.3695 0.0000 (  2880 PWs)   bands (ev):

   -17.1327 -13.4930  -7.0950  -5.5008  -0.7371   2.5576   6.6051   6.9104

     occupation numbers 
     1.0000   1.0000   1.0000   1.0000   0.0000   0.0000   0.0000   0.0000

          k =-0.5000-0.3079 0.0000 (  2879 PWs)   bands (ev):

   -17.1669 -13.3858  -7.2471  -5.5262  -0.6617   2.6701   6.1764   6.9530

     occupation numbers 
     1.0000   1.0000   1.0000   1.0000   0.0000   0.0000   0.0000   0.0000

          k =-0.5000-0.2463 0.0000 (  2875 PWs)   bands (ev):

   -17.2543 -13.0805  -7.6699  -5.5929  -0.4524   2.9578   5.7304   6.4239

     occupation numbers 
     1.0000   1.0000   1.0000   1.0000   0.0000   0.0000   0.0000   0.0000

          k =-0.5000-0.1848 0.0000 (  2889 PWs)   bands (ev):

   -17.3623 -12.6140  -8.2866  -5.6787  -0.1573   3.3010   5.4027   5.9947

     occupation numbers 
     1.0000   1.0000   1.0000   1.0000   0.0000   0.0000   0.0000   0.0000

          k =-0.5000-0.1232 0.0000 (  2876 PWs)   bands (ev):

   -17.4599 -12.0250  -9.0151  -5.7590   0.1538   3.5759   5.2014   5.6702

     occupation numbers 
     1.0000   1.0000   1.0000   1.0000   0.0000   0.0000   0.0000   0.0000

          k =-0.5000-0.0616 0.0000 (  2883 PWs)   bands (ev):

   -17.5260 -11.3498  -9.7867  -5.8149   0.3958   3.7241   5.1062   5.4611

     occupation numbers 
     1.0000   1.0000   1.0000   1.0000   0.0000   0.0000   0.0000   0.0000

          k =-0.5000 0.0000 0.0000 (  2880 PWs)   bands (ev):

   -17.5492 -10.7485 -10.4222  -5.8348   0.4883   3.7659   5.0804   6.0089

     occupation numbers 
     1.0000   1.0000   1.0000   1.0000   0.0000   0.0000   0.0000   0.0000

          k =-0.5000 0.0616 0.0000 (  2883 PWs)   bands (ev):

   -17.5260 -11.3491  -9.7875  -5.8150   0.3960   3.7243   5.1063   5.4611

     occupation numbers 
     1.0000   1.0000   1.0000   1.0000   0.0000   0.0000   0.0000   0.0000

          k =-0.5000 0.1232 0.0000 (  2876 PWs)   bands (ev):

   -17.4599 -12.0242  -9.0159  -5.7592   0.1543   3.5764   5.2014   5.6700

     occupation numbers 
     1.0000   1.0000   1.0000   1.0000   0.0000   0.0000   0.0000   0.0000

          k =-0.5000 0.1848 0.0000 (  2889 PWs)   bands (ev):

   -17.3624 -12.6132  -8.2874  -5.6790  -0.1567   3.3017   5.4027   5.9947

     occupation numbers 
     1.0000   1.0000   1.0000   1.0000   0.0000   0.0000   0.0000   0.0000

          k =-0.5000 0.2463 0.0000 (  2875 PWs)   bands (ev):

   -17.2545 -13.0797  -7.6708  -5.5932  -0.4518   2.9584   5.7304   6.4238

     occupation numbers 
     1.0000   1.0000   1.0000   1.0000   0.0000   0.0000   0.0000   0.0000

          k =-0.5000 0.3079 0.0000 (  2879 PWs)   bands (ev):

   -17.1671 -13.3850  -7.2480  -5.5266  -0.6609   2.6708   6.1763   6.9529

     occupation numbers 
     1.0000   1.0000   1.0000   1.0000   0.0000   0.0000   0.0000   0.0000

          k =-0.4583 0.3387 0.0000 (  2878 PWs)   bands (ev):

   -17.2401 -13.3335  -7.0793  -5.6003  -0.5954   2.5394   5.9062   6.6785

     occupation numbers 
     1.0000   1.0000   1.0000   1.0000   0.0000   0.0000   0.0000   0.0000

          k =-0.4583 0.4003 0.0000 (  2879 PWs)   bands (ev):

   -17.1193 -13.4587  -7.2032  -5.4793  -0.7266   2.6168   6.5187   6.9871

     occupation numbers 
     1.0000   1.0000   1.0000   1.0000   0.0000   0.0000   0.0000   0.0000

          k =-0.4583 0.4619 0.0000 (  2883 PWs)   bands (ev):

   -17.0652 -13.3720  -7.6051  -5.4079  -0.7109   2.8700   6.4991   7.3089

     occupation numbers 
     1.0000   1.0000   1.0000   1.0000   0.0000   0.0000   0.0000   0.0000

          k =-0.4583 0.5235 0.0000 (  2889 PWs)   bands (ev):

   -17.0743 -13.0795  -8.2118  -5.3866  -0.5644   3.1826   6.1779   6.7925

     occupation numbers 
     1.0000   1.0000   1.0000   1.0000   0.0000   0.0000   0.0000   0.0000

          k =-0.4583 0.5850 0.0000 (  2889 PWs)   bands (ev):

   -17.1188 -12.6154  -8.9403  -5.3995  -0.3386   3.4398   5.9334   6.3981

     occupation numbers 
     1.0000   1.0000   1.0000   1.0000   0.0000   0.0000   0.0000   0.0000

          k =-0.4583 0.6466 0.0000 (  2886 PWs)   bands (ev):

   -17.1671 -12.0240  -9.7193  -5.4239  -0.1106   3.5928   5.7728   6.1106

     occupation numbers 
     1.0000   1.0000   1.0000   1.0000   0.0000   0.0000   0.0000   0.0000

          k =-0.4583 0.7082 0.0000 (  2878 PWs)   bands (ev):

   -17.1966 -11.3707 -10.4694  -5.4410   0.0337   3.6566   5.6931   5.9540

     occupation numbers 
     1.0000   1.0000   1.0000   1.0000   0.0000   0.0000   0.0000   0.0000

          k =-0.4583 0.7698 0.0000 (  2878 PWs)   bands (ev):

   -17.1966 -11.3713 -10.4688  -5.4409   0.0335   3.6565   5.6931   5.9541

     occupation numbers 
     1.0000   1.0000   1.0000   1.0000   0.0000   0.0000   0.0000   0.0000

          k =-0.4583 0.8314 0.0000 (  2886 PWs)   bands (ev):

   -17.1670 -12.0247  -9.7186  -5.4237  -0.1110   3.5924   5.7728   6.1106

     occupation numbers 
     1.0000   1.0000   1.0000   1.0000   0.0000   0.0000   0.0000   0.0000

          k =-0.4583 0.8930 0.0000 (  2889 PWs)   bands (ev):

   -17.1187 -12.6162  -8.9395  -5.3993  -0.3391   3.4392   5.9334   6.3981

     occupation numbers 
     1.0000   1.0000   1.0000   1.0000   0.0000   0.0000   0.0000   0.0000

          k =-0.4583 0.9546 0.0000 (  2889 PWs)   bands (ev):

   -17.0741 -13.0803  -8.2110  -5.3863  -0.5651   3.1819   6.1779   6.7926

     occupation numbers 
     1.0000   1.0000   1.0000   1.0000   0.0000   0.0000   0.0000   0.0000

          k =-0.4583 1.0161 0.0000 (  2883 PWs)   bands (ev):

   -17.0650 -13.3728  -7.6043  -5.4075  -0.7117   2.8693   6.4993   7.3089

     occupation numbers 
     1.0000   1.0000   1.0000   1.0000   0.0000   0.0000   0.0000   0.0000

          k =-0.4583-0.4003 0.0000 (  2879 PWs)   bands (ev):

   -17.1191 -13.4596  -7.2023  -5.4788  -0.7274   2.6161   6.5188   6.9873

     occupation numbers 
     1.0000   1.0000   1.0000   1.0000   0.0000   0.0000   0.0000   0.0000

          k =-0.4583-0.3387 0.0000 (  2878 PWs)   bands (ev):

   -17.2398 -13.3343  -7.0784  -5.5999  -0.5962   2.5388   5.9062   6.6783

     occupation numbers 
     1.0000   1.0000   1.0000   1.0000   0.0000   0.0000   0.0000   0.0000

          k =-0.4583-0.2771 0.0000 (  2873 PWs)   bands (ev):

   -17.4025 -13.0218  -7.2576  -5.7527  -0.3352   2.6817   5.3729   6.4042

     occupation numbers 
     1.0000   1.0000   1.0000   1.0000   0.0000   0.0000   0.0000   0.0000

          k =-0.4583-0.2155 0.0000 (  2878 PWs)   bands (ev):

   -17.5723 -12.5593  -7.6982  -5.9113   0.0135   2.9891   4.9608   5.6318

     occupation numbers 
     1.0000   1.0000   1.0000   1.0000   0.0000   0.0000   0.0000   0.0000

          k =-0.4583-0.1540 0.0000 (  2881 PWs)   bands (ev):

   -17.7206 -11.9812  -8.3211  -6.0511   0.3912   3.3315   4.6907   5.2636

     occupation numbers 
     1.0000   1.0000   1.0000   1.0000   0.0000   0.0000   0.0000   0.0000

          k =-0.4583-0.0924 0.0000 (  2887 PWs)   bands (ev):

   -17.8283 -11.3164  -9.0464  -6.1538   0.7221   3.5659   4.5766   5.0045

     occupation numbers 
     1.0000   1.0000   1.0000   1.0000   0.0000   0.0000   0.0000   0.0000

          k =-0.4583-0.0308 0.0000 (  2877 PWs)   bands (ev):

   -17.8845 -10.5948  -9.8071  -6.2079   0.9203   3.6506   4.5647   4.8674

     occupation numbers 
     1.0000   1.0000   1.0000   1.0000   0.0000   0.0000   0.0000   0.0000

          k =-0.4583 0.0308 0.0000 (  2877 PWs)   bands (ev):

   -17.8845 -10.5941  -9.8078  -6.2079   0.9204   3.6507   4.5648   4.8675

     occupation numbers 
     1.0000   1.0000   1.0000   1.0000   0.0000   0.0000   0.0000   0.0000

          k =-0.4583 0.0924 0.0000 (  2887 PWs)   bands (ev):

   -17.8283 -11.3157  -9.0471  -6.1539   0.7224   3.5662   4.5767   5.0048

     occupation numbers 
     1.0000   1.0000   1.0000   1.0000   0.0000   0.0000   0.0000   0.0000

          k =-0.4583 0.1540 0.0000 (  2881 PWs)   bands (ev):

   -17.7207 -11.9805  -8.3219  -6.0513   0.3916   3.3321   4.6907   5.2638

     occupation numbers 
     1.0000   1.0000   1.0000   1.0000   0.0000   0.0000   0.0000   0.0000

          k =-0.4583 0.2155 0.0000 (  2878 PWs)   bands (ev):

   -17.5724 -12.5586  -7.6991  -5.9116   0.0141   2.9897   4.9607   5.6318

     occupation numbers 
     1.0000   1.0000   1.0000   1.0000   0.0000   0.0000   0.0000   0.0000

          k =-0.4583 0.2771 0.0000 (  2873 PWs)   bands (ev):

   -17.4026 -13.0210  -7.2584  -5.7531  -0.3346   2.6824   5.3728   6.1044

     occupation numbers 
     1.0000   1.0000   1.0000   1.0000   0.0000   0.0000   0.0000   0.0000

          k =-0.4167 0.3079 0.0000 (  2880 PWs)   bands (ev):

   -17.5147 -12.9050  -7.0300  -5.8641  -0.2084   2.4804   5.0986   5.8486

     occupation numbers 
     1.0000   1.0000   1.0000   1.0000   0.0000   0.0000   0.0000   0.0000

          k =-0.4167 0.3695 0.0000 (  2875 PWs)   bands (ev):

   -17.2812 -13.2202  -7.1256  -5.6279  -0.5140   2.5200   5.7034   6.4705

     occupation numbers 
     1.0000   1.0000   1.0000   1.0000   0.0000   0.0000   0.0000   0.0000

          k =-0.4167 0.4311 0.0000 (  2887 PWs)   bands (ev):

   -17.0780 -13.3608  -7.5043  -5.4135  -0.7006   2.7260   6.4077   6.9902

     occupation numbers 
     1.0000   1.0000   1.0000   1.0000   0.0000   0.0000   0.0000   0.0000

          k =-0.4167 0.4927 0.0000 (  2897 PWs)   bands (ev):

   -16.9367 -13.2964  -8.0975  -5.2457  -0.7522   2.9833   6.8536   7.2915

     occupation numbers 
     1.0000   1.0000   1.0000   1.0000   0.0000   0.0000   0.0000   0.0000

          k =-0.4167 0.5543 0.0000 (  2889 PWs)   bands (ev):

   -16.8666 -13.0233  -8.8220  -5.1361  -0.6827   3.1848   6.7244   7.1706

     occupation numbers 
     1.0000   1.0000   1.0000   1.0000   0.0000   0.0000   0.0000   0.0000

          k =-0.4167 0.6158 0.0000 (  2886 PWs)   bands (ev):

   -16.8483 -12.5714  -9.6046  -5.0780  -0.5428   3.2967   6.5385   6.7952

     occupation numbers 
     1.0000   1.0000   1.0000   1.0000   0.0000   0.0000   0.0000   0.0000

          k =-0.4167 0.6774 0.0000 (  2885 PWs)   bands (ev):

   -16.8521 -11.9987 -10.3760  -5.0538  -0.4086   3.3428   6.4066   6.5391

     occupation numbers 
     1.0000   1.0000   1.0000   1.0000   0.0000   0.0000   0.0000   0.0000

          k =-0.4167 0.7390 0.0000 (  2880 PWs)   bands (ev):

   -16.8558 -11.5513 -10.8895  -5.0477  -0.3535   3.3541   6.3604   6.4463

     occupation numbers 
     1.0000   1.0000   1.0000   1.0000   0.0000   0.0000   0.0000   0.0000

          k =-0.4167 0.8006 0.0000 (  2885 PWs)   bands (ev):

   -16.8520 -11.9994 -10.3753  -5.0537  -0.4088   3.3425   6.4065   6.5392

     occupation numbers 
     1.0000   1.0000   1.0000   1.0000   0.0000   0.0000   0.0000   0.0000

          k =-0.4167 0.8622 0.0000 (  2886 PWs)   bands (ev):

   -16.8481 -12.5722  -9.6039  -5.0777  -0.5433   3.2962   6.5385   6.7952

     occupation numbers 
     1.0000   1.0000   1.0000   1.0000   0.0000   0.0000   0.0000   0.0000

          k =-0.4167 0.9238 0.0000 (  2889 PWs)   bands (ev):

   -16.8664 -13.0241  -8.8212  -5.1357  -0.6834   3.1841   6.7244   7.1708

     occupation numbers 
     1.0000   1.0000   1.0000   1.0000   0.0000   0.0000   0.0000   0.0000

          k =-0.4167 0.9853 0.0000 (  2897 PWs)   bands (ev):

   -16.9364 -13.2973  -8.0967  -5.2453  -0.7529   2.9825   6.8540   7.2914

     occupation numbers 
     1.0000   1.0000   1.0000   1.0000   0.0000   0.0000   0.0000   0.0000

          k =-0.4167-0.4311 0.0000 (  2887 PWs)   bands (ev):

   -17.0777 -13.3616  -7.5034  -5.4131  -0.7014   2.7252   6.4077   6.9910

     occupation numbers 
     1.0000   1.0000   1.0000   1.0000   0.0000   0.0000   0.0000   0.0000

          k =-0.4167-0.3695 0.0000 (  2875 PWs)   bands (ev):

   -17.2810 -13.2210  -7.1247  -5.6276  -0.5147   2.5193   5.7034   6.4704

     occupation numbers 
     1.0000   1.0000   1.0000   1.0000   0.0000   0.0000   0.0000   0.0000

          k =-0.4167-0.3079 0.0000 (  2880 PWs)   bands (ev):

   -17.5145 -12.9058  -7.0291  -5.8637  -0.2090   2.4797   5.0986   6.1346

     occupation numbers 
     1.0000   1.0000   1.0000   1.0000   0.0000   0.0000   0.0000   0.0000

          k =-0.4167-0.2463 0.0000 (  2876 PWs)   bands (ev):

   -17.7437 -12.4516  -7.2328  -6.0938   0.1812   2.6470   4.6112   5.3288

     occupation numbers 
     1.0000   1.0000   1.0000   1.0000   0.0000   0.0000   0.0000   0.0000

          k =-0.4167-0.1848 0.0000 (  2883 PWs)   bands (ev):

   -17.9424 -11.8888  -7.6878  -6.2943   0.6090   2.9562   4.2586   4.9134

     occupation numbers 
     1.0000   1.0000   1.0000   1.0000   0.0000   0.0000   0.0000   0.0000

          k =-0.4167-0.1232 0.0000 (  2884 PWs)   bands (ev):

   -18.0939 -11.2419  -8.3131  -6.4483   1.0124   3.2502   4.0822   4.6045

     occupation numbers 
     1.0000   1.0000   1.0000   1.0000   0.0000   0.0000   0.0000   0.0000

          k =-0.4167-0.0616 0.0000 (  2883 PWs)   bands (ev):

   -18.1882 -10.5334  -9.0318  -6.5447   1.3117   3.3673   4.0980   4.4088

     occupation numbers 
     1.0000   1.0000   1.0000   1.0000   0.0000   0.0000   0.0000   0.0000

          k =-0.4167-0.0000 0.0000 (  2884 PWs)   bands (ev):

   -18.2202  -9.8120  -9.7605  -6.5774   1.4245   3.3772   4.1362   4.3405

     occupation numbers 
     1.0000   1.0000   1.0000   1.0000   0.0000   0.0000   0.0000   0.0000

          k =-0.4167 0.0616 0.0000 (  2883 PWs)   bands (ev):

   -18.1882 -10.5327  -9.0326  -6.5447   1.3119   3.3675   4.0981   4.4088

     occupation numbers 
     1.0000   1.0000   1.0000   1.0000   0.0000   0.0000   0.0000   0.0000

          k =-0.4167 0.1232 0.0000 (  2884 PWs)   bands (ev):

   -18.0940 -11.2412  -8.3139  -6.4484   1.0127   3.2506   4.0823   4.6045

     occupation numbers 
     1.0000   1.0000   1.0000   1.0000   0.0000   0.0000   0.0000   0.0000

          k =-0.4167 0.1848 0.0000 (  2883 PWs)   bands (ev):

   -17.9425 -11.8881  -7.6887  -6.2944   0.6095   2.9568   4.2586   4.9134

     occupation numbers 
     1.0000   1.0000   1.0000   1.0000   0.0000   0.0000   0.0000   0.0000

          k =-0.4167 0.2463 0.0000 (  2876 PWs)   bands (ev):

   -17.7438 -12.4509  -7.2337  -6.0940   0.1818   2.6476   4.6112   5.3288

     occupation numbers 
     1.0000   1.0000   1.0000   1.0000   0.0000   0.0000   0.0000   0.0000

          k =-0.3750 0.2771 0.0000 (  2881 PWs)   bands (ev):

   -17.8725 -12.2931  -6.9489  -6.2235   0.3495   2.3749   4.3503   5.0942

     occupation numbers 
     1.0000   1.0000   1.0000   1.0000   0.0000   0.0000   0.0000   0.0000

          k =-0.3750 0.3387 0.0000 (  2870 PWs)   bands (ev):

   -17.5869 -12.7363  -7.0173  -5.9240  -0.0746   2.3752   4.9053   5.6631

     occupation numbers 
     1.0000   1.0000   1.0000   1.0000   0.0000   0.0000   0.0000   0.0000

          k =-0.3750 0.4003 0.0000 (  2874 PWs)   bands (ev):

   -17.2875 -13.0513  -7.3714  -5.6081  -0.4226   2.5231   5.5752   6.3329

     occupation numbers 
     1.0000   1.0000   1.0000   1.0000   0.0000   0.0000   0.0000   0.0000

          k =-0.3750 0.4619 0.0000 (  2895 PWs)   bands (ev):

   -17.0074 -13.2054  -7.9478  -5.3038  -0.6680   2.7058   6.3523   6.9451

     occupation numbers 
     1.0000   1.0000   1.0000   1.0000   0.0000   0.0000   0.0000   0.0000

          k =-0.3750 0.5235 0.0000 (  2892 PWs)   bands (ev):

   -16.7831 -13.1660  -8.6643  -5.0415  -0.7975   2.8279   7.1972   7.3619

     occupation numbers 
     1.0000   1.0000   1.0000   1.0000   0.0000   0.0000   0.0000   0.0000

          k =-0.3750 0.5850 0.0000 (  2892 PWs)   bands (ev):

   -16.6363 -12.9213  -9.4458  -4.8447  -0.8213   2.8725   7.3644   7.4570

     occupation numbers 
     1.0000   1.0000   1.0000   1.0000   0.0000   0.0000   0.0000   0.0000

          k =-0.3750 0.6466 0.0000 (  2881 PWs)   bands (ev):

   -16.5600 -12.5009 -10.2247  -4.7208  -0.7802   2.8732   7.0977   7.2096

     occupation numbers 
     1.0000   1.0000   1.0000   1.0000   0.0000   0.0000   0.0000   0.0000

          k =-0.3750 0.7082 0.0000 (  2881 PWs)   bands (ev):

   -16.5307 -12.0161 -10.8861  -4.6631  -0.7360   2.8643   6.8896   7.1138

     occupation numbers 
     1.0000   1.0000   1.0000   1.0000   0.0000   0.0000   0.0000   0.0000

          k =-0.3750 0.7698 0.0000 (  2881 PWs)   bands (ev):

   -16.5307 -12.0167 -10.8856  -4.6630  -0.7361   2.8642   6.8897   7.1138

     occupation numbers 
     1.0000   1.0000   1.0000   1.0000   0.0000   0.0000   0.0000   0.0000

          k =-0.3750 0.8314 0.0000 (  2881 PWs)   bands (ev):

   -16.5599 -12.5017 -10.2239  -4.7206  -0.7806   2.8729   7.0979   7.2096

     occupation numbers 
     1.0000   1.0000   1.0000   1.0000   0.0000   0.0000   0.0000   0.0000

          k =-0.3750 0.8930 0.0000 (  2892 PWs)   bands (ev):

   -16.6361 -12.9222  -9.4450  -4.8444  -0.8219   2.8720   7.3644   7.4573

     occupation numbers 
     1.0000   1.0000   1.0000   1.0000   0.0000   0.0000   0.0000   0.0000

          k =-0.3750 0.9546 0.0000 (  2892 PWs)   bands (ev):

   -16.7828 -13.1669  -8.6635  -5.0411  -0.7982   2.8272   7.1974   7.3624

     occupation numbers 
     1.0000   1.0000   1.0000   1.0000   0.0000   0.0000   0.0000   0.0000

          k =-0.3750-0.4619 0.0000 (  2895 PWs)   bands (ev):

   -17.0072 -13.2062  -7.9470  -5.3034  -0.6687   2.7050   6.3523   6.9463

     occupation numbers 
     1.0000   1.0000   1.0000   1.0000   0.0000   0.0000   0.0000   0.0000

          k =-0.3750-0.4003 0.0000 (  2874 PWs)   bands (ev):

   -17.2873 -13.0521  -7.3704  -5.6077  -0.4233   2.5223   5.5752   6.3328

     occupation numbers 
     1.0000   1.0000   1.0000   1.0000   0.0000   0.0000   0.0000   0.0000

          k =-0.3750-0.3387 0.0000 (  2870 PWs)   bands (ev):

   -17.5868 -12.7371  -7.0164  -5.9237  -0.0752   2.3744   4.9053   5.6631

     occupation numbers 
     1.0000   1.0000   1.0000   1.0000   0.0000   0.0000   0.0000   0.0000

          k =-0.3750-0.2771 0.0000 (  2881 PWs)   bands (ev):

   -17.8724 -12.2939  -6.9480  -6.2233   0.3489   2.3742   4.3503   5.0942

     occupation numbers 
     1.0000   1.0000   1.0000   1.0000   0.0000   0.0000   0.0000   0.0000

          k =-0.3750-0.2155 0.0000 (  2882 PWs)   bands (ev):

   -18.1206 -11.7485  -7.1730  -6.4845   0.8136   2.5586   3.9200   4.6302

     occupation numbers 
     1.0000   1.0000   1.0000   1.0000   0.0000   0.0000   0.0000   0.0000

          k =-0.3750-0.1540 0.0000 (  2876 PWs)   bands (ev):

   -18.3167 -11.1223  -7.6378  -6.6918   1.2710   2.8452   3.6459   4.2719

     occupation numbers 
     1.0000   1.0000   1.0000   1.0000   0.0000   0.0000   0.0000   0.0000

          k =-0.3750-0.0924 0.0000 (  2872 PWs)   bands (ev):

   -18.4515 -10.4353  -8.2613  -6.8351   1.6555   3.0150   3.6200   4.0208

     occupation numbers 
     1.0000   1.0000   1.0000   1.0000   0.0000   0.0000   0.0000   0.0000

          k =-0.3750-0.0308 0.0000 (  2890 PWs)   bands (ev):

   -18.5201  -9.7106  -8.9682  -6.9082   1.8837   3.0121   3.7313   3.8871

     occupation numbers 
     1.0000   1.0000   1.0000   1.0000   0.0000   0.0000   0.0000   0.0000

          k =-0.3750 0.0308 0.0000 (  2890 PWs)   bands (ev):

   -18.5201  -9.7098  -8.9689  -6.9082   1.8838   3.0122   3.7314   3.8871

     occupation numbers 
     1.0000   1.0000   1.0000   1.0000   0.0000   0.0000   0.0000   0.0000

          k =-0.3750 0.0924 0.0000 (  2872 PWs)   bands (ev):

   -18.4516 -10.4346  -8.2621  -6.8352   1.6558   3.0152   3.6202   4.0208

     occupation numbers 
     1.0000   1.0000   1.0000   1.0000   0.0000   0.0000   0.0000   0.0000

          k =-0.3750 0.1540 0.0000 (  2876 PWs)   bands (ev):

   -18.3167 -11.1216  -7.6387  -6.6919   1.2714   2.8457   3.6459   4.2717

     occupation numbers 
     1.0000   1.0000   1.0000   1.0000   0.0000   0.0000   0.0000   0.0000

          k =-0.3750 0.2155 0.0000 (  2882 PWs)   bands (ev):

   -18.1207 -11.7478  -7.1739  -6.4847   0.8141   2.5593   3.9200   4.6303

     occupation numbers 
     1.0000   1.0000   1.0000   1.0000   0.0000   0.0000   0.0000   0.0000

          k =-0.3333 0.2463 0.0000 (  2871 PWs)   bands (ev):

   -18.2519 -11.5634  -6.8376  -6.6191   1.0070   2.2167   3.6747   4.4186

     occupation numbers 
     1.0000   1.0000   1.0000   1.0000   0.0000   0.0000   0.0000   0.0000

          k =-0.3333 0.3079 0.0000 (  2874 PWs)   bands (ev):

   -17.9555 -12.0908  -6.8818  -6.2981   0.5140   2.1766   4.1747   4.9321

     occupation numbers 
     1.0000   1.0000   1.0000   1.0000   0.0000   0.0000   0.0000   0.0000

          k =-0.3333 0.3695 0.0000 (  2866 PWs)   bands (ev):

   -17.6165 -12.5228  -7.2110  -5.9316   0.0589   2.2585   4.7929   5.8311

     occupation numbers 
     1.0000   1.0000   1.0000   1.0000   0.0000   0.0000   0.0000   0.0000

          k =-0.3333 0.4311 0.0000 (  2883 PWs)   bands (ev):

   -17.2562 -12.8373  -7.7679  -5.5398  -0.3334   2.3553   5.5231   6.2674

     occupation numbers 
     1.0000   1.0000   1.0000   1.0000   0.0000   0.0000   0.0000   0.0000

          k =-0.3333 0.4927 0.0000 (  2890 PWs)   bands (ev):

   -16.9058 -13.0060  -8.4719  -5.1500  -0.6448   2.3878   6.3590   7.1822

     occupation numbers 
     1.0000   1.0000   1.0000   1.0000   0.0000   0.0000   0.0000   0.0000

          k =-0.3333 0.5543 0.0000 (  2896 PWs)   bands (ev):

   -16.6055 -12.9979  -9.2469  -4.7966  -0.8652   2.3560   7.2912   7.9110

     occupation numbers 
     1.0000   1.0000   1.0000   1.0000   0.0000   0.0000   0.0000   0.0000

          k =-0.3333 0.6158 0.0000 (  2894 PWs)   bands (ev):

   -16.3894 -12.7991 -10.0249  -4.5163  -0.9961   2.2989   7.5544   8.0654

     occupation numbers 
     1.0000   1.0000   1.0000   1.0000   0.0000   0.0000   0.0000   0.0000

          k =-0.3333 0.6774 0.0000 (  2893 PWs)   bands (ev):

   -16.2676 -12.4552 -10.7194  -4.3383  -1.0556   2.2514   7.2627   7.9502

     occupation numbers 
     1.0000   1.0000   1.0000   1.0000   0.0000   0.0000   0.0000   0.0000

          k =-0.3333 0.7390 0.0000 (  2884 PWs)   bands (ev):

   -16.2295 -12.2136 -11.0770  -4.2777  -1.0709   2.2335   7.1498   7.9007

     occupation numbers 
     1.0000   1.0000   1.0000   1.0000   0.0000   0.0000   0.0000   0.0000

          k =-0.3333 0.8006 0.0000 (  2893 PWs)   bands (ev):

   -16.2675 -12.4559 -10.7188  -4.3381  -1.0559   2.2512   7.2628   7.9502

     occupation numbers 
     1.0000   1.0000   1.0000   1.0000   0.0000   0.0000   0.0000   0.0000

          k =-0.3333 0.8622 0.0000 (  2894 PWs)   bands (ev):

   -16.3892 -12.8000 -10.0241  -4.5160  -0.9966   2.2985   7.5545   8.0653

     occupation numbers 
     1.0000   1.0000   1.0000   1.0000   0.0000   0.0000   0.0000   0.0000

          k =-0.3333 0.9238 0.0000 (  2896 PWs)   bands (ev):

   -16.6053 -12.9988  -9.2461  -4.7962  -0.8659   2.3555   7.2911   7.9120

     occupation numbers 
     1.0000   1.0000   1.0000   1.0000   0.0000   0.0000   0.0000   0.0000

          k =-0.3333-0.4927 0.0000 (  2890 PWs)   bands (ev):

   -16.9056 -13.0068  -8.4710  -5.1496  -0.6455   2.3871   6.3591   7.1835

     occupation numbers 
     1.0000   1.0000   1.0000   1.0000   0.0000   0.0000   0.0000   0.0000

          k =-0.3333-0.4311 0.0000 (  2883 PWs)   bands (ev):

   -17.2560 -12.8381  -7.7669  -5.5395  -0.3341   2.3544   5.5231   6.2675

     occupation numbers 
     1.0000   1.0000   1.0000   1.0000   0.0000   0.0000   0.0000   0.0000

          k =-0.3333-0.3695 0.0000 (  2866 PWs)   bands (ev):

   -17.6164 -12.5236  -7.2101  -5.9313   0.0583   2.2576   4.7929   5.5503

     occupation numbers 
     1.0000   1.0000   1.0000   1.0000   0.0000   0.0000   0.0000   0.0000

          k =-0.3333-0.3079 0.0000 (  2874 PWs)   bands (ev):

   -17.9554 -12.0916  -6.8808  -6.2979   0.5135   2.1757   4.1747   4.9321

     occupation numbers 
     1.0000   1.0000   1.0000   1.0000   0.0000   0.0000   0.0000   0.0000

          k =-0.3333-0.2463 0.0000 (  2871 PWs)   bands (ev):

   -18.2518 -11.5641  -6.8367  -6.6189   1.0065   2.2159   3.6747   4.4187

     occupation numbers 
     1.0000   1.0000   1.0000   1.0000   0.0000   0.0000   0.0000   0.0000

          k =-0.3333-0.1848 0.0000 (  2865 PWs)   bands (ev):

   -18.4924 -10.9593  -7.0780  -6.8804   1.5020   2.4102   3.3079   4.0117

     occupation numbers 
     1.0000   1.0000   1.0000   1.0000   0.0000   0.0000   0.0000   0.0000

          k =-0.3333-0.1232 0.0000 (  2870 PWs)   bands (ev):

   -18.6690 -10.2952  -7.5472  -7.0731   1.9502   2.6329   3.1474   3.7101

     occupation numbers 
     1.0000   1.0000   1.0000   1.0000   0.0000   0.0000   0.0000   0.0000

          k =-0.3333-0.0616 0.0000 (  2878 PWs)   bands (ev):

   -18.7767  -9.5942  -8.1617  -7.1909   2.2816   2.6513   3.2807   3.5147

     occupation numbers 
     1.0000   1.0000   1.0000   1.0000   0.0000   0.0000   0.0000   0.0000

          k =-0.3333 0.0000 0.0000 (  2890 PWs)   bands (ev):

   -18.8129  -8.9779  -8.7546  -7.2306   2.4095   2.6241   3.3707   3.4429

     occupation numbers 
     1.0000   1.0000   1.0000   1.0000   0.0000   0.0000   0.0000   0.0000

          k =-0.3333 0.0616 0.0000 (  2878 PWs)   bands (ev):

   -18.7767  -9.5934  -8.1626  -7.1909   2.2818   2.6514   3.2810   3.5147

     occupation numbers 
     1.0000   1.0000   1.0000   1.0000   0.0000   0.0000   0.0000   0.0000

          k =-0.3333 0.1232 0.0000 (  2870 PWs)   bands (ev):

   -18.6690 -10.2945  -7.5481  -7.0732   1.9505   2.6333   3.1476   3.7100

     occupation numbers 
     1.0000   1.0000   1.0000   1.0000   0.0000   0.0000   0.0000   0.0000

          k =-0.3333 0.1848 0.0000 (  2865 PWs)   bands (ev):

   -18.4925 -10.9586  -7.0789  -6.8805   1.5024   2.4109   3.3079   4.0118

     occupation numbers 
     1.0000   1.0000   1.0000   1.0000   0.0000   0.0000   0.0000   0.0000

          k =-0.2917 0.2155 0.0000 (  2861 PWs)   bands (ev):

   -18.6185 -10.7571  -7.0114  -6.6981   1.7066   2.0033   3.0752   3.8267

     occupation numbers 
     1.0000   1.0000   1.0000   1.0000   0.0000   0.0000   0.0000   0.0000

          k =-0.2917 0.2771 0.0000 (  2871 PWs)   bands (ev):

   -18.3338 -11.3415  -6.7232  -6.6959   1.1845   1.9224   3.5186   4.5453

     occupation numbers 
     1.0000   1.0000   1.0000   1.0000   0.0000   0.0000   0.0000   0.0000

          k =-0.2917 0.3387 0.0000 (  2880 PWs)   bands (ev):

   -17.9907 -11.8529  -7.0293  -6.3165   0.6666   1.9357   4.0827   5.1166

     occupation numbers 
     1.0000   1.0000   1.0000   1.0000   0.0000   0.0000   0.0000   0.0000

          k =-0.2917 0.4003 0.0000 (  2880 PWs)   bands (ev):

   -17.6013 -12.2763  -7.5646  -5.8860   0.1782   1.9458   4.7600   5.5114

     occupation numbers 
     1.0000   1.0000   1.0000   1.0000   0.0000   0.0000   0.0000   0.0000

          k =-0.2917 0.4619 0.0000 (  2897 PWs)   bands (ev):

   -17.1848 -12.5947  -8.2517  -5.4226  -0.2647   1.8918   5.5458   6.2730

     occupation numbers 
     1.0000   1.0000   1.0000   1.0000   0.0000   0.0000   0.0000   0.0000

          k =-0.2917 0.5235 0.0000 (  2897 PWs)   bands (ev):

   -16.7717 -12.7860  -9.0143  -4.9525  -0.6521   1.7858   6.4360   7.0843

     occupation numbers 
     1.0000   1.0000   1.0000   1.0000   0.0000   0.0000   0.0000   0.0000

          k =-0.2917 0.5850 0.0000 (  2898 PWs)   bands (ev):

   -16.4051 -12.8263  -9.7833  -4.5129  -0.9752   1.6686   7.4217   7.6664

     occupation numbers 
     1.0000   1.0000   1.0000   1.0000   0.0000   0.0000   0.0000   0.0000

          k =-0.2917 0.6466 0.0000 (  2889 PWs)   bands (ev):

   -16.1340 -12.7111 -10.4811  -4.1563  -1.2199   1.5743   7.5658   8.4692

     occupation numbers 
     1.0000   1.0000   1.0000   1.0000   0.0000   0.0000   0.0000   0.0000

          k =-0.2917 0.7082 0.0000 (  2893 PWs)   bands (ev):

   -15.9929 -12.5279 -10.9659  -3.9495  -1.3582   1.5225   7.3844   8.7640

     occupation numbers 
     1.0000   1.0000   1.0000   1.0000   0.0000   0.0000   0.0000   0.0000

          k =-0.2917 0.7698 0.0000 (  2893 PWs)   bands (ev):

   -15.9928 -12.5282 -10.9656  -3.9494  -1.3584   1.5224   7.3845   8.7638

     occupation numbers 
     1.0000   1.0000   1.0000   1.0000   0.0000   0.0000   0.0000   0.0000

          k =-0.2917 0.8314 0.0000 (  2889 PWs)   bands (ev):

   -16.1338 -12.7120 -10.4804  -4.1560  -1.2204   1.5741   7.5661   8.4694

     occupation numbers 
     1.0000   1.0000   1.0000   1.0000   0.0000   0.0000   0.0000   0.0000

          k =-0.2917 0.8930 0.0000 (  2898 PWs)   bands (ev):

   -16.4049 -12.8272  -9.7824  -4.5125  -0.9758   1.6682   7.4217   7.6667

     occupation numbers 
     1.0000   1.0000   1.0000   1.0000   0.0000   0.0000   0.0000   0.0000

          k =-0.2917-0.5235 0.0000 (  2897 PWs)   bands (ev):

   -16.7715 -12.7869  -9.0134  -4.9521  -0.6527   1.7853   6.4360   7.0846

     occupation numbers 
     1.0000   1.0000   1.0000   1.0000   0.0000   0.0000   0.0000   0.0000

          k =-0.2917-0.4619 0.0000 (  2897 PWs)   bands (ev):

   -17.1847 -12.5955  -8.2508  -5.4223  -0.2654   1.8911   5.5458   6.2728

     occupation numbers 
     1.0000   1.0000   1.0000   1.0000   0.0000   0.0000   0.0000   0.0000

          k =-0.2917-0.4003 0.0000 (  2880 PWs)   bands (ev):

   -17.6011 -12.2771  -7.5636  -5.8857   0.1776   1.9449   4.7600   5.8021

     occupation numbers 
     1.0000   1.0000   1.0000   1.0000   0.0000   0.0000   0.0000   0.0000

          k =-0.2917-0.3387 0.0000 (  2880 PWs)   bands (ev):

   -17.9906 -11.8537  -7.0283  -6.3163   0.6661   1.9348   4.0827   4.8438

     occupation numbers 
     1.0000   1.0000   1.0000   1.0000   0.0000   0.0000   0.0000   0.0000

          k =-0.2917-0.2771 0.0000 (  2871 PWs)   bands (ev):

   -18.3337 -11.3422  -6.7222  -6.6957   1.1840   1.9214   3.5186   4.2810

     occupation numbers 
     1.0000   1.0000   1.0000   1.0000   0.0000   0.0000   0.0000   0.0000

          k =-0.2917-0.2155 0.0000 (  2861 PWs)   bands (ev):

   -18.6184 -10.7579  -7.0113  -6.6971   1.7062   2.0025   3.0752   3.8268

     occupation numbers 
     1.0000   1.0000   1.0000   1.0000   0.0000   0.0000   0.0000   0.0000

          k =-0.2917-0.1540 0.0000 (  2863 PWs)   bands (ev):

   -18.8371 -10.1164  -7.2545  -6.9479   2.1944   2.2000   2.7790   3.4815

     occupation numbers 
     1.0000   1.0000   1.0000   1.0000   0.0000   0.0000   0.0000   0.0000

          k =-0.2917-0.0924 0.0000 (  2864 PWs)   bands (ev):

   -18.9852  -9.4387  -7.4195  -7.4127   2.3178   2.5966   2.7722   3.2410

     occupation numbers 
     1.0000   1.0000   1.0000   1.0000   0.0000   0.0000   0.0000   0.0000

          k =-0.2917-0.0308 0.0000 (  2874 PWs)   bands (ev):

   -19.0599  -8.7700  -7.9919  -7.5029   2.2736   2.8547   2.9640   3.0927

     occupation numbers 
     1.0000   1.0000   1.0000   1.0000   0.0000   0.0000   0.0000   0.0000

          k =-0.2917 0.0308 0.0000 (  2874 PWs)   bands (ev):

   -19.0599  -8.7693  -7.9927  -7.5030   2.2737   2.8547   2.9642   3.0927

     occupation numbers 
     1.0000   1.0000   1.0000   1.0000   0.0000   0.0000   0.0000   0.0000

          k =-0.2917 0.0924 0.0000 (  2864 PWs)   bands (ev):

   -18.9852  -9.4379  -7.4196  -7.4136   2.3181   2.5967   2.7727   3.2411

     occupation numbers 
     1.0000   1.0000   1.0000   1.0000   0.0000   0.0000   0.0000   0.0000

          k =-0.2917 0.1540 0.0000 (  2863 PWs)   bands (ev):

   -18.8372 -10.1157  -7.2546  -6.9489   2.1947   2.2007   2.7791   3.4815

     occupation numbers 
     1.0000   1.0000   1.0000   1.0000   0.0000   0.0000   0.0000   0.0000

          k =-0.2500 0.1848 0.0000 (  2845 PWs)   bands (ev):

   -18.9535  -9.9044  -7.3768  -6.5321   1.7418   2.3847   2.5525   3.3393

     occupation numbers 
     1.0000   1.0000   1.0000   1.0000   0.0000   0.0000   0.0000   0.0000

          k =-0.2500 0.2463 0.0000 (  2859 PWs)   bands (ev):

   -18.6927 -10.5252  -7.0828  -6.5461   1.6208   1.8800   2.9397   3.7172

     occupation numbers 
     1.0000   1.0000   1.0000   1.0000   0.0000   0.0000   0.0000   0.0000

          k =-0.2500 0.3079 0.0000 (  2882 PWs)   bands (ev):

   -18.3647 -11.0925  -6.8335  -6.7139   1.3368   1.5702   3.4489   4.2179

     occupation numbers 
     1.0000   1.0000   1.0000   1.0000   0.0000   0.0000   0.0000   0.0000

          k =-0.2500 0.3695 0.0000 (  2882 PWs)   bands (ev):

   -17.9766 -11.5930  -7.3472  -6.2779   0.7920   1.5036   4.0719   4.8303

     occupation numbers 
     1.0000   1.0000   1.0000   1.0000   0.0000   0.0000   0.0000   0.0000

          k =-0.2500 0.4311 0.0000 (  2895 PWs)   bands (ev):

   -17.5395 -12.0159  -8.0135  -5.7865   0.2638   1.3747   4.8050   5.5469

     occupation numbers 
     1.0000   1.0000   1.0000   1.0000   0.0000   0.0000   0.0000   0.0000

          k =-0.2500 0.4927 0.0000 (  2899 PWs)   bands (ev):

   -17.0720 -12.3509  -8.7570  -5.2564  -0.2391   1.2024   5.6459   6.3506

     occupation numbers 
     1.0000   1.0000   1.0000   1.0000   0.0000   0.0000   0.0000   0.0000

          k =-0.2500 0.5543 0.0000 (  2909 PWs)   bands (ev):

   -16.6041 -12.5868  -9.5086  -4.7118  -0.7124   1.0275   6.5906   7.1748

     occupation numbers 
     1.0000   1.0000   1.0000   1.0000   0.0000   0.0000   0.0000   0.0000

          k =-0.2500 0.6158 0.0000 (  2894 PWs)   bands (ev):

   -16.1847 -12.7139 -10.1938  -4.1925  -1.1453   0.8831   7.6278   7.6780

     occupation numbers 
     1.0000   1.0000   1.0000   1.0000   0.0000   0.0000   0.0000   0.0000

          k =-0.2500 0.6774 0.0000 (  2887 PWs)   bands (ev):

   -15.8838 -12.7414 -10.7112  -3.7737  -1.4949   0.7896   7.6263   8.7208

     occupation numbers 
     1.0000   1.0000   1.0000   1.0000   0.0000   0.0000   0.0000   0.0000

          k =-0.2500 0.7390 0.0000 (  2882 PWs)   bands (ev):

   -15.7729 -12.7316 -10.9145  -3.5978  -1.6445   0.7574   7.5555   9.5366

     occupation numbers 
     1.0000   1.0000   1.0000   1.0001   0.0000   0.0000   0.0000   0.0000

          k =-0.2500 0.8006 0.0000 (  2887 PWs)   bands (ev):

   -15.8837 -12.7420 -10.7106  -3.7734  -1.4953   0.7895   7.6265   8.7208

     occupation numbers 
     1.0000   1.0000   1.0000   1.0000   0.0000   0.0000   0.0000   0.0000

          k =-0.2500 0.8622 0.0000 (  2894 PWs)   bands (ev):

   -16.1845 -12.7147 -10.1930  -4.1922  -1.1458   0.8828   7.6277   7.6782

     occupation numbers 
     1.0000   1.0000   1.0000   1.0000   0.0000   0.0000   0.0000   0.0000

          k =-0.2500-0.5543 0.0000 (  2909 PWs)   bands (ev):

   -16.6039 -12.5877  -9.5077  -4.7115  -0.7129   1.0271   6.5905   7.1748

     occupation numbers 
     1.0000   1.0000   1.0000   1.0000   0.0000   0.0000   0.0000   0.0000

          k =-0.2500-0.4927 0.0000 (  2899 PWs)   bands (ev):

   -17.0718 -12.3518  -8.7561  -5.2561  -0.2396   1.2019   5.6459   6.6979

     occupation numbers 
     1.0000   1.0000   1.0000   1.0000   0.0000   0.0000   0.0000   0.0000

          k =-0.2500-0.4311 0.0000 (  2895 PWs)   bands (ev):

   -17.5394 -12.0168  -8.0125  -5.7863   0.2633   1.3740   4.8050   5.5469

     occupation numbers 
     1.0000   1.0000   1.0000   1.0000   0.0000   0.0000   0.0000   0.0000

          k =-0.2500-0.3695 0.0000 (  2882 PWs)   bands (ev):

   -17.9765 -11.5938  -7.3462  -6.2777   0.7915   1.5027   4.0719   4.8304

     occupation numbers 
     1.0000   1.0000   1.0000   1.0000   0.0000   0.0000   0.0000   0.0000

          k =-0.2500-0.3079 0.0000 (  2882 PWs)   bands (ev):

   -18.3647 -11.0933  -6.8324  -6.7137   1.3364   1.5692   3.4489   4.2178

     occupation numbers 
     1.0000   1.0000   1.0000   1.0000   0.0000   0.0000   0.0000   0.0000

          k =-0.2500-0.2463 0.0000 (  2859 PWs)   bands (ev):

   -18.6927 -10.5260  -7.0827  -6.5450   1.6199   1.8796   2.9397   3.7172

     occupation numbers 
     1.0000   1.0000   1.0000   1.0000   0.0000   0.0000   0.0000   0.0000

          k =-0.2500-0.1848 0.0000 (  2845 PWs)   bands (ev):

   -18.9535  -9.9052  -7.3767  -6.5310   1.7409   2.3845   2.5525   3.3392

     occupation numbers 
     1.0000   1.0000   1.0000   1.0000   0.0000   0.0000   0.0000   0.0000

          k =-0.2500-0.1232 0.0000 (  2842 PWs)   bands (ev):

   -19.1425  -9.2500  -7.5903  -6.7801   1.9392   2.3318   2.7481   3.1455

     occupation numbers 
     1.0000   1.0000   1.0000   1.0000   0.0000   0.0000   0.0000   0.0000

          k =-0.2500-0.0616 0.0000 (  2851 PWs)   bands (ev):

   -19.2570  -8.5959  -7.7199  -7.2202   1.9758   2.4617   2.7675   3.1485

     occupation numbers 
     1.0000   1.0000   1.0000   1.0000   0.0000   0.0000   0.0000   0.0000

          k =-0.2500 0.0000 0.0000 (  2868 PWs)   bands (ev):

   -19.2953  -8.1492  -7.7632  -7.6018   1.9434   2.6217   2.7317   3.1580

     occupation numbers 
     1.0000   1.0000   1.0000   1.0000   0.0000   0.0000   0.0000   0.0000

          k =-0.2500 0.0616 0.0000 (  2851 PWs)   bands (ev):

   -19.2570  -8.5951  -7.7199  -7.2211   1.9759   2.4622   2.7675   3.1482

     occupation numbers 
     1.0000   1.0000   1.0000   1.0000   0.0000   0.0000   0.0000   0.0000

          k =-0.2500 0.1232 0.0000 (  2842 PWs)   bands (ev):

   -19.1426  -9.2492  -7.5904  -6.7811   1.9399   2.3320   2.7482   3.1450

     occupation numbers 
     1.0000   1.0000   1.0000   1.0000   0.0000   0.0000   0.0000   0.0000

          k =-0.2083 0.1540 0.0000 (  2839 PWs)   bands (ev):

   -19.2468  -9.0360  -7.7008  -6.3386   1.4480   2.1060   2.7033   3.1137

     occupation numbers 
     1.0000   1.0000   1.0000   1.0000   0.0000   0.0000   0.0000   0.0000

          k =-0.2083 0.2155 0.0000 (  2851 PWs)   bands (ev):

   -19.0167  -9.6711  -7.4382  -6.3553   1.2905   2.4389   2.5180   3.2810

     occupation numbers 
     1.0000   1.0000   1.0000   1.0000   0.0000   0.0000   0.0000   0.0000

          k =-0.2083 0.2771 0.0000 (  2868 PWs)   bands (ev):

   -18.7142 -10.2755  -7.0937  -6.6326   1.1884   2.0136   2.8936   3.6815

     occupation numbers 
     1.0000   1.0000   1.0000   1.0000   0.0000   0.0000   0.0000   0.0000

          k =-0.2083 0.3387 0.0000 (  2880 PWs)   bands (ev):

   -18.3438 -10.8326  -7.1273  -6.6725   1.0624   1.4481   3.4614   4.2292

     occupation numbers 
     1.0000   1.0000   1.0000   1.0000   0.0000   0.0000   0.0000   0.0000

          k =-0.2083 0.4003 0.0000 (  2887 PWs)   bands (ev):

   -17.9123 -11.3330  -7.7699  -6.1823   0.8697   0.8746   4.1402   4.8922

     occupation numbers 
     1.0000   1.0000   1.0000   1.0000   0.0000   0.0000   0.0000   0.0000

          k =-0.2083 0.4619 0.0000 (  2895 PWs)   bands (ev):

   -17.4307 -11.7729  -8.4882  -5.6338   0.2926   0.6459   4.9288   5.6573

     occupation numbers 
     1.0000   1.0000   1.0000   1.0000   0.0000   0.0000   0.0000   0.0000

          k =-0.2083 0.5235 0.0000 (  2899 PWs)   bands (ev):

   -16.9172 -12.1529  -9.2132  -5.0418  -0.2796   0.4170   5.8252   6.5011

     occupation numbers 
     1.0000   1.0000   1.0000   1.0000   0.0000   0.0000   0.0000   0.0000

          k =-0.2083 0.5850 0.0000 (  2899 PWs)   bands (ev):

   -16.4039 -12.4770  -9.8734  -4.4293  -0.8445   0.2219   6.8235   7.3291

     occupation numbers 
     1.0000   1.0000   1.0000   1.0000   0.0000   0.0000   0.0000   0.0000

          k =-0.2083 0.6466 0.0000 (  2897 PWs)   bands (ev):

   -15.9510 -12.7424 -10.3871  -3.8389  -1.3842   0.0821   7.7762   7.9090

     occupation numbers 
     1.0000   1.0000   1.0000   1.0000   0.0000   0.0000   0.0000   0.0000

          k =-0.2083 0.7082 0.0000 (  2881 PWs)   bands (ev):

   -15.6648 -12.9113 -10.6709  -3.3890  -1.8021   0.0096   7.7871   9.0250

     occupation numbers 
     1.0000   1.0000   1.0000   1.0027   0.0000   0.0000   0.0000   0.0000

          k =-0.2083 0.7698 0.0000 (  2881 PWs)   bands (ev):

   -15.6648 -12.9116 -10.6707  -3.3889  -1.8023   0.0096   7.7871   9.0247

     occupation numbers 
     1.0000   1.0000   1.0000   1.0028   0.0000   0.0000   0.0000   0.0000

          k =-0.2083 0.8314 0.0000 (  2897 PWs)   bands (ev):

   -15.9509 -12.7431 -10.3865  -3.8386  -1.3847   0.0819   7.7765   7.9090

     occupation numbers 
     1.0000   1.0000   1.0000   1.0000   0.0000   0.0000   0.0000   0.0000

          k =-0.2083-0.5850 0.0000 (  2899 PWs)   bands (ev):

   -16.4037 -12.4779  -9.8726  -4.4291  -0.8450   0.2216   6.8234   7.3292

     occupation numbers 
     1.0000   1.0000   1.0000   1.0000   0.0000   0.0000   0.0000   0.0000

          k =-0.2083-0.5235 0.0000 (  2899 PWs)   bands (ev):

   -16.9171 -12.1538  -9.2123  -5.0416  -0.2801   0.4166   5.8251   6.5009

     occupation numbers 
     1.0000   1.0000   1.0000   1.0000   0.0000   0.0000   0.0000   0.0000

          k =-0.2083-0.4619 0.0000 (  2895 PWs)   bands (ev):

   -17.4306 -11.7737  -8.4872  -5.6335   0.2921   0.6454   4.9289   5.6574

     occupation numbers 
     1.0000   1.0000   1.0000   1.0000   0.0000   0.0000   0.0000   0.0000

          k =-0.2083-0.4003 0.0000 (  2887 PWs)   bands (ev):

   -17.9122 -11.3338  -7.7689  -6.1821   0.8693   0.8740   4.1402   5.1766

     occupation numbers 
     1.0000   1.0000   1.0000   1.0000   0.0000   0.0000   0.0000   0.0000

          k =-0.2083-0.3387 0.0000 (  2880 PWs)   bands (ev):

   -18.3437 -10.8334  -7.1262  -6.6724   1.0616   1.4477   3.4614   4.2292

     occupation numbers 
     1.0000   1.0000   1.0000   1.0000   0.0000   0.0000   0.0000   0.0000

          k =-0.2083-0.2771 0.0000 (  2868 PWs)   bands (ev):

   -18.7141 -10.2764  -7.0936  -6.6314   1.1874   2.0132   2.8937   3.6814

     occupation numbers 
     1.0000   1.0000   1.0000   1.0000   0.0000   0.0000   0.0000   0.0000

          k =-0.2083-0.2155 0.0000 (  2851 PWs)   bands (ev):

   -19.0167  -9.6719  -7.4382  -6.3542   1.2895   2.4390   2.5178   3.2817

     occupation numbers 
     1.0000   1.0000   1.0000   1.0000   0.0000   0.0000   0.0000   0.0000

          k =-0.2083-0.1540 0.0000 (  2839 PWs)   bands (ev):

   -19.2468  -9.0368  -7.7007  -6.3374   1.4470   2.1060   2.7036   3.1138

     occupation numbers 
     1.0000   1.0000   1.0000   1.0000   0.0000   0.0000   0.0000   0.0000

          k =-0.2083-0.0924 0.0000 (  2834 PWs)   bands (ev):

   -19.4016  -8.4020  -7.8777  -6.5636   1.6578   1.9525   2.5606   2.8831

     occupation numbers 
     1.0000   1.0000   1.0000   1.0000   0.0000   0.0000   0.0000   0.0000

          k =-0.2083-0.0308 0.0000 (  2834 PWs)   bands (ev):

   -19.4794  -7.9667  -7.8590  -6.9162   1.6753   2.1728   2.4629   2.7726

     occupation numbers 
     1.0000   1.0000   1.0000   1.0000   0.0000   0.0000   0.0000   0.0000

          k =-0.2083 0.0308 0.0000 (  2834 PWs)   bands (ev):

   -19.4794  -7.9667  -7.8584  -6.9168   1.6754   2.1733   2.4629   2.7725

     occupation numbers 
     1.0000   1.0000   1.0000   1.0000   0.0000   0.0000   0.0000   0.0000

          k =-0.2083 0.0924 0.0000 (  2834 PWs)   bands (ev):

   -19.4016  -8.4012  -7.8778  -6.5646   1.6584   1.9527   2.5609   2.8831

     occupation numbers 
     1.0000   1.0000   1.0000   1.0000   0.0000   0.0000   0.0000   0.0000

          k =-0.1667 0.1232 0.0000 (  2828 PWs)   bands (ev):

   -19.4921  -8.1957  -7.9743  -6.1082   1.1403   1.7361   2.4287   2.7293

     occupation numbers 
     1.0000   1.0000   1.0000   1.0000   0.0000   0.0000   0.0000   0.0000

          k =-0.1667 0.1848 0.0000 (  2831 PWs)   bands (ev):

   -19.2967  -8.8115  -7.7494  -6.1525   0.9558   2.0179   2.6529   3.0351

     occupation numbers 
     1.0000   1.0000   1.0000   1.0000   0.0000   0.0000   0.0000   0.0000

          k =-0.1667 0.2463 0.0000 (  2855 PWs)   bands (ev):

   -19.0257  -9.4312  -7.4379  -6.4352   0.8215   2.4178   2.6008   3.2896

     occupation numbers 
     1.0000   1.0000   1.0000   1.0000   0.0000   0.0000   0.0000   0.0000

          k =-0.1667 0.3079 0.0000 (  2868 PWs)   bands (ev):

   -18.6821 -10.0274  -7.0437  -6.9182   0.6580   2.0929   2.9302   3.7173

     occupation numbers 
     1.0000   1.0000   1.0000   1.0000   0.0000   0.0000   0.0000   0.0000

          k =-0.1667 0.3695 0.0000 (  2889 PWs)   bands (ev):

   -18.2705 -10.5877  -7.5373  -6.5721   0.4292   1.4972   3.5535   4.3157

     occupation numbers 
     1.0000   1.0000   1.0000   1.0000   0.0000   0.0000   0.0000   0.0000

          k =-0.1667 0.4311 0.0000 (  2893 PWs)   bands (ev):

   -17.7978 -11.1096  -8.2248  -6.0304   0.1551   0.8765   4.2880   5.0302

     occupation numbers 
     1.0000   1.0000   1.0000   1.0000   0.0000   0.0000   0.0000   0.0000

          k =-0.1667 0.4927 0.0000 (  2895 PWs)   bands (ev):

   -17.2750 -11.6003  -8.9146  -5.4286  -0.1229   0.2421   5.1324   5.8440

     occupation numbers 
     1.0000   1.0000   1.0000   1.0000   0.0000   0.0000   0.0000   0.0000

          k =-0.1667 0.5543 0.0000 (  2893 PWs)   bands (ev):

   -16.7216 -12.0733  -9.5388  -4.7806  -0.4040  -0.3684   6.0835   6.7256

     occupation numbers 
     1.0000   1.0000   1.0000   1.0000   0.0000   0.0000   0.0000   0.0000

          k =-0.1667 0.6158 0.0000 (  2899 PWs)   bands (ev):

   -16.1752 -12.5325 -10.0307  -4.1077  -1.0577  -0.5574   7.1337   7.5559

     occupation numbers 
     1.0000   1.0000   1.0000   1.0000   0.0000   0.0000   0.0000   0.0000

          k =-0.1667 0.6774 0.0000 (  2886 PWs)   bands (ev):

   -15.7198 -12.9280 -10.3398  -3.4578  -1.6878  -0.6753   7.9793   8.2622

     occupation numbers 
     1.0000   1.0000   1.0000   1.0009   0.0000   0.0000   0.0000   0.0000

          k =-0.1667 0.7390 0.0000 (  2888 PWs)   bands (ev):

   -15.5249 -13.1027 -10.4441  -3.0759  -2.0618  -0.7154   8.0342   9.2484

     occupation numbers 
     1.0000   1.0000   1.0000   1.0682   0.0003   0.0000   0.0000   0.0000

          k =-0.1667 0.8006 0.0000 (  2886 PWs)   bands (ev):

   -15.7197 -12.9284 -10.3395  -3.4576  -1.6881  -0.6754   7.9794   8.2622

     occupation numbers 
     1.0000   1.0000   1.0000   1.0009   0.0000   0.0000   0.0000   0.0000

          k =-0.1667-0.6158 0.0000 (  2899 PWs)   bands (ev):

   -16.1751 -12.5332 -10.0301  -4.1075  -1.0581  -0.5575   7.1337   7.5561

     occupation numbers 
     1.0000   1.0000   1.0000   1.0000   0.0000   0.0000   0.0000   0.0000

          k =-0.1667-0.5543 0.0000 (  2893 PWs)   bands (ev):

   -16.7215 -12.0740  -9.5380  -4.7804  -0.4044  -0.3687   6.0835   6.7256

     occupation numbers 
     1.0000   1.0000   1.0000   1.0000   0.0000   0.0000   0.0000   0.0000

          k =-0.1667-0.4927 0.0000 (  2895 PWs)   bands (ev):

   -17.2750 -11.6012  -8.9136  -5.4285  -0.1232   0.2417   5.1325   5.8444

     occupation numbers 
     1.0000   1.0000   1.0000   1.0000   0.0000   0.0000   0.0000   0.0000

          k =-0.1667-0.4311 0.0000 (  2893 PWs)   bands (ev):

   -17.7977 -11.1105  -8.2238  -6.0302   0.1546   0.8761   4.2880   5.0303

     occupation numbers 
     1.0000   1.0000   1.0000   1.0000   0.0000   0.0000   0.0000   0.0000

          k =-0.1667-0.3695 0.0000 (  2889 PWs)   bands (ev):

   -18.2705 -10.5885  -7.5362  -6.5720   0.4286   1.4968   3.5535   4.3156

     occupation numbers 
     1.0000   1.0000   1.0000   1.0000   0.0000   0.0000   0.0000   0.0000

          k =-0.1667-0.3079 0.0000 (  2868 PWs)   bands (ev):

   -18.6821 -10.0283  -7.0436  -6.9170   0.6572   2.0926   2.9301   3.7177

     occupation numbers 
     1.0000   1.0000   1.0000   1.0000   0.0000   0.0000   0.0000   0.0000

          k =-0.1667-0.2463 0.0000 (  2855 PWs)   bands (ev):

   -19.0256  -9.4321  -7.4379  -6.4339   0.8206   2.4178   2.6006   3.2895

     occupation numbers 
     1.0000   1.0000   1.0000   1.0000   0.0000   0.0000   0.0000   0.0000

          k =-0.1667-0.1848 0.0000 (  2831 PWs)   bands (ev):

   -19.2966  -8.8124  -7.7493  -6.1513   0.9548   2.0179   2.6524   3.0347

     occupation numbers 
     1.0000   1.0000   1.0000   1.0000   0.0000   0.0000   0.0000   0.0000

          k =-0.1667-0.1232 0.0000 (  2828 PWs)   bands (ev):

   -19.4921  -8.1966  -7.9742  -6.1070   1.1393   1.7361   2.4287   2.7294

     occupation numbers 
     1.0000   1.0000   1.0000   1.0000   0.0000   0.0000   0.0000   0.0000

          k =-0.1667-0.0616 0.0000 (  2825 PWs)   bands (ev):

   -19.6100  -8.1102  -7.6480  -6.2650   1.3910   1.6196   2.2726   2.4163

     occupation numbers 
     1.0000   1.0000   1.0000   1.0000   0.0000   0.0000   0.0000   0.0000

          k =-0.1667-0.0000 0.0000 (  2832 PWs)   bands (ev):

   -19.6495  -8.1556  -7.3724  -6.4136   1.4401   1.9010   1.9754   2.2191

     occupation numbers 
     1.0000   1.0000   1.0000   1.0000   0.0000   0.0000   0.0000   0.0000

          k =-0.1667 0.0616 0.0000 (  2825 PWs)   bands (ev):

   -19.6100  -8.1102  -7.6473  -6.2660   1.3918   1.6198   2.2726   2.4156

     occupation numbers 
     1.0000   1.0000   1.0000   1.0000   0.0000   0.0000   0.0000   0.0000

          k =-0.1250 0.0924 0.0000 (  2826 PWs)   bands (ev):

   -19.6857  -8.1916  -7.4595  -5.8140   0.8292   1.4452   2.1619   2.2444

     occupation numbers 
     1.0000   1.0000   1.0000   1.0000   0.0000   0.0000   0.0000   0.0000

          k =-0.1250 0.1540 0.0000 (  2837 PWs)   bands (ev):

   -19.5274  -8.0083  -7.9959  -5.9301   0.6409   1.6778   2.3750   2.6832

     occupation numbers 
     1.0000   1.0000   1.0000   1.0000   0.0000   0.0000   0.0000   0.0000

          k =-0.1250 0.2155 0.0000 (  2839 PWs)   bands (ev):

   -19.2915  -8.5960  -7.7354  -6.2454   0.4996   2.0225   2.6582   3.0447

     occupation numbers 
     1.0000   1.0000   1.0000   1.0000   0.0000   0.0000   0.0000   0.0000

          k =-0.1250 0.2771 0.0000 (  2853 PWs)   bands (ev):

   -18.9802  -9.2092  -7.3758  -6.7318   0.3233   2.4785   2.6382   3.3437

     occupation numbers 
     1.0000   1.0000   1.0000   1.0000   0.0000   0.0000   0.0000   0.0000

          k =-0.1250 0.3387 0.0000 (  2869 PWs)   bands (ev):

   -18.5965  -9.8127  -7.3323  -6.9334   0.0738   2.0976   3.0459   3.8264

     occupation numbers 
     1.0000   1.0000   1.0000   1.0000   0.0000   0.0000   0.0000   0.0000

          k =-0.1250 0.4003 0.0000 (  2884 PWs)   bands (ev):

   -18.1453 -10.4013  -7.9867  -6.4136  -0.2322   1.4620   3.7251   4.4784

     occupation numbers 
     1.0000   1.0000   1.0000   1.0000   0.0000   0.0000   0.0000   0.0000

          k =-0.1250 0.4619 0.0000 (  2886 PWs)   bands (ev):

   -17.6338 -10.9829  -8.6341  -5.8236  -0.5523   0.7921   4.5157   5.2458

     occupation numbers 
     1.0000   1.0000   1.0000   1.0000   0.0000   0.0000   0.0000   0.0000

          k =-0.1250 0.5235 0.0000 (  2895 PWs)   bands (ev):

   -17.0740 -11.5729  -9.2140  -5.1732  -0.8463   0.0974   5.4155   6.1079

     occupation numbers 
     1.0000   1.0000   1.0000   1.0000   0.0000   0.0000   0.0000   0.0000

          k =-0.1250 0.5850 0.0000 (  2903 PWs)   bands (ev):

   -16.4885 -12.1761  -9.6744  -4.4756  -1.0857  -0.6188   6.4202   7.0267

     occupation numbers 
     1.0000   1.0000   1.0000   1.0000   0.0000   0.0000   0.0000   0.0000

          k =-0.1250 0.6466 0.0000 (  2887 PWs)   bands (ev):

   -15.9278 -12.7539  -9.9855  -3.7509  -1.3477  -1.2527   7.5196   7.8605

     occupation numbers 
     1.0000   1.0000   1.0000   1.0000   0.0000   0.0000   0.0000   0.0000

          k =-0.1250 0.7082 0.0000 (  2885 PWs)   bands (ev):

   -15.5251 -13.1689 -10.1401  -3.0638  -2.0344  -1.3383   8.2670   8.6777

     occupation numbers 
     1.0000   1.0000   1.0000   1.0719   0.0002   0.0000   0.0000   0.0000

          k =-0.1250 0.7698 0.0000 (  2885 PWs)   bands (ev):

   -15.5251 -13.1691 -10.1399  -3.0636  -2.0346  -1.3384   8.2670   8.6778

     occupation numbers 
     1.0000   1.0000   1.0000   1.0720   0.0002   0.0000   0.0000   0.0000

          k =-0.1250-0.6466 0.0000 (  2887 PWs)   bands (ev):

   -15.9277 -12.7543  -9.9851  -3.7507  -1.3480  -1.2528   7.5196   7.8607

     occupation numbers 
     1.0000   1.0000   1.0000   1.0000   0.0000   0.0000   0.0000   0.0000

          k =-0.1250-0.5850 0.0000 (  2903 PWs)   bands (ev):

   -16.4884 -12.1766  -9.6739  -4.4754  -1.0858  -0.6191   6.4202   7.0266

     occupation numbers 
     1.0000   1.0000   1.0000   1.0000   0.0000   0.0000   0.0000   0.0000

          k =-0.1250-0.5235 0.0000 (  2895 PWs)   bands (ev):

   -17.0740 -11.5736  -9.2132  -5.1731  -0.8466   0.0971   5.4155   6.1079

     occupation numbers 
     1.0000   1.0000   1.0000   1.0000   0.0000   0.0000   0.0000   0.0000

          k =-0.1250-0.4619 0.0000 (  2886 PWs)   bands (ev):

   -17.6337 -10.9837  -8.6332  -5.8235  -0.5526   0.7918   4.5157   5.2464

     occupation numbers 
     1.0000   1.0000   1.0000   1.0000   0.0000   0.0000   0.0000   0.0000

          k =-0.1250-0.4003 0.0000 (  2884 PWs)   bands (ev):

   -18.1453 -10.4021  -7.9856  -6.4135  -0.2326   1.4617   3.7251   4.4784

     occupation numbers 
     1.0000   1.0000   1.0000   1.0000   0.0000   0.0000   0.0000   0.0000

          k =-0.1250-0.3387 0.0000 (  2869 PWs)   bands (ev):

   -18.5965  -9.8136  -7.3312  -6.9333   0.0732   2.0974   3.0458   3.8251

     occupation numbers 
     1.0000   1.0000   1.0000   1.0000   0.0000   0.0000   0.0000   0.0000

          k =-0.1250-0.2771 0.0000 (  2853 PWs)   bands (ev):

   -18.9801  -9.2101  -7.3757  -6.7306   0.3226   2.4786   2.6381   3.3438

     occupation numbers 
     1.0000   1.0000   1.0000   1.0000   0.0000   0.0000   0.0000   0.0000

          k =-0.1250-0.2155 0.0000 (  2839 PWs)   bands (ev):

   -19.2915  -8.5969  -7.7354  -6.2441   0.4988   2.0225   2.6582   3.0448

     occupation numbers 
     1.0000   1.0000   1.0000   1.0000   0.0000   0.0000   0.0000   0.0000

          k =-0.1250-0.1540 0.0000 (  2837 PWs)   bands (ev):

   -19.5274  -8.0082  -7.9968  -5.9288   0.6400   1.6779   2.3751   2.6834

     occupation numbers 
     1.0000   1.0000   1.0000   1.0000   0.0000   0.0000   0.0000   0.0000

          k =-0.1250-0.0924 0.0000 (  2826 PWs)   bands (ev):

   -19.6857  -8.1916  -7.4602  -5.8130   0.8282   1.4453   2.1619   2.2453

     occupation numbers 
     1.0000   1.0000   1.0000   1.0000   0.0000   0.0000   0.0000   0.0000

          k =-0.1250-0.0308 0.0000 (  2828 PWs)   bands (ev):

   -19.7652  -8.2836  -7.0995  -5.8379   1.1161   1.3188   1.7091   2.0527

     occupation numbers 
     1.0000   1.0000   1.0000   1.0000   0.0000   0.0000   0.0000   0.0000

          k =-0.1250 0.0308 0.0000 (  2828 PWs)   bands (ev):

   -19.7652  -8.2836  -7.0992  -5.8384   1.1170   1.3187   1.7084   2.0527

     occupation numbers 
     1.0000   1.0000   1.0000   1.0000   0.0000   0.0000   0.0000   0.0000

          k =-0.0833 0.0616 0.0000 (  2807 PWs)   bands (ev):

   -19.8253  -8.3490  -6.9306  -5.4289   0.5083   1.2358   1.6087   1.9655

     occupation numbers 
     1.0000   1.0000   1.0000   1.0000   0.0000   0.0000   0.0000   0.0000

          k =-0.0833 0.1232 0.0000 (  2831 PWs)   bands (ev):

   -19.7057  -8.2098  -7.3087  -5.6609   0.3647   1.4201   2.1305   2.2644

     occupation numbers 
     1.0000   1.0000   1.0000   1.0000   0.0000   0.0000   0.0000   0.0000

          k =-0.0833 0.1848 0.0000 (  2841 PWs)   bands (ev):

   -19.5071  -7.9792  -7.8301  -6.0519   0.2472   1.7087   2.3986   2.7276

     occupation numbers 
     1.0000   1.0000   1.0000   1.0000   0.0000   0.0000   0.0000   0.0000

          k =-0.0833 0.2463 0.0000 (  2847 PWs)   bands (ev):

   -19.2312  -8.4227  -7.6591  -6.5690   0.0851   2.1075   2.7236   3.1326

     occupation numbers 
     1.0000   1.0000   1.0000   1.0000   0.0000   0.0000   0.0000   0.0000

          k =-0.0833 0.3079 0.0000 (  2852 PWs)   bands (ev):

   -18.8804  -9.0463  -7.2526  -7.1647  -0.1618   2.6062   2.6182   3.4484

     occupation numbers 
     1.0000   1.0000   1.0000   1.0000   0.0000   0.0000   0.0000   0.0000

          k =-0.0833 0.3695 0.0000 (  2880 PWs)   bands (ev):

   -18.4580  -9.6856  -7.7895  -6.7640  -0.4818   2.0055   3.2414   4.0084

     occupation numbers 
     1.0000   1.0000   1.0000   1.0000   0.0000   0.0000   0.0000   0.0000

          k =-0.0833 0.4311 0.0000 (  2886 PWs)   bands (ev):

   -17.9692 -10.3430  -8.3923  -6.1989  -0.8327   1.3249   3.9769   4.7194

     occupation numbers 
     1.0000   1.0000   1.0000   1.0000   0.0000   0.0000   0.0000   0.0000

          k =-0.0833 0.4927 0.0000 (  2884 PWs)   bands (ev):

   -17.4222 -11.0278  -8.9249  -5.5647  -1.1694   0.6058   4.8232   5.5397

     occupation numbers 
     1.0000   1.0000   1.0000   1.0000   0.0000   0.0000   0.0000   0.0000

          k =-0.0833 0.5543 0.0000 (  2894 PWs)   bands (ev):

   -16.8310 -11.7375  -9.3518  -4.8713  -1.4578  -0.1433   5.7775   6.4490

     occupation numbers 
     1.0000   1.0000   1.0000   1.0000   0.0000   0.0000   0.0000   0.0000

          k =-0.0833 0.6158 0.0000 (  2893 PWs)   bands (ev):

   -16.2253 -12.4405  -9.6572  -4.1312  -1.6757  -0.9163   6.8339   7.4011

     occupation numbers 
     1.0000   1.0000   1.0000   1.0000   0.0000   0.0000   0.0000   0.0000

          k =-0.0833 0.6774 0.0000 (  2887 PWs)   bands (ev):

   -15.6832 -13.0476  -9.8388  -3.3653  -1.8105  -1.6991   7.9774   8.2283

     occupation numbers 
     1.0000   1.0000   1.0000   1.0039   0.0000   0.0000   0.0000   0.0000

          k =-0.0833 0.7390 0.0000 (  2874 PWs)   bands (ev):

   -15.4278 -13.3259  -9.8989  -2.7547  -2.3149  -1.8560   8.5484   9.0190

     occupation numbers 
     1.0000   1.0000   1.0000   0.7843   0.0212   0.0000   0.0000   0.0000

          k =-0.0833-0.6774 0.0000 (  2887 PWs)   bands (ev):

   -15.6832 -13.0478  -9.8387  -3.3652  -1.8105  -1.6993   7.9774   8.2285

     occupation numbers 
     1.0000   1.0000   1.0000   1.0039   0.0000   0.0000   0.0000   0.0000

          k =-0.0833-0.6158 0.0000 (  2893 PWs)   bands (ev):

   -16.2252 -12.4408  -9.6569  -4.1311  -1.6758  -0.9165   6.8340   7.4012

     occupation numbers 
     1.0000   1.0000   1.0000   1.0000   0.0000   0.0000   0.0000   0.0000

          k =-0.0833-0.5543 0.0000 (  2894 PWs)   bands (ev):

   -16.8310 -11.7380  -9.3513  -4.8712  -1.4579  -0.1436   5.7775   6.4491

     occupation numbers 
     1.0000   1.0000   1.0000   1.0000   0.0000   0.0000   0.0000   0.0000

          k =-0.0833-0.4927 0.0000 (  2884 PWs)   bands (ev):

   -17.4222 -11.0284  -8.9242  -5.5646  -1.1696   0.6056   4.8232   5.5397

     occupation numbers 
     1.0000   1.0000   1.0000   1.0000   0.0000   0.0000   0.0000   0.0000

          k =-0.0833-0.4311 0.0000 (  2886 PWs)   bands (ev):

   -17.9692 -10.3438  -8.3915  -6.1988  -0.8329   1.3246   3.9769   4.7197

     occupation numbers 
     1.0000   1.0000   1.0000   1.0000   0.0000   0.0000   0.0000   0.0000

          k =-0.0833-0.3695 0.0000 (  2880 PWs)   bands (ev):

   -18.4580  -9.6864  -7.7885  -6.7639  -0.4821   2.0053   3.2414   4.0084

     occupation numbers 
     1.0000   1.0000   1.0000   1.0000   0.0000   0.0000   0.0000   0.0000

          k =-0.0833-0.3079 0.0000 (  2852 PWs)   bands (ev):

   -18.8804  -9.0471  -7.2525  -7.1637  -0.1623   2.6060   2.6183   3.4485

     occupation numbers 
     1.0000   1.0000   1.0000   1.0000   0.0000   0.0000   0.0000   0.0000

          k =-0.0833-0.2463 0.0000 (  2847 PWs)   bands (ev):

   -19.2312  -8.4236  -7.6590  -6.5679   0.0846   2.1075   2.7237   3.1326

     occupation numbers 
     1.0000   1.0000   1.0000   1.0000   0.0000   0.0000   0.0000   0.0000

          k =-0.0833-0.1848 0.0000 (  2841 PWs)   bands (ev):

   -19.5071  -7.9792  -7.8310  -6.0508   0.2465   1.7087   2.3986   2.7276

     occupation numbers 
     1.0000   1.0000   1.0000   1.0000   0.0000   0.0000   0.0000   0.0000

          k =-0.0833-0.1232 0.0000 (  2831 PWs)   bands (ev):

   -19.7057  -8.2098  -7.3095  -5.6599   0.3639   1.4201   2.1305   2.2652

     occupation numbers 
     1.0000   1.0000   1.0000   1.0000   0.0000   0.0000   0.0000   0.0000

          k =-0.0833-0.0616 0.0000 (  2807 PWs)   bands (ev):

   -19.8253  -8.3490  -6.9310  -5.4282   0.5075   1.2359   1.6092   1.9657

     occupation numbers 
     1.0000   1.0000   1.0000   1.0000   0.0000   0.0000   0.0000   0.0000

          k =-0.0833 0.0000 0.0000 (  2820 PWs)   bands (ev):

   -19.8653  -8.3955  -6.7884  -5.3555   0.6337   1.1371   1.3290   1.9101

     occupation numbers 
     1.0000   1.0000   1.0000   1.0000   0.0000   0.0000   0.0000   0.0000

          k =-0.0417 0.0308 0.0000 (  2798 PWs)   bands (ev):

   -19.9096  -8.4443  -6.6490  -5.0391   0.1948   1.1057   1.2058   1.8468

     occupation numbers 
     1.0000   1.0000   1.0000   1.0000   0.0000   0.0000   0.0000   0.0000

          k =-0.0417 0.0924 0.0000 (  2817 PWs)   bands (ev):

   -19.8295  -8.3508  -6.8554  -5.3293   0.1468   1.2460   1.6908   1.9579

     occupation numbers 
     1.0000   1.0000   1.0000   1.0000   0.0000   0.0000   0.0000   0.0000

          k =-0.0417 0.1540 0.0000 (  2832 PWs)   bands (ev):

   -19.6697  -8.1647  -7.2388  -5.8142   0.0833   1.4764   2.1779   2.4832

     occupation numbers 
     1.0000   1.0000   1.0000   1.0000   0.0000   0.0000   0.0000   0.0000

          k =-0.0417 0.2155 0.0000 (  2840 PWs)   bands (ev):

   -19.4313  -7.8873  -7.7535  -6.3962  -0.0395   1.8175   2.4971   2.8412

     occupation numbers 
     1.0000   1.0000   1.0000   1.0000   0.0000   0.0000   0.0000   0.0000

          k =-0.0417 0.2771 0.0000 (  2844 PWs)   bands (ev):

   -19.1162  -8.3565  -7.5213  -7.0130  -0.2587   2.2711   2.8132   3.3000

     occupation numbers 
     1.0000   1.0000   1.0000   1.0000   0.0000   0.0000   0.0000   0.0000

          k =-0.0417 0.3387 0.0000 (  2866 PWs)   bands (ev):

   -18.7271  -9.0200  -7.6230  -7.0699  -0.5694   2.4626   2.8377   3.6317

     occupation numbers 
     1.0000   1.0000   1.0000   1.0000   0.0000   0.0000   0.0000   0.0000

          k =-0.0417 0.4003 0.0000 (  2877 PWs)   bands (ev):

   -18.2679  -9.7322  -8.1905  -6.5377  -0.9328   1.8022   3.5172   4.2714

     occupation numbers 
     1.0000   1.0000   1.0000   1.0000   0.0000   0.0000   0.0000   0.0000

          k =-0.0417 0.4619 0.0000 (  2883 PWs)   bands (ev):

   -17.7444 -10.4864  -8.6858  -5.9310  -1.3003   1.0806   4.3086   5.0398

     occupation numbers 
     1.0000   1.0000   1.0000   1.0000   0.0000   0.0000   0.0000   0.0000

          k =-0.0417 0.5235 0.0000 (  2886 PWs)   bands (ev):

   -17.1665 -11.2685  -9.0900  -5.2576  -1.6311   0.3210   5.2100   5.9112

     occupation numbers 
     1.0000   1.0000   1.0000   1.0000   0.0000   0.0000   0.0000   0.0000

          k =-0.0417 0.5850 0.0000 (  2880 PWs)   bands (ev):

   -16.5524 -12.0502  -9.3952  -4.5277  -1.8972  -0.4681   6.2175   6.8635

     occupation numbers 
     1.0000   1.0000   1.0000   1.0000   0.0000   0.0000   0.0000   0.0000

          k =-0.0417 0.6466 0.0000 (  2886 PWs)   bands (ev):

   -15.9465 -12.7757  -9.5990  -3.7545  -2.0819  -1.2783   7.3226   7.8353

     occupation numbers 
     1.0000   1.0000   1.0000   1.0000   0.0004   0.0000   0.0000   0.0000

          k =-0.0417 0.7082 0.0000 (  2881 PWs)   bands (ev):

   -15.4857 -13.2987  -9.7008  -2.9633  -2.1761  -2.0873   8.4970   8.5951

     occupation numbers 
     1.0000   1.0000   1.0000   1.0793   0.0025   0.0005   0.0000   0.0000

          k =-0.0417-0.7082 0.0000 (  2881 PWs)   bands (ev):

   -15.4857 -13.2988  -9.7008  -2.9632  -2.1761  -2.0873   8.4970   8.5951

     occupation numbers 
     1.0000   1.0000   1.0000   1.0793   0.0025   0.0005   0.0000   0.0000

          k =-0.0417-0.6466 0.0000 (  2886 PWs)   bands (ev):

   -15.9465 -12.7758  -9.5989  -3.7545  -2.0819  -1.2784   7.3226   7.8354

     occupation numbers 
     1.0000   1.0000   1.0000   1.0000   0.0004   0.0000   0.0000   0.0000

          k =-0.0417-0.5850 0.0000 (  2880 PWs)   bands (ev):

   -16.5524 -12.0504  -9.3950  -4.5277  -1.8973  -0.4682   6.2174   6.8633

     occupation numbers 
     1.0000   1.0000   1.0000   1.0000   0.0000   0.0000   0.0000   0.0000

          k =-0.0417-0.5235 0.0000 (  2886 PWs)   bands (ev):

   -17.1664 -11.2688  -9.0897  -5.2576  -1.6312   0.3209   5.2100   5.9112

     occupation numbers 
     1.0000   1.0000   1.0000   1.0000   0.0000   0.0000   0.0000   0.0000

          k =-0.0417-0.4619 0.0000 (  2883 PWs)   bands (ev):

   -17.7444 -10.4867  -8.6853  -5.9310  -1.3004   1.0805   4.3086   5.0398

     occupation numbers 
     1.0000   1.0000   1.0000   1.0000   0.0000   0.0000   0.0000   0.0000

          k =-0.0417-0.4003 0.0000 (  2877 PWs)   bands (ev):

   -18.2679  -9.7327  -8.1899  -6.5377  -0.9329   1.8021   3.5172   4.2716

     occupation numbers 
     1.0000   1.0000   1.0000   1.0000   0.0000   0.0000   0.0000   0.0000

          k =-0.0417-0.3387 0.0000 (  2866 PWs)   bands (ev):

   -18.7271  -9.0206  -7.6223  -7.0699  -0.5696   2.4625   2.8376   3.6317

     occupation numbers 
     1.0000   1.0000   1.0000   1.0000   0.0000   0.0000   0.0000   0.0000

          k =-0.0417-0.2771 0.0000 (  2844 PWs)   bands (ev):

   -19.1162  -8.3571  -7.5213  -7.0122  -0.2590   2.2711   2.8127   3.3017

     occupation numbers 
     1.0000   1.0000   1.0000   1.0000   0.0000   0.0000   0.0000   0.0000

          k =-0.0417-0.2155 0.0000 (  2840 PWs)   bands (ev):

   -19.4313  -7.8873  -7.7542  -6.3954  -0.0398   1.8175   2.4971   2.8412

     occupation numbers 
     1.0000   1.0000   1.0000   1.0000   0.0000   0.0000   0.0000   0.0000

          k =-0.0417-0.1540 0.0000 (  2832 PWs)   bands (ev):

   -19.6697  -8.1647  -7.2393  -5.8135   0.0829   1.4764   2.1779   2.4803

     occupation numbers 
     1.0000   1.0000   1.0000   1.0000   0.0000   0.0000   0.0000   0.0000

          k =-0.0417-0.0924 0.0000 (  2817 PWs)   bands (ev):

   -19.8295  -8.3508  -6.8558  -5.3288   0.1464   1.2458   1.6911   1.9578

     occupation numbers 
     1.0000   1.0000   1.0000   1.0000   0.0000   0.0000   0.0000   0.0000

          k =-0.0417-0.0308 0.0000 (  2798 PWs)   bands (ev):

   -19.9096  -8.4442  -6.6491  -5.0389   0.1946   1.1058   1.2059   1.8467

     occupation numbers 
     1.0000   1.0000   1.0000   1.0000   0.0000   0.0000   0.0000   0.0000

     the Fermi energy is    -2.6118 ev

!    total energy              =     -36.71213524 Ry
     total all-electron energy =      -152.240330 Ry
     estimated scf accuracy    <          7.9E-09 Ry
     smearing contrib. (-TS)   =       0.00008175 Ry
     internal energy E=F+TS    =     -36.71221700 Ry

     The total energy is F=E-TS. E is the sum of the following terms:
     one-electron contribution =    -124.21236636 Ry
     hartree contribution      =      63.48912268 Ry
     xc contribution           =      -8.85107893 Ry
     ewald contribution        =      45.18915827 Ry
     one-center paw contrib.   =     -12.32705266 Ry
      -> PAW hartree energy AE =       7.36945533 Ry
      -> PAW hartree energy PS =      -7.36160768 Ry
      -> PAW xc energy AE      =     -10.14558219 Ry
      -> PAW xc energy PS      =       3.97420900 Ry
      -> total E_H with PAW    =      63.49697033 Ry
      -> total E_XC with PAW   =     -15.02245212 Ry

     convergence has been achieved in   7 iterations

     Writing all to output data dir ./tmp/graphene28.0upper.save/ :
     XML data file, charge density, pseudopotentials, collected wavefunctions

     init_run     :      1.78s CPU      1.80s WALL (       1 calls)
     electrons    :     15.47s CPU     15.57s WALL (       1 calls)

     Called by init_run:
     wfcinit      :      0.98s CPU      1.00s WALL (       1 calls)
     wfcinit:atom :      0.01s CPU      0.01s WALL (      72 calls)
     wfcinit:wfcr :      0.88s CPU      0.89s WALL (      72 calls)
     potinit      :      0.06s CPU      0.06s WALL (       1 calls)
     hinit0       :      0.71s CPU      0.71s WALL (       1 calls)

     Called by electrons:
     c_bands      :     13.34s CPU     13.40s WALL (       7 calls)
     sum_band     :      1.90s CPU      1.90s WALL (       7 calls)
     v_of_rho     :      0.13s CPU      0.14s WALL (       8 calls)
     v_h          :      0.01s CPU      0.01s WALL (       8 calls)
     v_xc         :      0.13s CPU      0.13s WALL (       8 calls)
     newd         :      0.01s CPU      0.01s WALL (       8 calls)
     PAW_pot      :      0.08s CPU      0.08s WALL (       8 calls)
     mix_rho      :      0.01s CPU      0.02s WALL (       7 calls)

     Called by c_bands:
     init_us_2    :      0.30s CPU      0.30s WALL (    1080 calls)
     cegterg      :     10.77s CPU     10.82s WALL (     504 calls)

     Called by sum_band:
     sum_band:wei :      0.00s CPU      0.00s WALL (       7 calls)
     sum_band:loo :      1.87s CPU      1.88s WALL (       7 calls)
     sum_band:buf :      0.03s CPU      0.03s WALL (     504 calls)
     sum_band:ini :      0.14s CPU      0.14s WALL (     504 calls)
     sum_band:cal :      0.08s CPU      0.08s WALL (     504 calls)
     sum_band:bec :      0.00s CPU      0.00s WALL (     504 calls)
     addusdens    :      0.01s CPU      0.01s WALL (       7 calls)
                                        0.00s GPU  (       7 calls)
     addusd:skk   :      0.00s CPU      0.00s WALL (       7 calls)
                                        0.00s GPU  (       7 calls)

     Called by *egterg:
     cdiaghg      :      0.16s CPU      0.16s WALL (    2601 calls)
     cegterg:over :      0.29s CPU      0.30s WALL (    2097 calls)
     cegterg:upda :      0.27s CPU      0.27s WALL (    2097 calls)
     cegterg:last :      0.36s CPU      0.37s WALL (    1109 calls)
     h_psi        :     10.03s CPU     10.08s WALL (    2673 calls)
     s_psi        :      0.24s CPU      0.24s WALL (    2673 calls)
     g_psi        :      0.09s CPU      0.09s WALL (    2097 calls)

     Called by h_psi:
     h_psi:calbec :      0.29s CPU      0.29s WALL (    2673 calls)
     vloc_psi     :      9.39s CPU      9.44s WALL (    2673 calls)
     add_vuspsi   :      0.30s CPU      0.31s WALL (    2673 calls)

     General routines
     calbec       :      0.37s CPU      0.37s WALL (    3177 calls)
     fft          :      0.67s CPU      0.67s WALL (      88 calls)
     ffts         :      0.00s CPU      0.00s WALL (       7 calls)
     fftw         :      9.53s CPU      9.58s WALL (   27496 calls)

     Parallel routines

     PAW routines
     PAW_pot      :      0.08s CPU      0.08s WALL (       8 calls)

     PWSCF        :     17.48s CPU     19.63s WALL


   This run was terminated on:   6:17:23  22Apr2026            

=------------------------------------------------------------------------------=
   JOB DONE.
=------------------------------------------------------------------------------=
