
     Program PWSCF v.7.3.1 starts on 21Apr2026 at 22:24:22 

     This program is part of the open-source Quantum ESPRESSO suite
     for quantum simulation of materials; please cite
         "P. Giannozzi et al., J. Phys.:Condens. Matter 21 395502 (2009);
         "P. Giannozzi et al., J. Phys.:Condens. Matter 29 465901 (2017);
         "P. Giannozzi et al., J. Chem. Phys. 152 154105 (2020);
          URL http://www.quantum-espresso.org", 
     in publications or presentations arising from this work. More details at
     http://www.quantum-espresso.org/quote

     Parallel version (MPI & OpenMP), running on       8 processor cores
     Number of MPI processes:                 8
     Threads/MPI process:                     1

     MPI processes distributed on     1 nodes
     25131 MiB available memory on the printing compute node when the environment starts

     Reading input from ./io/bands26.5lower.in

     Current dimensions of program PWSCF are:
     Max number of different atomic species (ntypx) = 10
     Max number of k-points (npk) =  40000
     Max angular momentum in pseudopotentials (lmaxx) =  4
     file C.pbe-n-kjpaw_psl.1.0.0.UPF: wavefunction(s)  2S 2P renormalized

     Atomic positions and unit cell read from directory:
     ./tmp/graphene26.5lower.save/


     K-points division:     npool     =       8
     Subspace diagonalization in iterative solution of the eigenvalue problem:
     a serial algorithm will be used


     G-vector sticks info
     --------------------
     sticks:   dense  smooth     PW     G-vecs:    dense   smooth      PW
     Sum         285     285     91                21755    21755    3987

     Using Slab Decomposition



     bravais-lattice index     =            0
     lattice parameter (alat)  =       5.8518  a.u.
     unit-cell volume          =     635.4767 (a.u.)^3
     number of atoms/cell      =            2
     number of atomic types    =            1
     number of electrons       =         8.00
     number of Kohn-Sham states=            8
     kinetic-energy cutoff     =      40.0000  Ry
     charge density cutoff     =     160.0000  Ry
     Exchange-correlation= SLA  PW   PBX  PBC
                           (   1   4   3   4   0   0   0)

     celldm(1)=   5.851793  celldm(2)=   0.000000  celldm(3)=   0.000000
     celldm(4)=   0.000000  celldm(5)=   0.000000  celldm(6)=   0.000000

     crystal axes: (cart. coord. in units of alat)
               a(1) = (   1.000000   0.000000   0.000000 )  
               a(2) = (   0.500000   0.654671   0.000000 )  
               a(3) = (   0.000000   0.000000   4.844063 )  

     reciprocal axes: (cart. coord. in units 2 pi/alat)
               b(1) = (  1.000000 -0.763743  0.000000 )  
               b(2) = (  0.000000  1.527485  0.000000 )  
               b(3) = (  0.000000  0.000000  0.206438 )  


     PseudoPot. # 1 for C  read from file:
     ./C.pbe-n-kjpaw_psl.1.0.0.UPF
     MD5 check sum: 5f16ad9a65e90284d1d834d4ab3b0f7d
     Pseudo is Projector augmented-wave + core cor, Zval =  4.0
     Generated using &quot;atomic&quot; code by A. Dal Corso  v.6.3
     Shape of augmentation charge: PSQ
     Using radial grid of 1073 points,  4 beta functions with: 
                l(1) =   0
                l(2) =   0
                l(3) =   1
                l(4) =   1
     Q(r) pseudized with 0 coefficients 


     atomic species   valence    mass     pseudopotential
     C                 4.00    12.01100     C ( 1.00)

     No symmetry found


                                    s                        frac. trans.

      isym =  1     identity                                     

 cryst.   s( 1) = (     1          0          0      )
                  (     0          1          0      )
                  (     0          0          1      )

 cart.    s( 1) = (  1.0000000  0.0000000  0.0000000 )
                  (  0.0000000  1.0000000  0.0000000 )
                  (  0.0000000  0.0000000  1.0000000 )


   Cartesian axes

     site n.     atom                  positions (alat units)
         1        C      tau(   1) = (   0.0000365  -0.0001159   0.0000000  )
         2        C      tau(   2) = (   0.4999630   0.2183393   0.0000000  )

   Crystallographic axes

     site n.     atom                  positions (cryst. coord.)
         1        C      tau(   1) = (  0.0001250 -0.0001770  0.0000000  )
         2        C      tau(   2) = (  0.3332080  0.3335100  0.0000000  )

     number of k points=  1681
                       cart. coord. in units 2pi/alat
        k(    1) = (  -0.0072130  -0.7912220   0.0000000), wk =   0.0011898
        k(    2) = (  -0.0072130  -0.7892220   0.0000000), wk =   0.0011898
        k(    3) = (  -0.0072130  -0.7872220   0.0000000), wk =   0.0011898
        k(    4) = (  -0.0072130  -0.7852220   0.0000000), wk =   0.0011898
        k(    5) = (  -0.0072130  -0.7832220   0.0000000), wk =   0.0011898
        k(    6) = (  -0.0072130  -0.7812220   0.0000000), wk =   0.0011898
        k(    7) = (  -0.0072130  -0.7792220   0.0000000), wk =   0.0011898
        k(    8) = (  -0.0072130  -0.7772220   0.0000000), wk =   0.0011898
        k(    9) = (  -0.0072130  -0.7752220   0.0000000), wk =   0.0011898
        k(   10) = (  -0.0072130  -0.7732220   0.0000000), wk =   0.0011898
        k(   11) = (  -0.0072130  -0.7712220   0.0000000), wk =   0.0011898
        k(   12) = (  -0.0072130  -0.7692220   0.0000000), wk =   0.0011898
        k(   13) = (  -0.0072130  -0.7672220   0.0000000), wk =   0.0011898
        k(   14) = (  -0.0072130  -0.7652220   0.0000000), wk =   0.0011898
        k(   15) = (  -0.0072130  -0.7632220   0.0000000), wk =   0.0011898
        k(   16) = (  -0.0072130  -0.7612220   0.0000000), wk =   0.0011898
        k(   17) = (  -0.0072130  -0.7592220   0.0000000), wk =   0.0011898
        k(   18) = (  -0.0072130  -0.7572220   0.0000000), wk =   0.0011898
        k(   19) = (  -0.0072130  -0.7552220   0.0000000), wk =   0.0011898
        k(   20) = (  -0.0072130  -0.7532220   0.0000000), wk =   0.0011898
        k(   21) = (  -0.0072130  -0.7512220   0.0000000), wk =   0.0011898
        k(   22) = (  -0.0072130  -0.7492220   0.0000000), wk =   0.0011898
        k(   23) = (  -0.0072130  -0.7472220   0.0000000), wk =   0.0011898
        k(   24) = (  -0.0072130  -0.7452220   0.0000000), wk =   0.0011898
        k(   25) = (  -0.0072130  -0.7432220   0.0000000), wk =   0.0011898
        k(   26) = (  -0.0072130  -0.7412220   0.0000000), wk =   0.0011898
        k(   27) = (  -0.0072130  -0.7392220   0.0000000), wk =   0.0011898
        k(   28) = (  -0.0072130  -0.7372220   0.0000000), wk =   0.0011898
        k(   29) = (  -0.0072130  -0.7352220   0.0000000), wk =   0.0011898
        k(   30) = (  -0.0072130  -0.7332220   0.0000000), wk =   0.0011898
        k(   31) = (  -0.0072130  -0.7312220   0.0000000), wk =   0.0011898
        k(   32) = (  -0.0072130  -0.7292220   0.0000000), wk =   0.0011898
        k(   33) = (  -0.0072130  -0.7272220   0.0000000), wk =   0.0011898
        k(   34) = (  -0.0072130  -0.7252220   0.0000000), wk =   0.0011898
        k(   35) = (  -0.0072130  -0.7232220   0.0000000), wk =   0.0011898
        k(   36) = (  -0.0072130  -0.7212220   0.0000000), wk =   0.0011898
        k(   37) = (  -0.0072130  -0.7192220   0.0000000), wk =   0.0011898
        k(   38) = (  -0.0072130  -0.7172220   0.0000000), wk =   0.0011898
        k(   39) = (  -0.0072130  -0.7152220   0.0000000), wk =   0.0011898
        k(   40) = (  -0.0072130  -0.7132220   0.0000000), wk =   0.0011898
        k(   41) = (  -0.0072130  -0.7112220   0.0000000), wk =   0.0011898
        k(   42) = (  -0.0052130  -0.7912220   0.0000000), wk =   0.0011898
        k(   43) = (  -0.0052130  -0.7892220   0.0000000), wk =   0.0011898
        k(   44) = (  -0.0052130  -0.7872220   0.0000000), wk =   0.0011898
        k(   45) = (  -0.0052130  -0.7852220   0.0000000), wk =   0.0011898
        k(   46) = (  -0.0052130  -0.7832220   0.0000000), wk =   0.0011898
        k(   47) = (  -0.0052130  -0.7812220   0.0000000), wk =   0.0011898
        k(   48) = (  -0.0052130  -0.7792220   0.0000000), wk =   0.0011898
        k(   49) = (  -0.0052130  -0.7772220   0.0000000), wk =   0.0011898
        k(   50) = (  -0.0052130  -0.7752220   0.0000000), wk =   0.0011898
        k(   51) = (  -0.0052130  -0.7732220   0.0000000), wk =   0.0011898
        k(   52) = (  -0.0052130  -0.7712220   0.0000000), wk =   0.0011898
        k(   53) = (  -0.0052130  -0.7692220   0.0000000), wk =   0.0011898
        k(   54) = (  -0.0052130  -0.7672220   0.0000000), wk =   0.0011898
        k(   55) = (  -0.0052130  -0.7652220   0.0000000), wk =   0.0011898
        k(   56) = (  -0.0052130  -0.7632220   0.0000000), wk =   0.0011898
        k(   57) = (  -0.0052130  -0.7612220   0.0000000), wk =   0.0011898
        k(   58) = (  -0.0052130  -0.7592220   0.0000000), wk =   0.0011898
        k(   59) = (  -0.0052130  -0.7572220   0.0000000), wk =   0.0011898
        k(   60) = (  -0.0052130  -0.7552220   0.0000000), wk =   0.0011898
        k(   61) = (  -0.0052130  -0.7532220   0.0000000), wk =   0.0011898
        k(   62) = (  -0.0052130  -0.7512220   0.0000000), wk =   0.0011898
        k(   63) = (  -0.0052130  -0.7492220   0.0000000), wk =   0.0011898
        k(   64) = (  -0.0052130  -0.7472220   0.0000000), wk =   0.0011898
        k(   65) = (  -0.0052130  -0.7452220   0.0000000), wk =   0.0011898
        k(   66) = (  -0.0052130  -0.7432220   0.0000000), wk =   0.0011898
        k(   67) = (  -0.0052130  -0.7412220   0.0000000), wk =   0.0011898
        k(   68) = (  -0.0052130  -0.7392220   0.0000000), wk =   0.0011898
        k(   69) = (  -0.0052130  -0.7372220   0.0000000), wk =   0.0011898
        k(   70) = (  -0.0052130  -0.7352220   0.0000000), wk =   0.0011898
        k(   71) = (  -0.0052130  -0.7332220   0.0000000), wk =   0.0011898
        k(   72) = (  -0.0052130  -0.7312220   0.0000000), wk =   0.0011898
        k(   73) = (  -0.0052130  -0.7292220   0.0000000), wk =   0.0011898
        k(   74) = (  -0.0052130  -0.7272220   0.0000000), wk =   0.0011898
        k(   75) = (  -0.0052130  -0.7252220   0.0000000), wk =   0.0011898
        k(   76) = (  -0.0052130  -0.7232220   0.0000000), wk =   0.0011898
        k(   77) = (  -0.0052130  -0.7212220   0.0000000), wk =   0.0011898
        k(   78) = (  -0.0052130  -0.7192220   0.0000000), wk =   0.0011898
        k(   79) = (  -0.0052130  -0.7172220   0.0000000), wk =   0.0011898
        k(   80) = (  -0.0052130  -0.7152220   0.0000000), wk =   0.0011898
        k(   81) = (  -0.0052130  -0.7132220   0.0000000), wk =   0.0011898
        k(   82) = (  -0.0052130  -0.7112220   0.0000000), wk =   0.0011898
        k(   83) = (  -0.0032130  -0.7912220   0.0000000), wk =   0.0011898
        k(   84) = (  -0.0032130  -0.7892220   0.0000000), wk =   0.0011898
        k(   85) = (  -0.0032130  -0.7872220   0.0000000), wk =   0.0011898
        k(   86) = (  -0.0032130  -0.7852220   0.0000000), wk =   0.0011898
        k(   87) = (  -0.0032130  -0.7832220   0.0000000), wk =   0.0011898
        k(   88) = (  -0.0032130  -0.7812220   0.0000000), wk =   0.0011898
        k(   89) = (  -0.0032130  -0.7792220   0.0000000), wk =   0.0011898
        k(   90) = (  -0.0032130  -0.7772220   0.0000000), wk =   0.0011898
        k(   91) = (  -0.0032130  -0.7752220   0.0000000), wk =   0.0011898
        k(   92) = (  -0.0032130  -0.7732220   0.0000000), wk =   0.0011898
        k(   93) = (  -0.0032130  -0.7712220   0.0000000), wk =   0.0011898
        k(   94) = (  -0.0032130  -0.7692220   0.0000000), wk =   0.0011898
        k(   95) = (  -0.0032130  -0.7672220   0.0000000), wk =   0.0011898
        k(   96) = (  -0.0032130  -0.7652220   0.0000000), wk =   0.0011898
        k(   97) = (  -0.0032130  -0.7632220   0.0000000), wk =   0.0011898
        k(   98) = (  -0.0032130  -0.7612220   0.0000000), wk =   0.0011898
        k(   99) = (  -0.0032130  -0.7592220   0.0000000), wk =   0.0011898
        k(  100) = (  -0.0032130  -0.7572220   0.0000000), wk =   0.0011898
        k(  101) = (  -0.0032130  -0.7552220   0.0000000), wk =   0.0011898
        k(  102) = (  -0.0032130  -0.7532220   0.0000000), wk =   0.0011898
        k(  103) = (  -0.0032130  -0.7512220   0.0000000), wk =   0.0011898
        k(  104) = (  -0.0032130  -0.7492220   0.0000000), wk =   0.0011898
        k(  105) = (  -0.0032130  -0.7472220   0.0000000), wk =   0.0011898
        k(  106) = (  -0.0032130  -0.7452220   0.0000000), wk =   0.0011898
        k(  107) = (  -0.0032130  -0.7432220   0.0000000), wk =   0.0011898
        k(  108) = (  -0.0032130  -0.7412220   0.0000000), wk =   0.0011898
        k(  109) = (  -0.0032130  -0.7392220   0.0000000), wk =   0.0011898
        k(  110) = (  -0.0032130  -0.7372220   0.0000000), wk =   0.0011898
        k(  111) = (  -0.0032130  -0.7352220   0.0000000), wk =   0.0011898
        k(  112) = (  -0.0032130  -0.7332220   0.0000000), wk =   0.0011898
        k(  113) = (  -0.0032130  -0.7312220   0.0000000), wk =   0.0011898
        k(  114) = (  -0.0032130  -0.7292220   0.0000000), wk =   0.0011898
        k(  115) = (  -0.0032130  -0.7272220   0.0000000), wk =   0.0011898
        k(  116) = (  -0.0032130  -0.7252220   0.0000000), wk =   0.0011898
        k(  117) = (  -0.0032130  -0.7232220   0.0000000), wk =   0.0011898
        k(  118) = (  -0.0032130  -0.7212220   0.0000000), wk =   0.0011898
        k(  119) = (  -0.0032130  -0.7192220   0.0000000), wk =   0.0011898
        k(  120) = (  -0.0032130  -0.7172220   0.0000000), wk =   0.0011898
        k(  121) = (  -0.0032130  -0.7152220   0.0000000), wk =   0.0011898
        k(  122) = (  -0.0032130  -0.7132220   0.0000000), wk =   0.0011898
        k(  123) = (  -0.0032130  -0.7112220   0.0000000), wk =   0.0011898
        k(  124) = (  -0.0012130  -0.7912220   0.0000000), wk =   0.0011898
        k(  125) = (  -0.0012130  -0.7892220   0.0000000), wk =   0.0011898
        k(  126) = (  -0.0012130  -0.7872220   0.0000000), wk =   0.0011898
        k(  127) = (  -0.0012130  -0.7852220   0.0000000), wk =   0.0011898
        k(  128) = (  -0.0012130  -0.7832220   0.0000000), wk =   0.0011898
        k(  129) = (  -0.0012130  -0.7812220   0.0000000), wk =   0.0011898
        k(  130) = (  -0.0012130  -0.7792220   0.0000000), wk =   0.0011898
        k(  131) = (  -0.0012130  -0.7772220   0.0000000), wk =   0.0011898
        k(  132) = (  -0.0012130  -0.7752220   0.0000000), wk =   0.0011898
        k(  133) = (  -0.0012130  -0.7732220   0.0000000), wk =   0.0011898
        k(  134) = (  -0.0012130  -0.7712220   0.0000000), wk =   0.0011898
        k(  135) = (  -0.0012130  -0.7692220   0.0000000), wk =   0.0011898
        k(  136) = (  -0.0012130  -0.7672220   0.0000000), wk =   0.0011898
        k(  137) = (  -0.0012130  -0.7652220   0.0000000), wk =   0.0011898
        k(  138) = (  -0.0012130  -0.7632220   0.0000000), wk =   0.0011898
        k(  139) = (  -0.0012130  -0.7612220   0.0000000), wk =   0.0011898
        k(  140) = (  -0.0012130  -0.7592220   0.0000000), wk =   0.0011898
        k(  141) = (  -0.0012130  -0.7572220   0.0000000), wk =   0.0011898
        k(  142) = (  -0.0012130  -0.7552220   0.0000000), wk =   0.0011898
        k(  143) = (  -0.0012130  -0.7532220   0.0000000), wk =   0.0011898
        k(  144) = (  -0.0012130  -0.7512220   0.0000000), wk =   0.0011898
        k(  145) = (  -0.0012130  -0.7492220   0.0000000), wk =   0.0011898
        k(  146) = (  -0.0012130  -0.7472220   0.0000000), wk =   0.0011898
        k(  147) = (  -0.0012130  -0.7452220   0.0000000), wk =   0.0011898
        k(  148) = (  -0.0012130  -0.7432220   0.0000000), wk =   0.0011898
        k(  149) = (  -0.0012130  -0.7412220   0.0000000), wk =   0.0011898
        k(  150) = (  -0.0012130  -0.7392220   0.0000000), wk =   0.0011898
        k(  151) = (  -0.0012130  -0.7372220   0.0000000), wk =   0.0011898
        k(  152) = (  -0.0012130  -0.7352220   0.0000000), wk =   0.0011898
        k(  153) = (  -0.0012130  -0.7332220   0.0000000), wk =   0.0011898
        k(  154) = (  -0.0012130  -0.7312220   0.0000000), wk =   0.0011898
        k(  155) = (  -0.0012130  -0.7292220   0.0000000), wk =   0.0011898
        k(  156) = (  -0.0012130  -0.7272220   0.0000000), wk =   0.0011898
        k(  157) = (  -0.0012130  -0.7252220   0.0000000), wk =   0.0011898
        k(  158) = (  -0.0012130  -0.7232220   0.0000000), wk =   0.0011898
        k(  159) = (  -0.0012130  -0.7212220   0.0000000), wk =   0.0011898
        k(  160) = (  -0.0012130  -0.7192220   0.0000000), wk =   0.0011898
        k(  161) = (  -0.0012130  -0.7172220   0.0000000), wk =   0.0011898
        k(  162) = (  -0.0012130  -0.7152220   0.0000000), wk =   0.0011898
        k(  163) = (  -0.0012130  -0.7132220   0.0000000), wk =   0.0011898
        k(  164) = (  -0.0012130  -0.7112220   0.0000000), wk =   0.0011898
        k(  165) = (   0.0007870  -0.7912220   0.0000000), wk =   0.0011898
        k(  166) = (   0.0007870  -0.7892220   0.0000000), wk =   0.0011898
        k(  167) = (   0.0007870  -0.7872220   0.0000000), wk =   0.0011898
        k(  168) = (   0.0007870  -0.7852220   0.0000000), wk =   0.0011898
        k(  169) = (   0.0007870  -0.7832220   0.0000000), wk =   0.0011898
        k(  170) = (   0.0007870  -0.7812220   0.0000000), wk =   0.0011898
        k(  171) = (   0.0007870  -0.7792220   0.0000000), wk =   0.0011898
        k(  172) = (   0.0007870  -0.7772220   0.0000000), wk =   0.0011898
        k(  173) = (   0.0007870  -0.7752220   0.0000000), wk =   0.0011898
        k(  174) = (   0.0007870  -0.7732220   0.0000000), wk =   0.0011898
        k(  175) = (   0.0007870  -0.7712220   0.0000000), wk =   0.0011898
        k(  176) = (   0.0007870  -0.7692220   0.0000000), wk =   0.0011898
        k(  177) = (   0.0007870  -0.7672220   0.0000000), wk =   0.0011898
        k(  178) = (   0.0007870  -0.7652220   0.0000000), wk =   0.0011898
        k(  179) = (   0.0007870  -0.7632220   0.0000000), wk =   0.0011898
        k(  180) = (   0.0007870  -0.7612220   0.0000000), wk =   0.0011898
        k(  181) = (   0.0007870  -0.7592220   0.0000000), wk =   0.0011898
        k(  182) = (   0.0007870  -0.7572220   0.0000000), wk =   0.0011898
        k(  183) = (   0.0007870  -0.7552220   0.0000000), wk =   0.0011898
        k(  184) = (   0.0007870  -0.7532220   0.0000000), wk =   0.0011898
        k(  185) = (   0.0007870  -0.7512220   0.0000000), wk =   0.0011898
        k(  186) = (   0.0007870  -0.7492220   0.0000000), wk =   0.0011898
        k(  187) = (   0.0007870  -0.7472220   0.0000000), wk =   0.0011898
        k(  188) = (   0.0007870  -0.7452220   0.0000000), wk =   0.0011898
        k(  189) = (   0.0007870  -0.7432220   0.0000000), wk =   0.0011898
        k(  190) = (   0.0007870  -0.7412220   0.0000000), wk =   0.0011898
        k(  191) = (   0.0007870  -0.7392220   0.0000000), wk =   0.0011898
        k(  192) = (   0.0007870  -0.7372220   0.0000000), wk =   0.0011898
        k(  193) = (   0.0007870  -0.7352220   0.0000000), wk =   0.0011898
        k(  194) = (   0.0007870  -0.7332220   0.0000000), wk =   0.0011898
        k(  195) = (   0.0007870  -0.7312220   0.0000000), wk =   0.0011898
        k(  196) = (   0.0007870  -0.7292220   0.0000000), wk =   0.0011898
        k(  197) = (   0.0007870  -0.7272220   0.0000000), wk =   0.0011898
        k(  198) = (   0.0007870  -0.7252220   0.0000000), wk =   0.0011898
        k(  199) = (   0.0007870  -0.7232220   0.0000000), wk =   0.0011898
        k(  200) = (   0.0007870  -0.7212220   0.0000000), wk =   0.0011898
        k(  201) = (   0.0007870  -0.7192220   0.0000000), wk =   0.0011898
        k(  202) = (   0.0007870  -0.7172220   0.0000000), wk =   0.0011898
        k(  203) = (   0.0007870  -0.7152220   0.0000000), wk =   0.0011898
        k(  204) = (   0.0007870  -0.7132220   0.0000000), wk =   0.0011898
        k(  205) = (   0.0007870  -0.7112220   0.0000000), wk =   0.0011898
        k(  206) = (   0.0027870  -0.7912220   0.0000000), wk =   0.0011898
        k(  207) = (   0.0027870  -0.7892220   0.0000000), wk =   0.0011898
        k(  208) = (   0.0027870  -0.7872220   0.0000000), wk =   0.0011898
        k(  209) = (   0.0027870  -0.7852220   0.0000000), wk =   0.0011898
        k(  210) = (   0.0027870  -0.7832220   0.0000000), wk =   0.0011898
        k(  211) = (   0.0027870  -0.7812220   0.0000000), wk =   0.0011898
        k(  212) = (   0.0027870  -0.7792220   0.0000000), wk =   0.0011898
        k(  213) = (   0.0027870  -0.7772220   0.0000000), wk =   0.0011898
        k(  214) = (   0.0027870  -0.7752220   0.0000000), wk =   0.0011898
        k(  215) = (   0.0027870  -0.7732220   0.0000000), wk =   0.0011898
        k(  216) = (   0.0027870  -0.7712220   0.0000000), wk =   0.0011898
        k(  217) = (   0.0027870  -0.7692220   0.0000000), wk =   0.0011898
        k(  218) = (   0.0027870  -0.7672220   0.0000000), wk =   0.0011898
        k(  219) = (   0.0027870  -0.7652220   0.0000000), wk =   0.0011898
        k(  220) = (   0.0027870  -0.7632220   0.0000000), wk =   0.0011898
        k(  221) = (   0.0027870  -0.7612220   0.0000000), wk =   0.0011898
        k(  222) = (   0.0027870  -0.7592220   0.0000000), wk =   0.0011898
        k(  223) = (   0.0027870  -0.7572220   0.0000000), wk =   0.0011898
        k(  224) = (   0.0027870  -0.7552220   0.0000000), wk =   0.0011898
        k(  225) = (   0.0027870  -0.7532220   0.0000000), wk =   0.0011898
        k(  226) = (   0.0027870  -0.7512220   0.0000000), wk =   0.0011898
        k(  227) = (   0.0027870  -0.7492220   0.0000000), wk =   0.0011898
        k(  228) = (   0.0027870  -0.7472220   0.0000000), wk =   0.0011898
        k(  229) = (   0.0027870  -0.7452220   0.0000000), wk =   0.0011898
        k(  230) = (   0.0027870  -0.7432220   0.0000000), wk =   0.0011898
        k(  231) = (   0.0027870  -0.7412220   0.0000000), wk =   0.0011898
        k(  232) = (   0.0027870  -0.7392220   0.0000000), wk =   0.0011898
        k(  233) = (   0.0027870  -0.7372220   0.0000000), wk =   0.0011898
        k(  234) = (   0.0027870  -0.7352220   0.0000000), wk =   0.0011898
        k(  235) = (   0.0027870  -0.7332220   0.0000000), wk =   0.0011898
        k(  236) = (   0.0027870  -0.7312220   0.0000000), wk =   0.0011898
        k(  237) = (   0.0027870  -0.7292220   0.0000000), wk =   0.0011898
        k(  238) = (   0.0027870  -0.7272220   0.0000000), wk =   0.0011898
        k(  239) = (   0.0027870  -0.7252220   0.0000000), wk =   0.0011898
        k(  240) = (   0.0027870  -0.7232220   0.0000000), wk =   0.0011898
        k(  241) = (   0.0027870  -0.7212220   0.0000000), wk =   0.0011898
        k(  242) = (   0.0027870  -0.7192220   0.0000000), wk =   0.0011898
        k(  243) = (   0.0027870  -0.7172220   0.0000000), wk =   0.0011898
        k(  244) = (   0.0027870  -0.7152220   0.0000000), wk =   0.0011898
        k(  245) = (   0.0027870  -0.7132220   0.0000000), wk =   0.0011898
        k(  246) = (   0.0027870  -0.7112220   0.0000000), wk =   0.0011898
        k(  247) = (   0.0047870  -0.7912220   0.0000000), wk =   0.0011898
        k(  248) = (   0.0047870  -0.7892220   0.0000000), wk =   0.0011898
        k(  249) = (   0.0047870  -0.7872220   0.0000000), wk =   0.0011898
        k(  250) = (   0.0047870  -0.7852220   0.0000000), wk =   0.0011898
        k(  251) = (   0.0047870  -0.7832220   0.0000000), wk =   0.0011898
        k(  252) = (   0.0047870  -0.7812220   0.0000000), wk =   0.0011898
        k(  253) = (   0.0047870  -0.7792220   0.0000000), wk =   0.0011898
        k(  254) = (   0.0047870  -0.7772220   0.0000000), wk =   0.0011898
        k(  255) = (   0.0047870  -0.7752220   0.0000000), wk =   0.0011898
        k(  256) = (   0.0047870  -0.7732220   0.0000000), wk =   0.0011898
        k(  257) = (   0.0047870  -0.7712220   0.0000000), wk =   0.0011898
        k(  258) = (   0.0047870  -0.7692220   0.0000000), wk =   0.0011898
        k(  259) = (   0.0047870  -0.7672220   0.0000000), wk =   0.0011898
        k(  260) = (   0.0047870  -0.7652220   0.0000000), wk =   0.0011898
        k(  261) = (   0.0047870  -0.7632220   0.0000000), wk =   0.0011898
        k(  262) = (   0.0047870  -0.7612220   0.0000000), wk =   0.0011898
        k(  263) = (   0.0047870  -0.7592220   0.0000000), wk =   0.0011898
        k(  264) = (   0.0047870  -0.7572220   0.0000000), wk =   0.0011898
        k(  265) = (   0.0047870  -0.7552220   0.0000000), wk =   0.0011898
        k(  266) = (   0.0047870  -0.7532220   0.0000000), wk =   0.0011898
        k(  267) = (   0.0047870  -0.7512220   0.0000000), wk =   0.0011898
        k(  268) = (   0.0047870  -0.7492220   0.0000000), wk =   0.0011898
        k(  269) = (   0.0047870  -0.7472220   0.0000000), wk =   0.0011898
        k(  270) = (   0.0047870  -0.7452220   0.0000000), wk =   0.0011898
        k(  271) = (   0.0047870  -0.7432220   0.0000000), wk =   0.0011898
        k(  272) = (   0.0047870  -0.7412220   0.0000000), wk =   0.0011898
        k(  273) = (   0.0047870  -0.7392220   0.0000000), wk =   0.0011898
        k(  274) = (   0.0047870  -0.7372220   0.0000000), wk =   0.0011898
        k(  275) = (   0.0047870  -0.7352220   0.0000000), wk =   0.0011898
        k(  276) = (   0.0047870  -0.7332220   0.0000000), wk =   0.0011898
        k(  277) = (   0.0047870  -0.7312220   0.0000000), wk =   0.0011898
        k(  278) = (   0.0047870  -0.7292220   0.0000000), wk =   0.0011898
        k(  279) = (   0.0047870  -0.7272220   0.0000000), wk =   0.0011898
        k(  280) = (   0.0047870  -0.7252220   0.0000000), wk =   0.0011898
        k(  281) = (   0.0047870  -0.7232220   0.0000000), wk =   0.0011898
        k(  282) = (   0.0047870  -0.7212220   0.0000000), wk =   0.0011898
        k(  283) = (   0.0047870  -0.7192220   0.0000000), wk =   0.0011898
        k(  284) = (   0.0047870  -0.7172220   0.0000000), wk =   0.0011898
        k(  285) = (   0.0047870  -0.7152220   0.0000000), wk =   0.0011898
        k(  286) = (   0.0047870  -0.7132220   0.0000000), wk =   0.0011898
        k(  287) = (   0.0047870  -0.7112220   0.0000000), wk =   0.0011898
        k(  288) = (   0.0067870  -0.7912220   0.0000000), wk =   0.0011898
        k(  289) = (   0.0067870  -0.7892220   0.0000000), wk =   0.0011898
        k(  290) = (   0.0067870  -0.7872220   0.0000000), wk =   0.0011898
        k(  291) = (   0.0067870  -0.7852220   0.0000000), wk =   0.0011898
        k(  292) = (   0.0067870  -0.7832220   0.0000000), wk =   0.0011898
        k(  293) = (   0.0067870  -0.7812220   0.0000000), wk =   0.0011898
        k(  294) = (   0.0067870  -0.7792220   0.0000000), wk =   0.0011898
        k(  295) = (   0.0067870  -0.7772220   0.0000000), wk =   0.0011898
        k(  296) = (   0.0067870  -0.7752220   0.0000000), wk =   0.0011898
        k(  297) = (   0.0067870  -0.7732220   0.0000000), wk =   0.0011898
        k(  298) = (   0.0067870  -0.7712220   0.0000000), wk =   0.0011898
        k(  299) = (   0.0067870  -0.7692220   0.0000000), wk =   0.0011898
        k(  300) = (   0.0067870  -0.7672220   0.0000000), wk =   0.0011898
        k(  301) = (   0.0067870  -0.7652220   0.0000000), wk =   0.0011898
        k(  302) = (   0.0067870  -0.7632220   0.0000000), wk =   0.0011898
        k(  303) = (   0.0067870  -0.7612220   0.0000000), wk =   0.0011898
        k(  304) = (   0.0067870  -0.7592220   0.0000000), wk =   0.0011898
        k(  305) = (   0.0067870  -0.7572220   0.0000000), wk =   0.0011898
        k(  306) = (   0.0067870  -0.7552220   0.0000000), wk =   0.0011898
        k(  307) = (   0.0067870  -0.7532220   0.0000000), wk =   0.0011898
        k(  308) = (   0.0067870  -0.7512220   0.0000000), wk =   0.0011898
        k(  309) = (   0.0067870  -0.7492220   0.0000000), wk =   0.0011898
        k(  310) = (   0.0067870  -0.7472220   0.0000000), wk =   0.0011898
        k(  311) = (   0.0067870  -0.7452220   0.0000000), wk =   0.0011898
        k(  312) = (   0.0067870  -0.7432220   0.0000000), wk =   0.0011898
        k(  313) = (   0.0067870  -0.7412220   0.0000000), wk =   0.0011898
        k(  314) = (   0.0067870  -0.7392220   0.0000000), wk =   0.0011898
        k(  315) = (   0.0067870  -0.7372220   0.0000000), wk =   0.0011898
        k(  316) = (   0.0067870  -0.7352220   0.0000000), wk =   0.0011898
        k(  317) = (   0.0067870  -0.7332220   0.0000000), wk =   0.0011898
        k(  318) = (   0.0067870  -0.7312220   0.0000000), wk =   0.0011898
        k(  319) = (   0.0067870  -0.7292220   0.0000000), wk =   0.0011898
        k(  320) = (   0.0067870  -0.7272220   0.0000000), wk =   0.0011898
        k(  321) = (   0.0067870  -0.7252220   0.0000000), wk =   0.0011898
        k(  322) = (   0.0067870  -0.7232220   0.0000000), wk =   0.0011898
        k(  323) = (   0.0067870  -0.7212220   0.0000000), wk =   0.0011898
        k(  324) = (   0.0067870  -0.7192220   0.0000000), wk =   0.0011898
        k(  325) = (   0.0067870  -0.7172220   0.0000000), wk =   0.0011898
        k(  326) = (   0.0067870  -0.7152220   0.0000000), wk =   0.0011898
        k(  327) = (   0.0067870  -0.7132220   0.0000000), wk =   0.0011898
        k(  328) = (   0.0067870  -0.7112220   0.0000000), wk =   0.0011898
        k(  329) = (   0.0087870  -0.7912220   0.0000000), wk =   0.0011898
        k(  330) = (   0.0087870  -0.7892220   0.0000000), wk =   0.0011898
        k(  331) = (   0.0087870  -0.7872220   0.0000000), wk =   0.0011898
        k(  332) = (   0.0087870  -0.7852220   0.0000000), wk =   0.0011898
        k(  333) = (   0.0087870  -0.7832220   0.0000000), wk =   0.0011898
        k(  334) = (   0.0087870  -0.7812220   0.0000000), wk =   0.0011898
        k(  335) = (   0.0087870  -0.7792220   0.0000000), wk =   0.0011898
        k(  336) = (   0.0087870  -0.7772220   0.0000000), wk =   0.0011898
        k(  337) = (   0.0087870  -0.7752220   0.0000000), wk =   0.0011898
        k(  338) = (   0.0087870  -0.7732220   0.0000000), wk =   0.0011898
        k(  339) = (   0.0087870  -0.7712220   0.0000000), wk =   0.0011898
        k(  340) = (   0.0087870  -0.7692220   0.0000000), wk =   0.0011898
        k(  341) = (   0.0087870  -0.7672220   0.0000000), wk =   0.0011898
        k(  342) = (   0.0087870  -0.7652220   0.0000000), wk =   0.0011898
        k(  343) = (   0.0087870  -0.7632220   0.0000000), wk =   0.0011898
        k(  344) = (   0.0087870  -0.7612220   0.0000000), wk =   0.0011898
        k(  345) = (   0.0087870  -0.7592220   0.0000000), wk =   0.0011898
        k(  346) = (   0.0087870  -0.7572220   0.0000000), wk =   0.0011898
        k(  347) = (   0.0087870  -0.7552220   0.0000000), wk =   0.0011898
        k(  348) = (   0.0087870  -0.7532220   0.0000000), wk =   0.0011898
        k(  349) = (   0.0087870  -0.7512220   0.0000000), wk =   0.0011898
        k(  350) = (   0.0087870  -0.7492220   0.0000000), wk =   0.0011898
        k(  351) = (   0.0087870  -0.7472220   0.0000000), wk =   0.0011898
        k(  352) = (   0.0087870  -0.7452220   0.0000000), wk =   0.0011898
        k(  353) = (   0.0087870  -0.7432220   0.0000000), wk =   0.0011898
        k(  354) = (   0.0087870  -0.7412220   0.0000000), wk =   0.0011898
        k(  355) = (   0.0087870  -0.7392220   0.0000000), wk =   0.0011898
        k(  356) = (   0.0087870  -0.7372220   0.0000000), wk =   0.0011898
        k(  357) = (   0.0087870  -0.7352220   0.0000000), wk =   0.0011898
        k(  358) = (   0.0087870  -0.7332220   0.0000000), wk =   0.0011898
        k(  359) = (   0.0087870  -0.7312220   0.0000000), wk =   0.0011898
        k(  360) = (   0.0087870  -0.7292220   0.0000000), wk =   0.0011898
        k(  361) = (   0.0087870  -0.7272220   0.0000000), wk =   0.0011898
        k(  362) = (   0.0087870  -0.7252220   0.0000000), wk =   0.0011898
        k(  363) = (   0.0087870  -0.7232220   0.0000000), wk =   0.0011898
        k(  364) = (   0.0087870  -0.7212220   0.0000000), wk =   0.0011898
        k(  365) = (   0.0087870  -0.7192220   0.0000000), wk =   0.0011898
        k(  366) = (   0.0087870  -0.7172220   0.0000000), wk =   0.0011898
        k(  367) = (   0.0087870  -0.7152220   0.0000000), wk =   0.0011898
        k(  368) = (   0.0087870  -0.7132220   0.0000000), wk =   0.0011898
        k(  369) = (   0.0087870  -0.7112220   0.0000000), wk =   0.0011898
        k(  370) = (   0.0107870  -0.7912220   0.0000000), wk =   0.0011898
        k(  371) = (   0.0107870  -0.7892220   0.0000000), wk =   0.0011898
        k(  372) = (   0.0107870  -0.7872220   0.0000000), wk =   0.0011898
        k(  373) = (   0.0107870  -0.7852220   0.0000000), wk =   0.0011898
        k(  374) = (   0.0107870  -0.7832220   0.0000000), wk =   0.0011898
        k(  375) = (   0.0107870  -0.7812220   0.0000000), wk =   0.0011898
        k(  376) = (   0.0107870  -0.7792220   0.0000000), wk =   0.0011898
        k(  377) = (   0.0107870  -0.7772220   0.0000000), wk =   0.0011898
        k(  378) = (   0.0107870  -0.7752220   0.0000000), wk =   0.0011898
        k(  379) = (   0.0107870  -0.7732220   0.0000000), wk =   0.0011898
        k(  380) = (   0.0107870  -0.7712220   0.0000000), wk =   0.0011898
        k(  381) = (   0.0107870  -0.7692220   0.0000000), wk =   0.0011898
        k(  382) = (   0.0107870  -0.7672220   0.0000000), wk =   0.0011898
        k(  383) = (   0.0107870  -0.7652220   0.0000000), wk =   0.0011898
        k(  384) = (   0.0107870  -0.7632220   0.0000000), wk =   0.0011898
        k(  385) = (   0.0107870  -0.7612220   0.0000000), wk =   0.0011898
        k(  386) = (   0.0107870  -0.7592220   0.0000000), wk =   0.0011898
        k(  387) = (   0.0107870  -0.7572220   0.0000000), wk =   0.0011898
        k(  388) = (   0.0107870  -0.7552220   0.0000000), wk =   0.0011898
        k(  389) = (   0.0107870  -0.7532220   0.0000000), wk =   0.0011898
        k(  390) = (   0.0107870  -0.7512220   0.0000000), wk =   0.0011898
        k(  391) = (   0.0107870  -0.7492220   0.0000000), wk =   0.0011898
        k(  392) = (   0.0107870  -0.7472220   0.0000000), wk =   0.0011898
        k(  393) = (   0.0107870  -0.7452220   0.0000000), wk =   0.0011898
        k(  394) = (   0.0107870  -0.7432220   0.0000000), wk =   0.0011898
        k(  395) = (   0.0107870  -0.7412220   0.0000000), wk =   0.0011898
        k(  396) = (   0.0107870  -0.7392220   0.0000000), wk =   0.0011898
        k(  397) = (   0.0107870  -0.7372220   0.0000000), wk =   0.0011898
        k(  398) = (   0.0107870  -0.7352220   0.0000000), wk =   0.0011898
        k(  399) = (   0.0107870  -0.7332220   0.0000000), wk =   0.0011898
        k(  400) = (   0.0107870  -0.7312220   0.0000000), wk =   0.0011898
        k(  401) = (   0.0107870  -0.7292220   0.0000000), wk =   0.0011898
        k(  402) = (   0.0107870  -0.7272220   0.0000000), wk =   0.0011898
        k(  403) = (   0.0107870  -0.7252220   0.0000000), wk =   0.0011898
        k(  404) = (   0.0107870  -0.7232220   0.0000000), wk =   0.0011898
        k(  405) = (   0.0107870  -0.7212220   0.0000000), wk =   0.0011898
        k(  406) = (   0.0107870  -0.7192220   0.0000000), wk =   0.0011898
        k(  407) = (   0.0107870  -0.7172220   0.0000000), wk =   0.0011898
        k(  408) = (   0.0107870  -0.7152220   0.0000000), wk =   0.0011898
        k(  409) = (   0.0107870  -0.7132220   0.0000000), wk =   0.0011898
        k(  410) = (   0.0107870  -0.7112220   0.0000000), wk =   0.0011898
        k(  411) = (   0.0127870  -0.7912220   0.0000000), wk =   0.0011898
        k(  412) = (   0.0127870  -0.7892220   0.0000000), wk =   0.0011898
        k(  413) = (   0.0127870  -0.7872220   0.0000000), wk =   0.0011898
        k(  414) = (   0.0127870  -0.7852220   0.0000000), wk =   0.0011898
        k(  415) = (   0.0127870  -0.7832220   0.0000000), wk =   0.0011898
        k(  416) = (   0.0127870  -0.7812220   0.0000000), wk =   0.0011898
        k(  417) = (   0.0127870  -0.7792220   0.0000000), wk =   0.0011898
        k(  418) = (   0.0127870  -0.7772220   0.0000000), wk =   0.0011898
        k(  419) = (   0.0127870  -0.7752220   0.0000000), wk =   0.0011898
        k(  420) = (   0.0127870  -0.7732220   0.0000000), wk =   0.0011898
        k(  421) = (   0.0127870  -0.7712220   0.0000000), wk =   0.0011898
        k(  422) = (   0.0127870  -0.7692220   0.0000000), wk =   0.0011898
        k(  423) = (   0.0127870  -0.7672220   0.0000000), wk =   0.0011898
        k(  424) = (   0.0127870  -0.7652220   0.0000000), wk =   0.0011898
        k(  425) = (   0.0127870  -0.7632220   0.0000000), wk =   0.0011898
        k(  426) = (   0.0127870  -0.7612220   0.0000000), wk =   0.0011898
        k(  427) = (   0.0127870  -0.7592220   0.0000000), wk =   0.0011898
        k(  428) = (   0.0127870  -0.7572220   0.0000000), wk =   0.0011898
        k(  429) = (   0.0127870  -0.7552220   0.0000000), wk =   0.0011898
        k(  430) = (   0.0127870  -0.7532220   0.0000000), wk =   0.0011898
        k(  431) = (   0.0127870  -0.7512220   0.0000000), wk =   0.0011898
        k(  432) = (   0.0127870  -0.7492220   0.0000000), wk =   0.0011898
        k(  433) = (   0.0127870  -0.7472220   0.0000000), wk =   0.0011898
        k(  434) = (   0.0127870  -0.7452220   0.0000000), wk =   0.0011898
        k(  435) = (   0.0127870  -0.7432220   0.0000000), wk =   0.0011898
        k(  436) = (   0.0127870  -0.7412220   0.0000000), wk =   0.0011898
        k(  437) = (   0.0127870  -0.7392220   0.0000000), wk =   0.0011898
        k(  438) = (   0.0127870  -0.7372220   0.0000000), wk =   0.0011898
        k(  439) = (   0.0127870  -0.7352220   0.0000000), wk =   0.0011898
        k(  440) = (   0.0127870  -0.7332220   0.0000000), wk =   0.0011898
        k(  441) = (   0.0127870  -0.7312220   0.0000000), wk =   0.0011898
        k(  442) = (   0.0127870  -0.7292220   0.0000000), wk =   0.0011898
        k(  443) = (   0.0127870  -0.7272220   0.0000000), wk =   0.0011898
        k(  444) = (   0.0127870  -0.7252220   0.0000000), wk =   0.0011898
        k(  445) = (   0.0127870  -0.7232220   0.0000000), wk =   0.0011898
        k(  446) = (   0.0127870  -0.7212220   0.0000000), wk =   0.0011898
        k(  447) = (   0.0127870  -0.7192220   0.0000000), wk =   0.0011898
        k(  448) = (   0.0127870  -0.7172220   0.0000000), wk =   0.0011898
        k(  449) = (   0.0127870  -0.7152220   0.0000000), wk =   0.0011898
        k(  450) = (   0.0127870  -0.7132220   0.0000000), wk =   0.0011898
        k(  451) = (   0.0127870  -0.7112220   0.0000000), wk =   0.0011898
        k(  452) = (   0.0147870  -0.7912220   0.0000000), wk =   0.0011898
        k(  453) = (   0.0147870  -0.7892220   0.0000000), wk =   0.0011898
        k(  454) = (   0.0147870  -0.7872220   0.0000000), wk =   0.0011898
        k(  455) = (   0.0147870  -0.7852220   0.0000000), wk =   0.0011898
        k(  456) = (   0.0147870  -0.7832220   0.0000000), wk =   0.0011898
        k(  457) = (   0.0147870  -0.7812220   0.0000000), wk =   0.0011898
        k(  458) = (   0.0147870  -0.7792220   0.0000000), wk =   0.0011898
        k(  459) = (   0.0147870  -0.7772220   0.0000000), wk =   0.0011898
        k(  460) = (   0.0147870  -0.7752220   0.0000000), wk =   0.0011898
        k(  461) = (   0.0147870  -0.7732220   0.0000000), wk =   0.0011898
        k(  462) = (   0.0147870  -0.7712220   0.0000000), wk =   0.0011898
        k(  463) = (   0.0147870  -0.7692220   0.0000000), wk =   0.0011898
        k(  464) = (   0.0147870  -0.7672220   0.0000000), wk =   0.0011898
        k(  465) = (   0.0147870  -0.7652220   0.0000000), wk =   0.0011898
        k(  466) = (   0.0147870  -0.7632220   0.0000000), wk =   0.0011898
        k(  467) = (   0.0147870  -0.7612220   0.0000000), wk =   0.0011898
        k(  468) = (   0.0147870  -0.7592220   0.0000000), wk =   0.0011898
        k(  469) = (   0.0147870  -0.7572220   0.0000000), wk =   0.0011898
        k(  470) = (   0.0147870  -0.7552220   0.0000000), wk =   0.0011898
        k(  471) = (   0.0147870  -0.7532220   0.0000000), wk =   0.0011898
        k(  472) = (   0.0147870  -0.7512220   0.0000000), wk =   0.0011898
        k(  473) = (   0.0147870  -0.7492220   0.0000000), wk =   0.0011898
        k(  474) = (   0.0147870  -0.7472220   0.0000000), wk =   0.0011898
        k(  475) = (   0.0147870  -0.7452220   0.0000000), wk =   0.0011898
        k(  476) = (   0.0147870  -0.7432220   0.0000000), wk =   0.0011898
        k(  477) = (   0.0147870  -0.7412220   0.0000000), wk =   0.0011898
        k(  478) = (   0.0147870  -0.7392220   0.0000000), wk =   0.0011898
        k(  479) = (   0.0147870  -0.7372220   0.0000000), wk =   0.0011898
        k(  480) = (   0.0147870  -0.7352220   0.0000000), wk =   0.0011898
        k(  481) = (   0.0147870  -0.7332220   0.0000000), wk =   0.0011898
        k(  482) = (   0.0147870  -0.7312220   0.0000000), wk =   0.0011898
        k(  483) = (   0.0147870  -0.7292220   0.0000000), wk =   0.0011898
        k(  484) = (   0.0147870  -0.7272220   0.0000000), wk =   0.0011898
        k(  485) = (   0.0147870  -0.7252220   0.0000000), wk =   0.0011898
        k(  486) = (   0.0147870  -0.7232220   0.0000000), wk =   0.0011898
        k(  487) = (   0.0147870  -0.7212220   0.0000000), wk =   0.0011898
        k(  488) = (   0.0147870  -0.7192220   0.0000000), wk =   0.0011898
        k(  489) = (   0.0147870  -0.7172220   0.0000000), wk =   0.0011898
        k(  490) = (   0.0147870  -0.7152220   0.0000000), wk =   0.0011898
        k(  491) = (   0.0147870  -0.7132220   0.0000000), wk =   0.0011898
        k(  492) = (   0.0147870  -0.7112220   0.0000000), wk =   0.0011898
        k(  493) = (   0.0167870  -0.7912220   0.0000000), wk =   0.0011898
        k(  494) = (   0.0167870  -0.7892220   0.0000000), wk =   0.0011898
        k(  495) = (   0.0167870  -0.7872220   0.0000000), wk =   0.0011898
        k(  496) = (   0.0167870  -0.7852220   0.0000000), wk =   0.0011898
        k(  497) = (   0.0167870  -0.7832220   0.0000000), wk =   0.0011898
        k(  498) = (   0.0167870  -0.7812220   0.0000000), wk =   0.0011898
        k(  499) = (   0.0167870  -0.7792220   0.0000000), wk =   0.0011898
        k(  500) = (   0.0167870  -0.7772220   0.0000000), wk =   0.0011898
        k(  501) = (   0.0167870  -0.7752220   0.0000000), wk =   0.0011898
        k(  502) = (   0.0167870  -0.7732220   0.0000000), wk =   0.0011898
        k(  503) = (   0.0167870  -0.7712220   0.0000000), wk =   0.0011898
        k(  504) = (   0.0167870  -0.7692220   0.0000000), wk =   0.0011898
        k(  505) = (   0.0167870  -0.7672220   0.0000000), wk =   0.0011898
        k(  506) = (   0.0167870  -0.7652220   0.0000000), wk =   0.0011898
        k(  507) = (   0.0167870  -0.7632220   0.0000000), wk =   0.0011898
        k(  508) = (   0.0167870  -0.7612220   0.0000000), wk =   0.0011898
        k(  509) = (   0.0167870  -0.7592220   0.0000000), wk =   0.0011898
        k(  510) = (   0.0167870  -0.7572220   0.0000000), wk =   0.0011898
        k(  511) = (   0.0167870  -0.7552220   0.0000000), wk =   0.0011898
        k(  512) = (   0.0167870  -0.7532220   0.0000000), wk =   0.0011898
        k(  513) = (   0.0167870  -0.7512220   0.0000000), wk =   0.0011898
        k(  514) = (   0.0167870  -0.7492220   0.0000000), wk =   0.0011898
        k(  515) = (   0.0167870  -0.7472220   0.0000000), wk =   0.0011898
        k(  516) = (   0.0167870  -0.7452220   0.0000000), wk =   0.0011898
        k(  517) = (   0.0167870  -0.7432220   0.0000000), wk =   0.0011898
        k(  518) = (   0.0167870  -0.7412220   0.0000000), wk =   0.0011898
        k(  519) = (   0.0167870  -0.7392220   0.0000000), wk =   0.0011898
        k(  520) = (   0.0167870  -0.7372220   0.0000000), wk =   0.0011898
        k(  521) = (   0.0167870  -0.7352220   0.0000000), wk =   0.0011898
        k(  522) = (   0.0167870  -0.7332220   0.0000000), wk =   0.0011898
        k(  523) = (   0.0167870  -0.7312220   0.0000000), wk =   0.0011898
        k(  524) = (   0.0167870  -0.7292220   0.0000000), wk =   0.0011898
        k(  525) = (   0.0167870  -0.7272220   0.0000000), wk =   0.0011898
        k(  526) = (   0.0167870  -0.7252220   0.0000000), wk =   0.0011898
        k(  527) = (   0.0167870  -0.7232220   0.0000000), wk =   0.0011898
        k(  528) = (   0.0167870  -0.7212220   0.0000000), wk =   0.0011898
        k(  529) = (   0.0167870  -0.7192220   0.0000000), wk =   0.0011898
        k(  530) = (   0.0167870  -0.7172220   0.0000000), wk =   0.0011898
        k(  531) = (   0.0167870  -0.7152220   0.0000000), wk =   0.0011898
        k(  532) = (   0.0167870  -0.7132220   0.0000000), wk =   0.0011898
        k(  533) = (   0.0167870  -0.7112220   0.0000000), wk =   0.0011898
        k(  534) = (   0.0187870  -0.7912220   0.0000000), wk =   0.0011898
        k(  535) = (   0.0187870  -0.7892220   0.0000000), wk =   0.0011898
        k(  536) = (   0.0187870  -0.7872220   0.0000000), wk =   0.0011898
        k(  537) = (   0.0187870  -0.7852220   0.0000000), wk =   0.0011898
        k(  538) = (   0.0187870  -0.7832220   0.0000000), wk =   0.0011898
        k(  539) = (   0.0187870  -0.7812220   0.0000000), wk =   0.0011898
        k(  540) = (   0.0187870  -0.7792220   0.0000000), wk =   0.0011898
        k(  541) = (   0.0187870  -0.7772220   0.0000000), wk =   0.0011898
        k(  542) = (   0.0187870  -0.7752220   0.0000000), wk =   0.0011898
        k(  543) = (   0.0187870  -0.7732220   0.0000000), wk =   0.0011898
        k(  544) = (   0.0187870  -0.7712220   0.0000000), wk =   0.0011898
        k(  545) = (   0.0187870  -0.7692220   0.0000000), wk =   0.0011898
        k(  546) = (   0.0187870  -0.7672220   0.0000000), wk =   0.0011898
        k(  547) = (   0.0187870  -0.7652220   0.0000000), wk =   0.0011898
        k(  548) = (   0.0187870  -0.7632220   0.0000000), wk =   0.0011898
        k(  549) = (   0.0187870  -0.7612220   0.0000000), wk =   0.0011898
        k(  550) = (   0.0187870  -0.7592220   0.0000000), wk =   0.0011898
        k(  551) = (   0.0187870  -0.7572220   0.0000000), wk =   0.0011898
        k(  552) = (   0.0187870  -0.7552220   0.0000000), wk =   0.0011898
        k(  553) = (   0.0187870  -0.7532220   0.0000000), wk =   0.0011898
        k(  554) = (   0.0187870  -0.7512220   0.0000000), wk =   0.0011898
        k(  555) = (   0.0187870  -0.7492220   0.0000000), wk =   0.0011898
        k(  556) = (   0.0187870  -0.7472220   0.0000000), wk =   0.0011898
        k(  557) = (   0.0187870  -0.7452220   0.0000000), wk =   0.0011898
        k(  558) = (   0.0187870  -0.7432220   0.0000000), wk =   0.0011898
        k(  559) = (   0.0187870  -0.7412220   0.0000000), wk =   0.0011898
        k(  560) = (   0.0187870  -0.7392220   0.0000000), wk =   0.0011898
        k(  561) = (   0.0187870  -0.7372220   0.0000000), wk =   0.0011898
        k(  562) = (   0.0187870  -0.7352220   0.0000000), wk =   0.0011898
        k(  563) = (   0.0187870  -0.7332220   0.0000000), wk =   0.0011898
        k(  564) = (   0.0187870  -0.7312220   0.0000000), wk =   0.0011898
        k(  565) = (   0.0187870  -0.7292220   0.0000000), wk =   0.0011898
        k(  566) = (   0.0187870  -0.7272220   0.0000000), wk =   0.0011898
        k(  567) = (   0.0187870  -0.7252220   0.0000000), wk =   0.0011898
        k(  568) = (   0.0187870  -0.7232220   0.0000000), wk =   0.0011898
        k(  569) = (   0.0187870  -0.7212220   0.0000000), wk =   0.0011898
        k(  570) = (   0.0187870  -0.7192220   0.0000000), wk =   0.0011898
        k(  571) = (   0.0187870  -0.7172220   0.0000000), wk =   0.0011898
        k(  572) = (   0.0187870  -0.7152220   0.0000000), wk =   0.0011898
        k(  573) = (   0.0187870  -0.7132220   0.0000000), wk =   0.0011898
        k(  574) = (   0.0187870  -0.7112220   0.0000000), wk =   0.0011898
        k(  575) = (   0.0207870  -0.7912220   0.0000000), wk =   0.0011898
        k(  576) = (   0.0207870  -0.7892220   0.0000000), wk =   0.0011898
        k(  577) = (   0.0207870  -0.7872220   0.0000000), wk =   0.0011898
        k(  578) = (   0.0207870  -0.7852220   0.0000000), wk =   0.0011898
        k(  579) = (   0.0207870  -0.7832220   0.0000000), wk =   0.0011898
        k(  580) = (   0.0207870  -0.7812220   0.0000000), wk =   0.0011898
        k(  581) = (   0.0207870  -0.7792220   0.0000000), wk =   0.0011898
        k(  582) = (   0.0207870  -0.7772220   0.0000000), wk =   0.0011898
        k(  583) = (   0.0207870  -0.7752220   0.0000000), wk =   0.0011898
        k(  584) = (   0.0207870  -0.7732220   0.0000000), wk =   0.0011898
        k(  585) = (   0.0207870  -0.7712220   0.0000000), wk =   0.0011898
        k(  586) = (   0.0207870  -0.7692220   0.0000000), wk =   0.0011898
        k(  587) = (   0.0207870  -0.7672220   0.0000000), wk =   0.0011898
        k(  588) = (   0.0207870  -0.7652220   0.0000000), wk =   0.0011898
        k(  589) = (   0.0207870  -0.7632220   0.0000000), wk =   0.0011898
        k(  590) = (   0.0207870  -0.7612220   0.0000000), wk =   0.0011898
        k(  591) = (   0.0207870  -0.7592220   0.0000000), wk =   0.0011898
        k(  592) = (   0.0207870  -0.7572220   0.0000000), wk =   0.0011898
        k(  593) = (   0.0207870  -0.7552220   0.0000000), wk =   0.0011898
        k(  594) = (   0.0207870  -0.7532220   0.0000000), wk =   0.0011898
        k(  595) = (   0.0207870  -0.7512220   0.0000000), wk =   0.0011898
        k(  596) = (   0.0207870  -0.7492220   0.0000000), wk =   0.0011898
        k(  597) = (   0.0207870  -0.7472220   0.0000000), wk =   0.0011898
        k(  598) = (   0.0207870  -0.7452220   0.0000000), wk =   0.0011898
        k(  599) = (   0.0207870  -0.7432220   0.0000000), wk =   0.0011898
        k(  600) = (   0.0207870  -0.7412220   0.0000000), wk =   0.0011898
        k(  601) = (   0.0207870  -0.7392220   0.0000000), wk =   0.0011898
        k(  602) = (   0.0207870  -0.7372220   0.0000000), wk =   0.0011898
        k(  603) = (   0.0207870  -0.7352220   0.0000000), wk =   0.0011898
        k(  604) = (   0.0207870  -0.7332220   0.0000000), wk =   0.0011898
        k(  605) = (   0.0207870  -0.7312220   0.0000000), wk =   0.0011898
        k(  606) = (   0.0207870  -0.7292220   0.0000000), wk =   0.0011898
        k(  607) = (   0.0207870  -0.7272220   0.0000000), wk =   0.0011898
        k(  608) = (   0.0207870  -0.7252220   0.0000000), wk =   0.0011898
        k(  609) = (   0.0207870  -0.7232220   0.0000000), wk =   0.0011898
        k(  610) = (   0.0207870  -0.7212220   0.0000000), wk =   0.0011898
        k(  611) = (   0.0207870  -0.7192220   0.0000000), wk =   0.0011898
        k(  612) = (   0.0207870  -0.7172220   0.0000000), wk =   0.0011898
        k(  613) = (   0.0207870  -0.7152220   0.0000000), wk =   0.0011898
        k(  614) = (   0.0207870  -0.7132220   0.0000000), wk =   0.0011898
        k(  615) = (   0.0207870  -0.7112220   0.0000000), wk =   0.0011898
        k(  616) = (   0.0227870  -0.7912220   0.0000000), wk =   0.0011898
        k(  617) = (   0.0227870  -0.7892220   0.0000000), wk =   0.0011898
        k(  618) = (   0.0227870  -0.7872220   0.0000000), wk =   0.0011898
        k(  619) = (   0.0227870  -0.7852220   0.0000000), wk =   0.0011898
        k(  620) = (   0.0227870  -0.7832220   0.0000000), wk =   0.0011898
        k(  621) = (   0.0227870  -0.7812220   0.0000000), wk =   0.0011898
        k(  622) = (   0.0227870  -0.7792220   0.0000000), wk =   0.0011898
        k(  623) = (   0.0227870  -0.7772220   0.0000000), wk =   0.0011898
        k(  624) = (   0.0227870  -0.7752220   0.0000000), wk =   0.0011898
        k(  625) = (   0.0227870  -0.7732220   0.0000000), wk =   0.0011898
        k(  626) = (   0.0227870  -0.7712220   0.0000000), wk =   0.0011898
        k(  627) = (   0.0227870  -0.7692220   0.0000000), wk =   0.0011898
        k(  628) = (   0.0227870  -0.7672220   0.0000000), wk =   0.0011898
        k(  629) = (   0.0227870  -0.7652220   0.0000000), wk =   0.0011898
        k(  630) = (   0.0227870  -0.7632220   0.0000000), wk =   0.0011898
        k(  631) = (   0.0227870  -0.7612220   0.0000000), wk =   0.0011898
        k(  632) = (   0.0227870  -0.7592220   0.0000000), wk =   0.0011898
        k(  633) = (   0.0227870  -0.7572220   0.0000000), wk =   0.0011898
        k(  634) = (   0.0227870  -0.7552220   0.0000000), wk =   0.0011898
        k(  635) = (   0.0227870  -0.7532220   0.0000000), wk =   0.0011898
        k(  636) = (   0.0227870  -0.7512220   0.0000000), wk =   0.0011898
        k(  637) = (   0.0227870  -0.7492220   0.0000000), wk =   0.0011898
        k(  638) = (   0.0227870  -0.7472220   0.0000000), wk =   0.0011898
        k(  639) = (   0.0227870  -0.7452220   0.0000000), wk =   0.0011898
        k(  640) = (   0.0227870  -0.7432220   0.0000000), wk =   0.0011898
        k(  641) = (   0.0227870  -0.7412220   0.0000000), wk =   0.0011898
        k(  642) = (   0.0227870  -0.7392220   0.0000000), wk =   0.0011898
        k(  643) = (   0.0227870  -0.7372220   0.0000000), wk =   0.0011898
        k(  644) = (   0.0227870  -0.7352220   0.0000000), wk =   0.0011898
        k(  645) = (   0.0227870  -0.7332220   0.0000000), wk =   0.0011898
        k(  646) = (   0.0227870  -0.7312220   0.0000000), wk =   0.0011898
        k(  647) = (   0.0227870  -0.7292220   0.0000000), wk =   0.0011898
        k(  648) = (   0.0227870  -0.7272220   0.0000000), wk =   0.0011898
        k(  649) = (   0.0227870  -0.7252220   0.0000000), wk =   0.0011898
        k(  650) = (   0.0227870  -0.7232220   0.0000000), wk =   0.0011898
        k(  651) = (   0.0227870  -0.7212220   0.0000000), wk =   0.0011898
        k(  652) = (   0.0227870  -0.7192220   0.0000000), wk =   0.0011898
        k(  653) = (   0.0227870  -0.7172220   0.0000000), wk =   0.0011898
        k(  654) = (   0.0227870  -0.7152220   0.0000000), wk =   0.0011898
        k(  655) = (   0.0227870  -0.7132220   0.0000000), wk =   0.0011898
        k(  656) = (   0.0227870  -0.7112220   0.0000000), wk =   0.0011898
        k(  657) = (   0.0247870  -0.7912220   0.0000000), wk =   0.0011898
        k(  658) = (   0.0247870  -0.7892220   0.0000000), wk =   0.0011898
        k(  659) = (   0.0247870  -0.7872220   0.0000000), wk =   0.0011898
        k(  660) = (   0.0247870  -0.7852220   0.0000000), wk =   0.0011898
        k(  661) = (   0.0247870  -0.7832220   0.0000000), wk =   0.0011898
        k(  662) = (   0.0247870  -0.7812220   0.0000000), wk =   0.0011898
        k(  663) = (   0.0247870  -0.7792220   0.0000000), wk =   0.0011898
        k(  664) = (   0.0247870  -0.7772220   0.0000000), wk =   0.0011898
        k(  665) = (   0.0247870  -0.7752220   0.0000000), wk =   0.0011898
        k(  666) = (   0.0247870  -0.7732220   0.0000000), wk =   0.0011898
        k(  667) = (   0.0247870  -0.7712220   0.0000000), wk =   0.0011898
        k(  668) = (   0.0247870  -0.7692220   0.0000000), wk =   0.0011898
        k(  669) = (   0.0247870  -0.7672220   0.0000000), wk =   0.0011898
        k(  670) = (   0.0247870  -0.7652220   0.0000000), wk =   0.0011898
        k(  671) = (   0.0247870  -0.7632220   0.0000000), wk =   0.0011898
        k(  672) = (   0.0247870  -0.7612220   0.0000000), wk =   0.0011898
        k(  673) = (   0.0247870  -0.7592220   0.0000000), wk =   0.0011898
        k(  674) = (   0.0247870  -0.7572220   0.0000000), wk =   0.0011898
        k(  675) = (   0.0247870  -0.7552220   0.0000000), wk =   0.0011898
        k(  676) = (   0.0247870  -0.7532220   0.0000000), wk =   0.0011898
        k(  677) = (   0.0247870  -0.7512220   0.0000000), wk =   0.0011898
        k(  678) = (   0.0247870  -0.7492220   0.0000000), wk =   0.0011898
        k(  679) = (   0.0247870  -0.7472220   0.0000000), wk =   0.0011898
        k(  680) = (   0.0247870  -0.7452220   0.0000000), wk =   0.0011898
        k(  681) = (   0.0247870  -0.7432220   0.0000000), wk =   0.0011898
        k(  682) = (   0.0247870  -0.7412220   0.0000000), wk =   0.0011898
        k(  683) = (   0.0247870  -0.7392220   0.0000000), wk =   0.0011898
        k(  684) = (   0.0247870  -0.7372220   0.0000000), wk =   0.0011898
        k(  685) = (   0.0247870  -0.7352220   0.0000000), wk =   0.0011898
        k(  686) = (   0.0247870  -0.7332220   0.0000000), wk =   0.0011898
        k(  687) = (   0.0247870  -0.7312220   0.0000000), wk =   0.0011898
        k(  688) = (   0.0247870  -0.7292220   0.0000000), wk =   0.0011898
        k(  689) = (   0.0247870  -0.7272220   0.0000000), wk =   0.0011898
        k(  690) = (   0.0247870  -0.7252220   0.0000000), wk =   0.0011898
        k(  691) = (   0.0247870  -0.7232220   0.0000000), wk =   0.0011898
        k(  692) = (   0.0247870  -0.7212220   0.0000000), wk =   0.0011898
        k(  693) = (   0.0247870  -0.7192220   0.0000000), wk =   0.0011898
        k(  694) = (   0.0247870  -0.7172220   0.0000000), wk =   0.0011898
        k(  695) = (   0.0247870  -0.7152220   0.0000000), wk =   0.0011898
        k(  696) = (   0.0247870  -0.7132220   0.0000000), wk =   0.0011898
        k(  697) = (   0.0247870  -0.7112220   0.0000000), wk =   0.0011898
        k(  698) = (   0.0267870  -0.7912220   0.0000000), wk =   0.0011898
        k(  699) = (   0.0267870  -0.7892220   0.0000000), wk =   0.0011898
        k(  700) = (   0.0267870  -0.7872220   0.0000000), wk =   0.0011898
        k(  701) = (   0.0267870  -0.7852220   0.0000000), wk =   0.0011898
        k(  702) = (   0.0267870  -0.7832220   0.0000000), wk =   0.0011898
        k(  703) = (   0.0267870  -0.7812220   0.0000000), wk =   0.0011898
        k(  704) = (   0.0267870  -0.7792220   0.0000000), wk =   0.0011898
        k(  705) = (   0.0267870  -0.7772220   0.0000000), wk =   0.0011898
        k(  706) = (   0.0267870  -0.7752220   0.0000000), wk =   0.0011898
        k(  707) = (   0.0267870  -0.7732220   0.0000000), wk =   0.0011898
        k(  708) = (   0.0267870  -0.7712220   0.0000000), wk =   0.0011898
        k(  709) = (   0.0267870  -0.7692220   0.0000000), wk =   0.0011898
        k(  710) = (   0.0267870  -0.7672220   0.0000000), wk =   0.0011898
        k(  711) = (   0.0267870  -0.7652220   0.0000000), wk =   0.0011898
        k(  712) = (   0.0267870  -0.7632220   0.0000000), wk =   0.0011898
        k(  713) = (   0.0267870  -0.7612220   0.0000000), wk =   0.0011898
        k(  714) = (   0.0267870  -0.7592220   0.0000000), wk =   0.0011898
        k(  715) = (   0.0267870  -0.7572220   0.0000000), wk =   0.0011898
        k(  716) = (   0.0267870  -0.7552220   0.0000000), wk =   0.0011898
        k(  717) = (   0.0267870  -0.7532220   0.0000000), wk =   0.0011898
        k(  718) = (   0.0267870  -0.7512220   0.0000000), wk =   0.0011898
        k(  719) = (   0.0267870  -0.7492220   0.0000000), wk =   0.0011898
        k(  720) = (   0.0267870  -0.7472220   0.0000000), wk =   0.0011898
        k(  721) = (   0.0267870  -0.7452220   0.0000000), wk =   0.0011898
        k(  722) = (   0.0267870  -0.7432220   0.0000000), wk =   0.0011898
        k(  723) = (   0.0267870  -0.7412220   0.0000000), wk =   0.0011898
        k(  724) = (   0.0267870  -0.7392220   0.0000000), wk =   0.0011898
        k(  725) = (   0.0267870  -0.7372220   0.0000000), wk =   0.0011898
        k(  726) = (   0.0267870  -0.7352220   0.0000000), wk =   0.0011898
        k(  727) = (   0.0267870  -0.7332220   0.0000000), wk =   0.0011898
        k(  728) = (   0.0267870  -0.7312220   0.0000000), wk =   0.0011898
        k(  729) = (   0.0267870  -0.7292220   0.0000000), wk =   0.0011898
        k(  730) = (   0.0267870  -0.7272220   0.0000000), wk =   0.0011898
        k(  731) = (   0.0267870  -0.7252220   0.0000000), wk =   0.0011898
        k(  732) = (   0.0267870  -0.7232220   0.0000000), wk =   0.0011898
        k(  733) = (   0.0267870  -0.7212220   0.0000000), wk =   0.0011898
        k(  734) = (   0.0267870  -0.7192220   0.0000000), wk =   0.0011898
        k(  735) = (   0.0267870  -0.7172220   0.0000000), wk =   0.0011898
        k(  736) = (   0.0267870  -0.7152220   0.0000000), wk =   0.0011898
        k(  737) = (   0.0267870  -0.7132220   0.0000000), wk =   0.0011898
        k(  738) = (   0.0267870  -0.7112220   0.0000000), wk =   0.0011898
        k(  739) = (   0.0287870  -0.7912220   0.0000000), wk =   0.0011898
        k(  740) = (   0.0287870  -0.7892220   0.0000000), wk =   0.0011898
        k(  741) = (   0.0287870  -0.7872220   0.0000000), wk =   0.0011898
        k(  742) = (   0.0287870  -0.7852220   0.0000000), wk =   0.0011898
        k(  743) = (   0.0287870  -0.7832220   0.0000000), wk =   0.0011898
        k(  744) = (   0.0287870  -0.7812220   0.0000000), wk =   0.0011898
        k(  745) = (   0.0287870  -0.7792220   0.0000000), wk =   0.0011898
        k(  746) = (   0.0287870  -0.7772220   0.0000000), wk =   0.0011898
        k(  747) = (   0.0287870  -0.7752220   0.0000000), wk =   0.0011898
        k(  748) = (   0.0287870  -0.7732220   0.0000000), wk =   0.0011898
        k(  749) = (   0.0287870  -0.7712220   0.0000000), wk =   0.0011898
        k(  750) = (   0.0287870  -0.7692220   0.0000000), wk =   0.0011898
        k(  751) = (   0.0287870  -0.7672220   0.0000000), wk =   0.0011898
        k(  752) = (   0.0287870  -0.7652220   0.0000000), wk =   0.0011898
        k(  753) = (   0.0287870  -0.7632220   0.0000000), wk =   0.0011898
        k(  754) = (   0.0287870  -0.7612220   0.0000000), wk =   0.0011898
        k(  755) = (   0.0287870  -0.7592220   0.0000000), wk =   0.0011898
        k(  756) = (   0.0287870  -0.7572220   0.0000000), wk =   0.0011898
        k(  757) = (   0.0287870  -0.7552220   0.0000000), wk =   0.0011898
        k(  758) = (   0.0287870  -0.7532220   0.0000000), wk =   0.0011898
        k(  759) = (   0.0287870  -0.7512220   0.0000000), wk =   0.0011898
        k(  760) = (   0.0287870  -0.7492220   0.0000000), wk =   0.0011898
        k(  761) = (   0.0287870  -0.7472220   0.0000000), wk =   0.0011898
        k(  762) = (   0.0287870  -0.7452220   0.0000000), wk =   0.0011898
        k(  763) = (   0.0287870  -0.7432220   0.0000000), wk =   0.0011898
        k(  764) = (   0.0287870  -0.7412220   0.0000000), wk =   0.0011898
        k(  765) = (   0.0287870  -0.7392220   0.0000000), wk =   0.0011898
        k(  766) = (   0.0287870  -0.7372220   0.0000000), wk =   0.0011898
        k(  767) = (   0.0287870  -0.7352220   0.0000000), wk =   0.0011898
        k(  768) = (   0.0287870  -0.7332220   0.0000000), wk =   0.0011898
        k(  769) = (   0.0287870  -0.7312220   0.0000000), wk =   0.0011898
        k(  770) = (   0.0287870  -0.7292220   0.0000000), wk =   0.0011898
        k(  771) = (   0.0287870  -0.7272220   0.0000000), wk =   0.0011898
        k(  772) = (   0.0287870  -0.7252220   0.0000000), wk =   0.0011898
        k(  773) = (   0.0287870  -0.7232220   0.0000000), wk =   0.0011898
        k(  774) = (   0.0287870  -0.7212220   0.0000000), wk =   0.0011898
        k(  775) = (   0.0287870  -0.7192220   0.0000000), wk =   0.0011898
        k(  776) = (   0.0287870  -0.7172220   0.0000000), wk =   0.0011898
        k(  777) = (   0.0287870  -0.7152220   0.0000000), wk =   0.0011898
        k(  778) = (   0.0287870  -0.7132220   0.0000000), wk =   0.0011898
        k(  779) = (   0.0287870  -0.7112220   0.0000000), wk =   0.0011898
        k(  780) = (   0.0307870  -0.7912220   0.0000000), wk =   0.0011898
        k(  781) = (   0.0307870  -0.7892220   0.0000000), wk =   0.0011898
        k(  782) = (   0.0307870  -0.7872220   0.0000000), wk =   0.0011898
        k(  783) = (   0.0307870  -0.7852220   0.0000000), wk =   0.0011898
        k(  784) = (   0.0307870  -0.7832220   0.0000000), wk =   0.0011898
        k(  785) = (   0.0307870  -0.7812220   0.0000000), wk =   0.0011898
        k(  786) = (   0.0307870  -0.7792220   0.0000000), wk =   0.0011898
        k(  787) = (   0.0307870  -0.7772220   0.0000000), wk =   0.0011898
        k(  788) = (   0.0307870  -0.7752220   0.0000000), wk =   0.0011898
        k(  789) = (   0.0307870  -0.7732220   0.0000000), wk =   0.0011898
        k(  790) = (   0.0307870  -0.7712220   0.0000000), wk =   0.0011898
        k(  791) = (   0.0307870  -0.7692220   0.0000000), wk =   0.0011898
        k(  792) = (   0.0307870  -0.7672220   0.0000000), wk =   0.0011898
        k(  793) = (   0.0307870  -0.7652220   0.0000000), wk =   0.0011898
        k(  794) = (   0.0307870  -0.7632220   0.0000000), wk =   0.0011898
        k(  795) = (   0.0307870  -0.7612220   0.0000000), wk =   0.0011898
        k(  796) = (   0.0307870  -0.7592220   0.0000000), wk =   0.0011898
        k(  797) = (   0.0307870  -0.7572220   0.0000000), wk =   0.0011898
        k(  798) = (   0.0307870  -0.7552220   0.0000000), wk =   0.0011898
        k(  799) = (   0.0307870  -0.7532220   0.0000000), wk =   0.0011898
        k(  800) = (   0.0307870  -0.7512220   0.0000000), wk =   0.0011898
        k(  801) = (   0.0307870  -0.7492220   0.0000000), wk =   0.0011898
        k(  802) = (   0.0307870  -0.7472220   0.0000000), wk =   0.0011898
        k(  803) = (   0.0307870  -0.7452220   0.0000000), wk =   0.0011898
        k(  804) = (   0.0307870  -0.7432220   0.0000000), wk =   0.0011898
        k(  805) = (   0.0307870  -0.7412220   0.0000000), wk =   0.0011898
        k(  806) = (   0.0307870  -0.7392220   0.0000000), wk =   0.0011898
        k(  807) = (   0.0307870  -0.7372220   0.0000000), wk =   0.0011898
        k(  808) = (   0.0307870  -0.7352220   0.0000000), wk =   0.0011898
        k(  809) = (   0.0307870  -0.7332220   0.0000000), wk =   0.0011898
        k(  810) = (   0.0307870  -0.7312220   0.0000000), wk =   0.0011898
        k(  811) = (   0.0307870  -0.7292220   0.0000000), wk =   0.0011898
        k(  812) = (   0.0307870  -0.7272220   0.0000000), wk =   0.0011898
        k(  813) = (   0.0307870  -0.7252220   0.0000000), wk =   0.0011898
        k(  814) = (   0.0307870  -0.7232220   0.0000000), wk =   0.0011898
        k(  815) = (   0.0307870  -0.7212220   0.0000000), wk =   0.0011898
        k(  816) = (   0.0307870  -0.7192220   0.0000000), wk =   0.0011898
        k(  817) = (   0.0307870  -0.7172220   0.0000000), wk =   0.0011898
        k(  818) = (   0.0307870  -0.7152220   0.0000000), wk =   0.0011898
        k(  819) = (   0.0307870  -0.7132220   0.0000000), wk =   0.0011898
        k(  820) = (   0.0307870  -0.7112220   0.0000000), wk =   0.0011898
        k(  821) = (   0.0327870  -0.7912220   0.0000000), wk =   0.0011898
        k(  822) = (   0.0327870  -0.7892220   0.0000000), wk =   0.0011898
        k(  823) = (   0.0327870  -0.7872220   0.0000000), wk =   0.0011898
        k(  824) = (   0.0327870  -0.7852220   0.0000000), wk =   0.0011898
        k(  825) = (   0.0327870  -0.7832220   0.0000000), wk =   0.0011898
        k(  826) = (   0.0327870  -0.7812220   0.0000000), wk =   0.0011898
        k(  827) = (   0.0327870  -0.7792220   0.0000000), wk =   0.0011898
        k(  828) = (   0.0327870  -0.7772220   0.0000000), wk =   0.0011898
        k(  829) = (   0.0327870  -0.7752220   0.0000000), wk =   0.0011898
        k(  830) = (   0.0327870  -0.7732220   0.0000000), wk =   0.0011898
        k(  831) = (   0.0327870  -0.7712220   0.0000000), wk =   0.0011898
        k(  832) = (   0.0327870  -0.7692220   0.0000000), wk =   0.0011898
        k(  833) = (   0.0327870  -0.7672220   0.0000000), wk =   0.0011898
        k(  834) = (   0.0327870  -0.7652220   0.0000000), wk =   0.0011898
        k(  835) = (   0.0327870  -0.7632220   0.0000000), wk =   0.0011898
        k(  836) = (   0.0327870  -0.7612220   0.0000000), wk =   0.0011898
        k(  837) = (   0.0327870  -0.7592220   0.0000000), wk =   0.0011898
        k(  838) = (   0.0327870  -0.7572220   0.0000000), wk =   0.0011898
        k(  839) = (   0.0327870  -0.7552220   0.0000000), wk =   0.0011898
        k(  840) = (   0.0327870  -0.7532220   0.0000000), wk =   0.0011898
        k(  841) = (   0.0327870  -0.7512220   0.0000000), wk =   0.0011898
        k(  842) = (   0.0327870  -0.7492220   0.0000000), wk =   0.0011898
        k(  843) = (   0.0327870  -0.7472220   0.0000000), wk =   0.0011898
        k(  844) = (   0.0327870  -0.7452220   0.0000000), wk =   0.0011898
        k(  845) = (   0.0327870  -0.7432220   0.0000000), wk =   0.0011898
        k(  846) = (   0.0327870  -0.7412220   0.0000000), wk =   0.0011898
        k(  847) = (   0.0327870  -0.7392220   0.0000000), wk =   0.0011898
        k(  848) = (   0.0327870  -0.7372220   0.0000000), wk =   0.0011898
        k(  849) = (   0.0327870  -0.7352220   0.0000000), wk =   0.0011898
        k(  850) = (   0.0327870  -0.7332220   0.0000000), wk =   0.0011898
        k(  851) = (   0.0327870  -0.7312220   0.0000000), wk =   0.0011898
        k(  852) = (   0.0327870  -0.7292220   0.0000000), wk =   0.0011898
        k(  853) = (   0.0327870  -0.7272220   0.0000000), wk =   0.0011898
        k(  854) = (   0.0327870  -0.7252220   0.0000000), wk =   0.0011898
        k(  855) = (   0.0327870  -0.7232220   0.0000000), wk =   0.0011898
        k(  856) = (   0.0327870  -0.7212220   0.0000000), wk =   0.0011898
        k(  857) = (   0.0327870  -0.7192220   0.0000000), wk =   0.0011898
        k(  858) = (   0.0327870  -0.7172220   0.0000000), wk =   0.0011898
        k(  859) = (   0.0327870  -0.7152220   0.0000000), wk =   0.0011898
        k(  860) = (   0.0327870  -0.7132220   0.0000000), wk =   0.0011898
        k(  861) = (   0.0327870  -0.7112220   0.0000000), wk =   0.0011898
        k(  862) = (   0.0347870  -0.7912220   0.0000000), wk =   0.0011898
        k(  863) = (   0.0347870  -0.7892220   0.0000000), wk =   0.0011898
        k(  864) = (   0.0347870  -0.7872220   0.0000000), wk =   0.0011898
        k(  865) = (   0.0347870  -0.7852220   0.0000000), wk =   0.0011898
        k(  866) = (   0.0347870  -0.7832220   0.0000000), wk =   0.0011898
        k(  867) = (   0.0347870  -0.7812220   0.0000000), wk =   0.0011898
        k(  868) = (   0.0347870  -0.7792220   0.0000000), wk =   0.0011898
        k(  869) = (   0.0347870  -0.7772220   0.0000000), wk =   0.0011898
        k(  870) = (   0.0347870  -0.7752220   0.0000000), wk =   0.0011898
        k(  871) = (   0.0347870  -0.7732220   0.0000000), wk =   0.0011898
        k(  872) = (   0.0347870  -0.7712220   0.0000000), wk =   0.0011898
        k(  873) = (   0.0347870  -0.7692220   0.0000000), wk =   0.0011898
        k(  874) = (   0.0347870  -0.7672220   0.0000000), wk =   0.0011898
        k(  875) = (   0.0347870  -0.7652220   0.0000000), wk =   0.0011898
        k(  876) = (   0.0347870  -0.7632220   0.0000000), wk =   0.0011898
        k(  877) = (   0.0347870  -0.7612220   0.0000000), wk =   0.0011898
        k(  878) = (   0.0347870  -0.7592220   0.0000000), wk =   0.0011898
        k(  879) = (   0.0347870  -0.7572220   0.0000000), wk =   0.0011898
        k(  880) = (   0.0347870  -0.7552220   0.0000000), wk =   0.0011898
        k(  881) = (   0.0347870  -0.7532220   0.0000000), wk =   0.0011898
        k(  882) = (   0.0347870  -0.7512220   0.0000000), wk =   0.0011898
        k(  883) = (   0.0347870  -0.7492220   0.0000000), wk =   0.0011898
        k(  884) = (   0.0347870  -0.7472220   0.0000000), wk =   0.0011898
        k(  885) = (   0.0347870  -0.7452220   0.0000000), wk =   0.0011898
        k(  886) = (   0.0347870  -0.7432220   0.0000000), wk =   0.0011898
        k(  887) = (   0.0347870  -0.7412220   0.0000000), wk =   0.0011898
        k(  888) = (   0.0347870  -0.7392220   0.0000000), wk =   0.0011898
        k(  889) = (   0.0347870  -0.7372220   0.0000000), wk =   0.0011898
        k(  890) = (   0.0347870  -0.7352220   0.0000000), wk =   0.0011898
        k(  891) = (   0.0347870  -0.7332220   0.0000000), wk =   0.0011898
        k(  892) = (   0.0347870  -0.7312220   0.0000000), wk =   0.0011898
        k(  893) = (   0.0347870  -0.7292220   0.0000000), wk =   0.0011898
        k(  894) = (   0.0347870  -0.7272220   0.0000000), wk =   0.0011898
        k(  895) = (   0.0347870  -0.7252220   0.0000000), wk =   0.0011898
        k(  896) = (   0.0347870  -0.7232220   0.0000000), wk =   0.0011898
        k(  897) = (   0.0347870  -0.7212220   0.0000000), wk =   0.0011898
        k(  898) = (   0.0347870  -0.7192220   0.0000000), wk =   0.0011898
        k(  899) = (   0.0347870  -0.7172220   0.0000000), wk =   0.0011898
        k(  900) = (   0.0347870  -0.7152220   0.0000000), wk =   0.0011898
        k(  901) = (   0.0347870  -0.7132220   0.0000000), wk =   0.0011898
        k(  902) = (   0.0347870  -0.7112220   0.0000000), wk =   0.0011898
        k(  903) = (   0.0367870  -0.7912220   0.0000000), wk =   0.0011898
        k(  904) = (   0.0367870  -0.7892220   0.0000000), wk =   0.0011898
        k(  905) = (   0.0367870  -0.7872220   0.0000000), wk =   0.0011898
        k(  906) = (   0.0367870  -0.7852220   0.0000000), wk =   0.0011898
        k(  907) = (   0.0367870  -0.7832220   0.0000000), wk =   0.0011898
        k(  908) = (   0.0367870  -0.7812220   0.0000000), wk =   0.0011898
        k(  909) = (   0.0367870  -0.7792220   0.0000000), wk =   0.0011898
        k(  910) = (   0.0367870  -0.7772220   0.0000000), wk =   0.0011898
        k(  911) = (   0.0367870  -0.7752220   0.0000000), wk =   0.0011898
        k(  912) = (   0.0367870  -0.7732220   0.0000000), wk =   0.0011898
        k(  913) = (   0.0367870  -0.7712220   0.0000000), wk =   0.0011898
        k(  914) = (   0.0367870  -0.7692220   0.0000000), wk =   0.0011898
        k(  915) = (   0.0367870  -0.7672220   0.0000000), wk =   0.0011898
        k(  916) = (   0.0367870  -0.7652220   0.0000000), wk =   0.0011898
        k(  917) = (   0.0367870  -0.7632220   0.0000000), wk =   0.0011898
        k(  918) = (   0.0367870  -0.7612220   0.0000000), wk =   0.0011898
        k(  919) = (   0.0367870  -0.7592220   0.0000000), wk =   0.0011898
        k(  920) = (   0.0367870  -0.7572220   0.0000000), wk =   0.0011898
        k(  921) = (   0.0367870  -0.7552220   0.0000000), wk =   0.0011898
        k(  922) = (   0.0367870  -0.7532220   0.0000000), wk =   0.0011898
        k(  923) = (   0.0367870  -0.7512220   0.0000000), wk =   0.0011898
        k(  924) = (   0.0367870  -0.7492220   0.0000000), wk =   0.0011898
        k(  925) = (   0.0367870  -0.7472220   0.0000000), wk =   0.0011898
        k(  926) = (   0.0367870  -0.7452220   0.0000000), wk =   0.0011898
        k(  927) = (   0.0367870  -0.7432220   0.0000000), wk =   0.0011898
        k(  928) = (   0.0367870  -0.7412220   0.0000000), wk =   0.0011898
        k(  929) = (   0.0367870  -0.7392220   0.0000000), wk =   0.0011898
        k(  930) = (   0.0367870  -0.7372220   0.0000000), wk =   0.0011898
        k(  931) = (   0.0367870  -0.7352220   0.0000000), wk =   0.0011898
        k(  932) = (   0.0367870  -0.7332220   0.0000000), wk =   0.0011898
        k(  933) = (   0.0367870  -0.7312220   0.0000000), wk =   0.0011898
        k(  934) = (   0.0367870  -0.7292220   0.0000000), wk =   0.0011898
        k(  935) = (   0.0367870  -0.7272220   0.0000000), wk =   0.0011898
        k(  936) = (   0.0367870  -0.7252220   0.0000000), wk =   0.0011898
        k(  937) = (   0.0367870  -0.7232220   0.0000000), wk =   0.0011898
        k(  938) = (   0.0367870  -0.7212220   0.0000000), wk =   0.0011898
        k(  939) = (   0.0367870  -0.7192220   0.0000000), wk =   0.0011898
        k(  940) = (   0.0367870  -0.7172220   0.0000000), wk =   0.0011898
        k(  941) = (   0.0367870  -0.7152220   0.0000000), wk =   0.0011898
        k(  942) = (   0.0367870  -0.7132220   0.0000000), wk =   0.0011898
        k(  943) = (   0.0367870  -0.7112220   0.0000000), wk =   0.0011898
        k(  944) = (   0.0387870  -0.7912220   0.0000000), wk =   0.0011898
        k(  945) = (   0.0387870  -0.7892220   0.0000000), wk =   0.0011898
        k(  946) = (   0.0387870  -0.7872220   0.0000000), wk =   0.0011898
        k(  947) = (   0.0387870  -0.7852220   0.0000000), wk =   0.0011898
        k(  948) = (   0.0387870  -0.7832220   0.0000000), wk =   0.0011898
        k(  949) = (   0.0387870  -0.7812220   0.0000000), wk =   0.0011898
        k(  950) = (   0.0387870  -0.7792220   0.0000000), wk =   0.0011898
        k(  951) = (   0.0387870  -0.7772220   0.0000000), wk =   0.0011898
        k(  952) = (   0.0387870  -0.7752220   0.0000000), wk =   0.0011898
        k(  953) = (   0.0387870  -0.7732220   0.0000000), wk =   0.0011898
        k(  954) = (   0.0387870  -0.7712220   0.0000000), wk =   0.0011898
        k(  955) = (   0.0387870  -0.7692220   0.0000000), wk =   0.0011898
        k(  956) = (   0.0387870  -0.7672220   0.0000000), wk =   0.0011898
        k(  957) = (   0.0387870  -0.7652220   0.0000000), wk =   0.0011898
        k(  958) = (   0.0387870  -0.7632220   0.0000000), wk =   0.0011898
        k(  959) = (   0.0387870  -0.7612220   0.0000000), wk =   0.0011898
        k(  960) = (   0.0387870  -0.7592220   0.0000000), wk =   0.0011898
        k(  961) = (   0.0387870  -0.7572220   0.0000000), wk =   0.0011898
        k(  962) = (   0.0387870  -0.7552220   0.0000000), wk =   0.0011898
        k(  963) = (   0.0387870  -0.7532220   0.0000000), wk =   0.0011898
        k(  964) = (   0.0387870  -0.7512220   0.0000000), wk =   0.0011898
        k(  965) = (   0.0387870  -0.7492220   0.0000000), wk =   0.0011898
        k(  966) = (   0.0387870  -0.7472220   0.0000000), wk =   0.0011898
        k(  967) = (   0.0387870  -0.7452220   0.0000000), wk =   0.0011898
        k(  968) = (   0.0387870  -0.7432220   0.0000000), wk =   0.0011898
        k(  969) = (   0.0387870  -0.7412220   0.0000000), wk =   0.0011898
        k(  970) = (   0.0387870  -0.7392220   0.0000000), wk =   0.0011898
        k(  971) = (   0.0387870  -0.7372220   0.0000000), wk =   0.0011898
        k(  972) = (   0.0387870  -0.7352220   0.0000000), wk =   0.0011898
        k(  973) = (   0.0387870  -0.7332220   0.0000000), wk =   0.0011898
        k(  974) = (   0.0387870  -0.7312220   0.0000000), wk =   0.0011898
        k(  975) = (   0.0387870  -0.7292220   0.0000000), wk =   0.0011898
        k(  976) = (   0.0387870  -0.7272220   0.0000000), wk =   0.0011898
        k(  977) = (   0.0387870  -0.7252220   0.0000000), wk =   0.0011898
        k(  978) = (   0.0387870  -0.7232220   0.0000000), wk =   0.0011898
        k(  979) = (   0.0387870  -0.7212220   0.0000000), wk =   0.0011898
        k(  980) = (   0.0387870  -0.7192220   0.0000000), wk =   0.0011898
        k(  981) = (   0.0387870  -0.7172220   0.0000000), wk =   0.0011898
        k(  982) = (   0.0387870  -0.7152220   0.0000000), wk =   0.0011898
        k(  983) = (   0.0387870  -0.7132220   0.0000000), wk =   0.0011898
        k(  984) = (   0.0387870  -0.7112220   0.0000000), wk =   0.0011898
        k(  985) = (   0.0407870  -0.7912220   0.0000000), wk =   0.0011898
        k(  986) = (   0.0407870  -0.7892220   0.0000000), wk =   0.0011898
        k(  987) = (   0.0407870  -0.7872220   0.0000000), wk =   0.0011898
        k(  988) = (   0.0407870  -0.7852220   0.0000000), wk =   0.0011898
        k(  989) = (   0.0407870  -0.7832220   0.0000000), wk =   0.0011898
        k(  990) = (   0.0407870  -0.7812220   0.0000000), wk =   0.0011898
        k(  991) = (   0.0407870  -0.7792220   0.0000000), wk =   0.0011898
        k(  992) = (   0.0407870  -0.7772220   0.0000000), wk =   0.0011898
        k(  993) = (   0.0407870  -0.7752220   0.0000000), wk =   0.0011898
        k(  994) = (   0.0407870  -0.7732220   0.0000000), wk =   0.0011898
        k(  995) = (   0.0407870  -0.7712220   0.0000000), wk =   0.0011898
        k(  996) = (   0.0407870  -0.7692220   0.0000000), wk =   0.0011898
        k(  997) = (   0.0407870  -0.7672220   0.0000000), wk =   0.0011898
        k(  998) = (   0.0407870  -0.7652220   0.0000000), wk =   0.0011898
        k(  999) = (   0.0407870  -0.7632220   0.0000000), wk =   0.0011898
        k( 1000) = (   0.0407870  -0.7612220   0.0000000), wk =   0.0011898
        k( 1001) = (   0.0407870  -0.7592220   0.0000000), wk =   0.0011898
        k( 1002) = (   0.0407870  -0.7572220   0.0000000), wk =   0.0011898
        k( 1003) = (   0.0407870  -0.7552220   0.0000000), wk =   0.0011898
        k( 1004) = (   0.0407870  -0.7532220   0.0000000), wk =   0.0011898
        k( 1005) = (   0.0407870  -0.7512220   0.0000000), wk =   0.0011898
        k( 1006) = (   0.0407870  -0.7492220   0.0000000), wk =   0.0011898
        k( 1007) = (   0.0407870  -0.7472220   0.0000000), wk =   0.0011898
        k( 1008) = (   0.0407870  -0.7452220   0.0000000), wk =   0.0011898
        k( 1009) = (   0.0407870  -0.7432220   0.0000000), wk =   0.0011898
        k( 1010) = (   0.0407870  -0.7412220   0.0000000), wk =   0.0011898
        k( 1011) = (   0.0407870  -0.7392220   0.0000000), wk =   0.0011898
        k( 1012) = (   0.0407870  -0.7372220   0.0000000), wk =   0.0011898
        k( 1013) = (   0.0407870  -0.7352220   0.0000000), wk =   0.0011898
        k( 1014) = (   0.0407870  -0.7332220   0.0000000), wk =   0.0011898
        k( 1015) = (   0.0407870  -0.7312220   0.0000000), wk =   0.0011898
        k( 1016) = (   0.0407870  -0.7292220   0.0000000), wk =   0.0011898
        k( 1017) = (   0.0407870  -0.7272220   0.0000000), wk =   0.0011898
        k( 1018) = (   0.0407870  -0.7252220   0.0000000), wk =   0.0011898
        k( 1019) = (   0.0407870  -0.7232220   0.0000000), wk =   0.0011898
        k( 1020) = (   0.0407870  -0.7212220   0.0000000), wk =   0.0011898
        k( 1021) = (   0.0407870  -0.7192220   0.0000000), wk =   0.0011898
        k( 1022) = (   0.0407870  -0.7172220   0.0000000), wk =   0.0011898
        k( 1023) = (   0.0407870  -0.7152220   0.0000000), wk =   0.0011898
        k( 1024) = (   0.0407870  -0.7132220   0.0000000), wk =   0.0011898
        k( 1025) = (   0.0407870  -0.7112220   0.0000000), wk =   0.0011898
        k( 1026) = (   0.0427870  -0.7912220   0.0000000), wk =   0.0011898
        k( 1027) = (   0.0427870  -0.7892220   0.0000000), wk =   0.0011898
        k( 1028) = (   0.0427870  -0.7872220   0.0000000), wk =   0.0011898
        k( 1029) = (   0.0427870  -0.7852220   0.0000000), wk =   0.0011898
        k( 1030) = (   0.0427870  -0.7832220   0.0000000), wk =   0.0011898
        k( 1031) = (   0.0427870  -0.7812220   0.0000000), wk =   0.0011898
        k( 1032) = (   0.0427870  -0.7792220   0.0000000), wk =   0.0011898
        k( 1033) = (   0.0427870  -0.7772220   0.0000000), wk =   0.0011898
        k( 1034) = (   0.0427870  -0.7752220   0.0000000), wk =   0.0011898
        k( 1035) = (   0.0427870  -0.7732220   0.0000000), wk =   0.0011898
        k( 1036) = (   0.0427870  -0.7712220   0.0000000), wk =   0.0011898
        k( 1037) = (   0.0427870  -0.7692220   0.0000000), wk =   0.0011898
        k( 1038) = (   0.0427870  -0.7672220   0.0000000), wk =   0.0011898
        k( 1039) = (   0.0427870  -0.7652220   0.0000000), wk =   0.0011898
        k( 1040) = (   0.0427870  -0.7632220   0.0000000), wk =   0.0011898
        k( 1041) = (   0.0427870  -0.7612220   0.0000000), wk =   0.0011898
        k( 1042) = (   0.0427870  -0.7592220   0.0000000), wk =   0.0011898
        k( 1043) = (   0.0427870  -0.7572220   0.0000000), wk =   0.0011898
        k( 1044) = (   0.0427870  -0.7552220   0.0000000), wk =   0.0011898
        k( 1045) = (   0.0427870  -0.7532220   0.0000000), wk =   0.0011898
        k( 1046) = (   0.0427870  -0.7512220   0.0000000), wk =   0.0011898
        k( 1047) = (   0.0427870  -0.7492220   0.0000000), wk =   0.0011898
        k( 1048) = (   0.0427870  -0.7472220   0.0000000), wk =   0.0011898
        k( 1049) = (   0.0427870  -0.7452220   0.0000000), wk =   0.0011898
        k( 1050) = (   0.0427870  -0.7432220   0.0000000), wk =   0.0011898
        k( 1051) = (   0.0427870  -0.7412220   0.0000000), wk =   0.0011898
        k( 1052) = (   0.0427870  -0.7392220   0.0000000), wk =   0.0011898
        k( 1053) = (   0.0427870  -0.7372220   0.0000000), wk =   0.0011898
        k( 1054) = (   0.0427870  -0.7352220   0.0000000), wk =   0.0011898
        k( 1055) = (   0.0427870  -0.7332220   0.0000000), wk =   0.0011898
        k( 1056) = (   0.0427870  -0.7312220   0.0000000), wk =   0.0011898
        k( 1057) = (   0.0427870  -0.7292220   0.0000000), wk =   0.0011898
        k( 1058) = (   0.0427870  -0.7272220   0.0000000), wk =   0.0011898
        k( 1059) = (   0.0427870  -0.7252220   0.0000000), wk =   0.0011898
        k( 1060) = (   0.0427870  -0.7232220   0.0000000), wk =   0.0011898
        k( 1061) = (   0.0427870  -0.7212220   0.0000000), wk =   0.0011898
        k( 1062) = (   0.0427870  -0.7192220   0.0000000), wk =   0.0011898
        k( 1063) = (   0.0427870  -0.7172220   0.0000000), wk =   0.0011898
        k( 1064) = (   0.0427870  -0.7152220   0.0000000), wk =   0.0011898
        k( 1065) = (   0.0427870  -0.7132220   0.0000000), wk =   0.0011898
        k( 1066) = (   0.0427870  -0.7112220   0.0000000), wk =   0.0011898
        k( 1067) = (   0.0447870  -0.7912220   0.0000000), wk =   0.0011898
        k( 1068) = (   0.0447870  -0.7892220   0.0000000), wk =   0.0011898
        k( 1069) = (   0.0447870  -0.7872220   0.0000000), wk =   0.0011898
        k( 1070) = (   0.0447870  -0.7852220   0.0000000), wk =   0.0011898
        k( 1071) = (   0.0447870  -0.7832220   0.0000000), wk =   0.0011898
        k( 1072) = (   0.0447870  -0.7812220   0.0000000), wk =   0.0011898
        k( 1073) = (   0.0447870  -0.7792220   0.0000000), wk =   0.0011898
        k( 1074) = (   0.0447870  -0.7772220   0.0000000), wk =   0.0011898
        k( 1075) = (   0.0447870  -0.7752220   0.0000000), wk =   0.0011898
        k( 1076) = (   0.0447870  -0.7732220   0.0000000), wk =   0.0011898
        k( 1077) = (   0.0447870  -0.7712220   0.0000000), wk =   0.0011898
        k( 1078) = (   0.0447870  -0.7692220   0.0000000), wk =   0.0011898
        k( 1079) = (   0.0447870  -0.7672220   0.0000000), wk =   0.0011898
        k( 1080) = (   0.0447870  -0.7652220   0.0000000), wk =   0.0011898
        k( 1081) = (   0.0447870  -0.7632220   0.0000000), wk =   0.0011898
        k( 1082) = (   0.0447870  -0.7612220   0.0000000), wk =   0.0011898
        k( 1083) = (   0.0447870  -0.7592220   0.0000000), wk =   0.0011898
        k( 1084) = (   0.0447870  -0.7572220   0.0000000), wk =   0.0011898
        k( 1085) = (   0.0447870  -0.7552220   0.0000000), wk =   0.0011898
        k( 1086) = (   0.0447870  -0.7532220   0.0000000), wk =   0.0011898
        k( 1087) = (   0.0447870  -0.7512220   0.0000000), wk =   0.0011898
        k( 1088) = (   0.0447870  -0.7492220   0.0000000), wk =   0.0011898
        k( 1089) = (   0.0447870  -0.7472220   0.0000000), wk =   0.0011898
        k( 1090) = (   0.0447870  -0.7452220   0.0000000), wk =   0.0011898
        k( 1091) = (   0.0447870  -0.7432220   0.0000000), wk =   0.0011898
        k( 1092) = (   0.0447870  -0.7412220   0.0000000), wk =   0.0011898
        k( 1093) = (   0.0447870  -0.7392220   0.0000000), wk =   0.0011898
        k( 1094) = (   0.0447870  -0.7372220   0.0000000), wk =   0.0011898
        k( 1095) = (   0.0447870  -0.7352220   0.0000000), wk =   0.0011898
        k( 1096) = (   0.0447870  -0.7332220   0.0000000), wk =   0.0011898
        k( 1097) = (   0.0447870  -0.7312220   0.0000000), wk =   0.0011898
        k( 1098) = (   0.0447870  -0.7292220   0.0000000), wk =   0.0011898
        k( 1099) = (   0.0447870  -0.7272220   0.0000000), wk =   0.0011898
        k( 1100) = (   0.0447870  -0.7252220   0.0000000), wk =   0.0011898
        k( 1101) = (   0.0447870  -0.7232220   0.0000000), wk =   0.0011898
        k( 1102) = (   0.0447870  -0.7212220   0.0000000), wk =   0.0011898
        k( 1103) = (   0.0447870  -0.7192220   0.0000000), wk =   0.0011898
        k( 1104) = (   0.0447870  -0.7172220   0.0000000), wk =   0.0011898
        k( 1105) = (   0.0447870  -0.7152220   0.0000000), wk =   0.0011898
        k( 1106) = (   0.0447870  -0.7132220   0.0000000), wk =   0.0011898
        k( 1107) = (   0.0447870  -0.7112220   0.0000000), wk =   0.0011898
        k( 1108) = (   0.0467870  -0.7912220   0.0000000), wk =   0.0011898
        k( 1109) = (   0.0467870  -0.7892220   0.0000000), wk =   0.0011898
        k( 1110) = (   0.0467870  -0.7872220   0.0000000), wk =   0.0011898
        k( 1111) = (   0.0467870  -0.7852220   0.0000000), wk =   0.0011898
        k( 1112) = (   0.0467870  -0.7832220   0.0000000), wk =   0.0011898
        k( 1113) = (   0.0467870  -0.7812220   0.0000000), wk =   0.0011898
        k( 1114) = (   0.0467870  -0.7792220   0.0000000), wk =   0.0011898
        k( 1115) = (   0.0467870  -0.7772220   0.0000000), wk =   0.0011898
        k( 1116) = (   0.0467870  -0.7752220   0.0000000), wk =   0.0011898
        k( 1117) = (   0.0467870  -0.7732220   0.0000000), wk =   0.0011898
        k( 1118) = (   0.0467870  -0.7712220   0.0000000), wk =   0.0011898
        k( 1119) = (   0.0467870  -0.7692220   0.0000000), wk =   0.0011898
        k( 1120) = (   0.0467870  -0.7672220   0.0000000), wk =   0.0011898
        k( 1121) = (   0.0467870  -0.7652220   0.0000000), wk =   0.0011898
        k( 1122) = (   0.0467870  -0.7632220   0.0000000), wk =   0.0011898
        k( 1123) = (   0.0467870  -0.7612220   0.0000000), wk =   0.0011898
        k( 1124) = (   0.0467870  -0.7592220   0.0000000), wk =   0.0011898
        k( 1125) = (   0.0467870  -0.7572220   0.0000000), wk =   0.0011898
        k( 1126) = (   0.0467870  -0.7552220   0.0000000), wk =   0.0011898
        k( 1127) = (   0.0467870  -0.7532220   0.0000000), wk =   0.0011898
        k( 1128) = (   0.0467870  -0.7512220   0.0000000), wk =   0.0011898
        k( 1129) = (   0.0467870  -0.7492220   0.0000000), wk =   0.0011898
        k( 1130) = (   0.0467870  -0.7472220   0.0000000), wk =   0.0011898
        k( 1131) = (   0.0467870  -0.7452220   0.0000000), wk =   0.0011898
        k( 1132) = (   0.0467870  -0.7432220   0.0000000), wk =   0.0011898
        k( 1133) = (   0.0467870  -0.7412220   0.0000000), wk =   0.0011898
        k( 1134) = (   0.0467870  -0.7392220   0.0000000), wk =   0.0011898
        k( 1135) = (   0.0467870  -0.7372220   0.0000000), wk =   0.0011898
        k( 1136) = (   0.0467870  -0.7352220   0.0000000), wk =   0.0011898
        k( 1137) = (   0.0467870  -0.7332220   0.0000000), wk =   0.0011898
        k( 1138) = (   0.0467870  -0.7312220   0.0000000), wk =   0.0011898
        k( 1139) = (   0.0467870  -0.7292220   0.0000000), wk =   0.0011898
        k( 1140) = (   0.0467870  -0.7272220   0.0000000), wk =   0.0011898
        k( 1141) = (   0.0467870  -0.7252220   0.0000000), wk =   0.0011898
        k( 1142) = (   0.0467870  -0.7232220   0.0000000), wk =   0.0011898
        k( 1143) = (   0.0467870  -0.7212220   0.0000000), wk =   0.0011898
        k( 1144) = (   0.0467870  -0.7192220   0.0000000), wk =   0.0011898
        k( 1145) = (   0.0467870  -0.7172220   0.0000000), wk =   0.0011898
        k( 1146) = (   0.0467870  -0.7152220   0.0000000), wk =   0.0011898
        k( 1147) = (   0.0467870  -0.7132220   0.0000000), wk =   0.0011898
        k( 1148) = (   0.0467870  -0.7112220   0.0000000), wk =   0.0011898
        k( 1149) = (   0.0487870  -0.7912220   0.0000000), wk =   0.0011898
        k( 1150) = (   0.0487870  -0.7892220   0.0000000), wk =   0.0011898
        k( 1151) = (   0.0487870  -0.7872220   0.0000000), wk =   0.0011898
        k( 1152) = (   0.0487870  -0.7852220   0.0000000), wk =   0.0011898
        k( 1153) = (   0.0487870  -0.7832220   0.0000000), wk =   0.0011898
        k( 1154) = (   0.0487870  -0.7812220   0.0000000), wk =   0.0011898
        k( 1155) = (   0.0487870  -0.7792220   0.0000000), wk =   0.0011898
        k( 1156) = (   0.0487870  -0.7772220   0.0000000), wk =   0.0011898
        k( 1157) = (   0.0487870  -0.7752220   0.0000000), wk =   0.0011898
        k( 1158) = (   0.0487870  -0.7732220   0.0000000), wk =   0.0011898
        k( 1159) = (   0.0487870  -0.7712220   0.0000000), wk =   0.0011898
        k( 1160) = (   0.0487870  -0.7692220   0.0000000), wk =   0.0011898
        k( 1161) = (   0.0487870  -0.7672220   0.0000000), wk =   0.0011898
        k( 1162) = (   0.0487870  -0.7652220   0.0000000), wk =   0.0011898
        k( 1163) = (   0.0487870  -0.7632220   0.0000000), wk =   0.0011898
        k( 1164) = (   0.0487870  -0.7612220   0.0000000), wk =   0.0011898
        k( 1165) = (   0.0487870  -0.7592220   0.0000000), wk =   0.0011898
        k( 1166) = (   0.0487870  -0.7572220   0.0000000), wk =   0.0011898
        k( 1167) = (   0.0487870  -0.7552220   0.0000000), wk =   0.0011898
        k( 1168) = (   0.0487870  -0.7532220   0.0000000), wk =   0.0011898
        k( 1169) = (   0.0487870  -0.7512220   0.0000000), wk =   0.0011898
        k( 1170) = (   0.0487870  -0.7492220   0.0000000), wk =   0.0011898
        k( 1171) = (   0.0487870  -0.7472220   0.0000000), wk =   0.0011898
        k( 1172) = (   0.0487870  -0.7452220   0.0000000), wk =   0.0011898
        k( 1173) = (   0.0487870  -0.7432220   0.0000000), wk =   0.0011898
        k( 1174) = (   0.0487870  -0.7412220   0.0000000), wk =   0.0011898
        k( 1175) = (   0.0487870  -0.7392220   0.0000000), wk =   0.0011898
        k( 1176) = (   0.0487870  -0.7372220   0.0000000), wk =   0.0011898
        k( 1177) = (   0.0487870  -0.7352220   0.0000000), wk =   0.0011898
        k( 1178) = (   0.0487870  -0.7332220   0.0000000), wk =   0.0011898
        k( 1179) = (   0.0487870  -0.7312220   0.0000000), wk =   0.0011898
        k( 1180) = (   0.0487870  -0.7292220   0.0000000), wk =   0.0011898
        k( 1181) = (   0.0487870  -0.7272220   0.0000000), wk =   0.0011898
        k( 1182) = (   0.0487870  -0.7252220   0.0000000), wk =   0.0011898
        k( 1183) = (   0.0487870  -0.7232220   0.0000000), wk =   0.0011898
        k( 1184) = (   0.0487870  -0.7212220   0.0000000), wk =   0.0011898
        k( 1185) = (   0.0487870  -0.7192220   0.0000000), wk =   0.0011898
        k( 1186) = (   0.0487870  -0.7172220   0.0000000), wk =   0.0011898
        k( 1187) = (   0.0487870  -0.7152220   0.0000000), wk =   0.0011898
        k( 1188) = (   0.0487870  -0.7132220   0.0000000), wk =   0.0011898
        k( 1189) = (   0.0487870  -0.7112220   0.0000000), wk =   0.0011898
        k( 1190) = (   0.0507870  -0.7912220   0.0000000), wk =   0.0011898
        k( 1191) = (   0.0507870  -0.7892220   0.0000000), wk =   0.0011898
        k( 1192) = (   0.0507870  -0.7872220   0.0000000), wk =   0.0011898
        k( 1193) = (   0.0507870  -0.7852220   0.0000000), wk =   0.0011898
        k( 1194) = (   0.0507870  -0.7832220   0.0000000), wk =   0.0011898
        k( 1195) = (   0.0507870  -0.7812220   0.0000000), wk =   0.0011898
        k( 1196) = (   0.0507870  -0.7792220   0.0000000), wk =   0.0011898
        k( 1197) = (   0.0507870  -0.7772220   0.0000000), wk =   0.0011898
        k( 1198) = (   0.0507870  -0.7752220   0.0000000), wk =   0.0011898
        k( 1199) = (   0.0507870  -0.7732220   0.0000000), wk =   0.0011898
        k( 1200) = (   0.0507870  -0.7712220   0.0000000), wk =   0.0011898
        k( 1201) = (   0.0507870  -0.7692220   0.0000000), wk =   0.0011898
        k( 1202) = (   0.0507870  -0.7672220   0.0000000), wk =   0.0011898
        k( 1203) = (   0.0507870  -0.7652220   0.0000000), wk =   0.0011898
        k( 1204) = (   0.0507870  -0.7632220   0.0000000), wk =   0.0011898
        k( 1205) = (   0.0507870  -0.7612220   0.0000000), wk =   0.0011898
        k( 1206) = (   0.0507870  -0.7592220   0.0000000), wk =   0.0011898
        k( 1207) = (   0.0507870  -0.7572220   0.0000000), wk =   0.0011898
        k( 1208) = (   0.0507870  -0.7552220   0.0000000), wk =   0.0011898
        k( 1209) = (   0.0507870  -0.7532220   0.0000000), wk =   0.0011898
        k( 1210) = (   0.0507870  -0.7512220   0.0000000), wk =   0.0011898
        k( 1211) = (   0.0507870  -0.7492220   0.0000000), wk =   0.0011898
        k( 1212) = (   0.0507870  -0.7472220   0.0000000), wk =   0.0011898
        k( 1213) = (   0.0507870  -0.7452220   0.0000000), wk =   0.0011898
        k( 1214) = (   0.0507870  -0.7432220   0.0000000), wk =   0.0011898
        k( 1215) = (   0.0507870  -0.7412220   0.0000000), wk =   0.0011898
        k( 1216) = (   0.0507870  -0.7392220   0.0000000), wk =   0.0011898
        k( 1217) = (   0.0507870  -0.7372220   0.0000000), wk =   0.0011898
        k( 1218) = (   0.0507870  -0.7352220   0.0000000), wk =   0.0011898
        k( 1219) = (   0.0507870  -0.7332220   0.0000000), wk =   0.0011898
        k( 1220) = (   0.0507870  -0.7312220   0.0000000), wk =   0.0011898
        k( 1221) = (   0.0507870  -0.7292220   0.0000000), wk =   0.0011898
        k( 1222) = (   0.0507870  -0.7272220   0.0000000), wk =   0.0011898
        k( 1223) = (   0.0507870  -0.7252220   0.0000000), wk =   0.0011898
        k( 1224) = (   0.0507870  -0.7232220   0.0000000), wk =   0.0011898
        k( 1225) = (   0.0507870  -0.7212220   0.0000000), wk =   0.0011898
        k( 1226) = (   0.0507870  -0.7192220   0.0000000), wk =   0.0011898
        k( 1227) = (   0.0507870  -0.7172220   0.0000000), wk =   0.0011898
        k( 1228) = (   0.0507870  -0.7152220   0.0000000), wk =   0.0011898
        k( 1229) = (   0.0507870  -0.7132220   0.0000000), wk =   0.0011898
        k( 1230) = (   0.0507870  -0.7112220   0.0000000), wk =   0.0011898
        k( 1231) = (   0.0527870  -0.7912220   0.0000000), wk =   0.0011898
        k( 1232) = (   0.0527870  -0.7892220   0.0000000), wk =   0.0011898
        k( 1233) = (   0.0527870  -0.7872220   0.0000000), wk =   0.0011898
        k( 1234) = (   0.0527870  -0.7852220   0.0000000), wk =   0.0011898
        k( 1235) = (   0.0527870  -0.7832220   0.0000000), wk =   0.0011898
        k( 1236) = (   0.0527870  -0.7812220   0.0000000), wk =   0.0011898
        k( 1237) = (   0.0527870  -0.7792220   0.0000000), wk =   0.0011898
        k( 1238) = (   0.0527870  -0.7772220   0.0000000), wk =   0.0011898
        k( 1239) = (   0.0527870  -0.7752220   0.0000000), wk =   0.0011898
        k( 1240) = (   0.0527870  -0.7732220   0.0000000), wk =   0.0011898
        k( 1241) = (   0.0527870  -0.7712220   0.0000000), wk =   0.0011898
        k( 1242) = (   0.0527870  -0.7692220   0.0000000), wk =   0.0011898
        k( 1243) = (   0.0527870  -0.7672220   0.0000000), wk =   0.0011898
        k( 1244) = (   0.0527870  -0.7652220   0.0000000), wk =   0.0011898
        k( 1245) = (   0.0527870  -0.7632220   0.0000000), wk =   0.0011898
        k( 1246) = (   0.0527870  -0.7612220   0.0000000), wk =   0.0011898
        k( 1247) = (   0.0527870  -0.7592220   0.0000000), wk =   0.0011898
        k( 1248) = (   0.0527870  -0.7572220   0.0000000), wk =   0.0011898
        k( 1249) = (   0.0527870  -0.7552220   0.0000000), wk =   0.0011898
        k( 1250) = (   0.0527870  -0.7532220   0.0000000), wk =   0.0011898
        k( 1251) = (   0.0527870  -0.7512220   0.0000000), wk =   0.0011898
        k( 1252) = (   0.0527870  -0.7492220   0.0000000), wk =   0.0011898
        k( 1253) = (   0.0527870  -0.7472220   0.0000000), wk =   0.0011898
        k( 1254) = (   0.0527870  -0.7452220   0.0000000), wk =   0.0011898
        k( 1255) = (   0.0527870  -0.7432220   0.0000000), wk =   0.0011898
        k( 1256) = (   0.0527870  -0.7412220   0.0000000), wk =   0.0011898
        k( 1257) = (   0.0527870  -0.7392220   0.0000000), wk =   0.0011898
        k( 1258) = (   0.0527870  -0.7372220   0.0000000), wk =   0.0011898
        k( 1259) = (   0.0527870  -0.7352220   0.0000000), wk =   0.0011898
        k( 1260) = (   0.0527870  -0.7332220   0.0000000), wk =   0.0011898
        k( 1261) = (   0.0527870  -0.7312220   0.0000000), wk =   0.0011898
        k( 1262) = (   0.0527870  -0.7292220   0.0000000), wk =   0.0011898
        k( 1263) = (   0.0527870  -0.7272220   0.0000000), wk =   0.0011898
        k( 1264) = (   0.0527870  -0.7252220   0.0000000), wk =   0.0011898
        k( 1265) = (   0.0527870  -0.7232220   0.0000000), wk =   0.0011898
        k( 1266) = (   0.0527870  -0.7212220   0.0000000), wk =   0.0011898
        k( 1267) = (   0.0527870  -0.7192220   0.0000000), wk =   0.0011898
        k( 1268) = (   0.0527870  -0.7172220   0.0000000), wk =   0.0011898
        k( 1269) = (   0.0527870  -0.7152220   0.0000000), wk =   0.0011898
        k( 1270) = (   0.0527870  -0.7132220   0.0000000), wk =   0.0011898
        k( 1271) = (   0.0527870  -0.7112220   0.0000000), wk =   0.0011898
        k( 1272) = (   0.0547870  -0.7912220   0.0000000), wk =   0.0011898
        k( 1273) = (   0.0547870  -0.7892220   0.0000000), wk =   0.0011898
        k( 1274) = (   0.0547870  -0.7872220   0.0000000), wk =   0.0011898
        k( 1275) = (   0.0547870  -0.7852220   0.0000000), wk =   0.0011898
        k( 1276) = (   0.0547870  -0.7832220   0.0000000), wk =   0.0011898
        k( 1277) = (   0.0547870  -0.7812220   0.0000000), wk =   0.0011898
        k( 1278) = (   0.0547870  -0.7792220   0.0000000), wk =   0.0011898
        k( 1279) = (   0.0547870  -0.7772220   0.0000000), wk =   0.0011898
        k( 1280) = (   0.0547870  -0.7752220   0.0000000), wk =   0.0011898
        k( 1281) = (   0.0547870  -0.7732220   0.0000000), wk =   0.0011898
        k( 1282) = (   0.0547870  -0.7712220   0.0000000), wk =   0.0011898
        k( 1283) = (   0.0547870  -0.7692220   0.0000000), wk =   0.0011898
        k( 1284) = (   0.0547870  -0.7672220   0.0000000), wk =   0.0011898
        k( 1285) = (   0.0547870  -0.7652220   0.0000000), wk =   0.0011898
        k( 1286) = (   0.0547870  -0.7632220   0.0000000), wk =   0.0011898
        k( 1287) = (   0.0547870  -0.7612220   0.0000000), wk =   0.0011898
        k( 1288) = (   0.0547870  -0.7592220   0.0000000), wk =   0.0011898
        k( 1289) = (   0.0547870  -0.7572220   0.0000000), wk =   0.0011898
        k( 1290) = (   0.0547870  -0.7552220   0.0000000), wk =   0.0011898
        k( 1291) = (   0.0547870  -0.7532220   0.0000000), wk =   0.0011898
        k( 1292) = (   0.0547870  -0.7512220   0.0000000), wk =   0.0011898
        k( 1293) = (   0.0547870  -0.7492220   0.0000000), wk =   0.0011898
        k( 1294) = (   0.0547870  -0.7472220   0.0000000), wk =   0.0011898
        k( 1295) = (   0.0547870  -0.7452220   0.0000000), wk =   0.0011898
        k( 1296) = (   0.0547870  -0.7432220   0.0000000), wk =   0.0011898
        k( 1297) = (   0.0547870  -0.7412220   0.0000000), wk =   0.0011898
        k( 1298) = (   0.0547870  -0.7392220   0.0000000), wk =   0.0011898
        k( 1299) = (   0.0547870  -0.7372220   0.0000000), wk =   0.0011898
        k( 1300) = (   0.0547870  -0.7352220   0.0000000), wk =   0.0011898
        k( 1301) = (   0.0547870  -0.7332220   0.0000000), wk =   0.0011898
        k( 1302) = (   0.0547870  -0.7312220   0.0000000), wk =   0.0011898
        k( 1303) = (   0.0547870  -0.7292220   0.0000000), wk =   0.0011898
        k( 1304) = (   0.0547870  -0.7272220   0.0000000), wk =   0.0011898
        k( 1305) = (   0.0547870  -0.7252220   0.0000000), wk =   0.0011898
        k( 1306) = (   0.0547870  -0.7232220   0.0000000), wk =   0.0011898
        k( 1307) = (   0.0547870  -0.7212220   0.0000000), wk =   0.0011898
        k( 1308) = (   0.0547870  -0.7192220   0.0000000), wk =   0.0011898
        k( 1309) = (   0.0547870  -0.7172220   0.0000000), wk =   0.0011898
        k( 1310) = (   0.0547870  -0.7152220   0.0000000), wk =   0.0011898
        k( 1311) = (   0.0547870  -0.7132220   0.0000000), wk =   0.0011898
        k( 1312) = (   0.0547870  -0.7112220   0.0000000), wk =   0.0011898
        k( 1313) = (   0.0567870  -0.7912220   0.0000000), wk =   0.0011898
        k( 1314) = (   0.0567870  -0.7892220   0.0000000), wk =   0.0011898
        k( 1315) = (   0.0567870  -0.7872220   0.0000000), wk =   0.0011898
        k( 1316) = (   0.0567870  -0.7852220   0.0000000), wk =   0.0011898
        k( 1317) = (   0.0567870  -0.7832220   0.0000000), wk =   0.0011898
        k( 1318) = (   0.0567870  -0.7812220   0.0000000), wk =   0.0011898
        k( 1319) = (   0.0567870  -0.7792220   0.0000000), wk =   0.0011898
        k( 1320) = (   0.0567870  -0.7772220   0.0000000), wk =   0.0011898
        k( 1321) = (   0.0567870  -0.7752220   0.0000000), wk =   0.0011898
        k( 1322) = (   0.0567870  -0.7732220   0.0000000), wk =   0.0011898
        k( 1323) = (   0.0567870  -0.7712220   0.0000000), wk =   0.0011898
        k( 1324) = (   0.0567870  -0.7692220   0.0000000), wk =   0.0011898
        k( 1325) = (   0.0567870  -0.7672220   0.0000000), wk =   0.0011898
        k( 1326) = (   0.0567870  -0.7652220   0.0000000), wk =   0.0011898
        k( 1327) = (   0.0567870  -0.7632220   0.0000000), wk =   0.0011898
        k( 1328) = (   0.0567870  -0.7612220   0.0000000), wk =   0.0011898
        k( 1329) = (   0.0567870  -0.7592220   0.0000000), wk =   0.0011898
        k( 1330) = (   0.0567870  -0.7572220   0.0000000), wk =   0.0011898
        k( 1331) = (   0.0567870  -0.7552220   0.0000000), wk =   0.0011898
        k( 1332) = (   0.0567870  -0.7532220   0.0000000), wk =   0.0011898
        k( 1333) = (   0.0567870  -0.7512220   0.0000000), wk =   0.0011898
        k( 1334) = (   0.0567870  -0.7492220   0.0000000), wk =   0.0011898
        k( 1335) = (   0.0567870  -0.7472220   0.0000000), wk =   0.0011898
        k( 1336) = (   0.0567870  -0.7452220   0.0000000), wk =   0.0011898
        k( 1337) = (   0.0567870  -0.7432220   0.0000000), wk =   0.0011898
        k( 1338) = (   0.0567870  -0.7412220   0.0000000), wk =   0.0011898
        k( 1339) = (   0.0567870  -0.7392220   0.0000000), wk =   0.0011898
        k( 1340) = (   0.0567870  -0.7372220   0.0000000), wk =   0.0011898
        k( 1341) = (   0.0567870  -0.7352220   0.0000000), wk =   0.0011898
        k( 1342) = (   0.0567870  -0.7332220   0.0000000), wk =   0.0011898
        k( 1343) = (   0.0567870  -0.7312220   0.0000000), wk =   0.0011898
        k( 1344) = (   0.0567870  -0.7292220   0.0000000), wk =   0.0011898
        k( 1345) = (   0.0567870  -0.7272220   0.0000000), wk =   0.0011898
        k( 1346) = (   0.0567870  -0.7252220   0.0000000), wk =   0.0011898
        k( 1347) = (   0.0567870  -0.7232220   0.0000000), wk =   0.0011898
        k( 1348) = (   0.0567870  -0.7212220   0.0000000), wk =   0.0011898
        k( 1349) = (   0.0567870  -0.7192220   0.0000000), wk =   0.0011898
        k( 1350) = (   0.0567870  -0.7172220   0.0000000), wk =   0.0011898
        k( 1351) = (   0.0567870  -0.7152220   0.0000000), wk =   0.0011898
        k( 1352) = (   0.0567870  -0.7132220   0.0000000), wk =   0.0011898
        k( 1353) = (   0.0567870  -0.7112220   0.0000000), wk =   0.0011898
        k( 1354) = (   0.0587870  -0.7912220   0.0000000), wk =   0.0011898
        k( 1355) = (   0.0587870  -0.7892220   0.0000000), wk =   0.0011898
        k( 1356) = (   0.0587870  -0.7872220   0.0000000), wk =   0.0011898
        k( 1357) = (   0.0587870  -0.7852220   0.0000000), wk =   0.0011898
        k( 1358) = (   0.0587870  -0.7832220   0.0000000), wk =   0.0011898
        k( 1359) = (   0.0587870  -0.7812220   0.0000000), wk =   0.0011898
        k( 1360) = (   0.0587870  -0.7792220   0.0000000), wk =   0.0011898
        k( 1361) = (   0.0587870  -0.7772220   0.0000000), wk =   0.0011898
        k( 1362) = (   0.0587870  -0.7752220   0.0000000), wk =   0.0011898
        k( 1363) = (   0.0587870  -0.7732220   0.0000000), wk =   0.0011898
        k( 1364) = (   0.0587870  -0.7712220   0.0000000), wk =   0.0011898
        k( 1365) = (   0.0587870  -0.7692220   0.0000000), wk =   0.0011898
        k( 1366) = (   0.0587870  -0.7672220   0.0000000), wk =   0.0011898
        k( 1367) = (   0.0587870  -0.7652220   0.0000000), wk =   0.0011898
        k( 1368) = (   0.0587870  -0.7632220   0.0000000), wk =   0.0011898
        k( 1369) = (   0.0587870  -0.7612220   0.0000000), wk =   0.0011898
        k( 1370) = (   0.0587870  -0.7592220   0.0000000), wk =   0.0011898
        k( 1371) = (   0.0587870  -0.7572220   0.0000000), wk =   0.0011898
        k( 1372) = (   0.0587870  -0.7552220   0.0000000), wk =   0.0011898
        k( 1373) = (   0.0587870  -0.7532220   0.0000000), wk =   0.0011898
        k( 1374) = (   0.0587870  -0.7512220   0.0000000), wk =   0.0011898
        k( 1375) = (   0.0587870  -0.7492220   0.0000000), wk =   0.0011898
        k( 1376) = (   0.0587870  -0.7472220   0.0000000), wk =   0.0011898
        k( 1377) = (   0.0587870  -0.7452220   0.0000000), wk =   0.0011898
        k( 1378) = (   0.0587870  -0.7432220   0.0000000), wk =   0.0011898
        k( 1379) = (   0.0587870  -0.7412220   0.0000000), wk =   0.0011898
        k( 1380) = (   0.0587870  -0.7392220   0.0000000), wk =   0.0011898
        k( 1381) = (   0.0587870  -0.7372220   0.0000000), wk =   0.0011898
        k( 1382) = (   0.0587870  -0.7352220   0.0000000), wk =   0.0011898
        k( 1383) = (   0.0587870  -0.7332220   0.0000000), wk =   0.0011898
        k( 1384) = (   0.0587870  -0.7312220   0.0000000), wk =   0.0011898
        k( 1385) = (   0.0587870  -0.7292220   0.0000000), wk =   0.0011898
        k( 1386) = (   0.0587870  -0.7272220   0.0000000), wk =   0.0011898
        k( 1387) = (   0.0587870  -0.7252220   0.0000000), wk =   0.0011898
        k( 1388) = (   0.0587870  -0.7232220   0.0000000), wk =   0.0011898
        k( 1389) = (   0.0587870  -0.7212220   0.0000000), wk =   0.0011898
        k( 1390) = (   0.0587870  -0.7192220   0.0000000), wk =   0.0011898
        k( 1391) = (   0.0587870  -0.7172220   0.0000000), wk =   0.0011898
        k( 1392) = (   0.0587870  -0.7152220   0.0000000), wk =   0.0011898
        k( 1393) = (   0.0587870  -0.7132220   0.0000000), wk =   0.0011898
        k( 1394) = (   0.0587870  -0.7112220   0.0000000), wk =   0.0011898
        k( 1395) = (   0.0607870  -0.7912220   0.0000000), wk =   0.0011898
        k( 1396) = (   0.0607870  -0.7892220   0.0000000), wk =   0.0011898
        k( 1397) = (   0.0607870  -0.7872220   0.0000000), wk =   0.0011898
        k( 1398) = (   0.0607870  -0.7852220   0.0000000), wk =   0.0011898
        k( 1399) = (   0.0607870  -0.7832220   0.0000000), wk =   0.0011898
        k( 1400) = (   0.0607870  -0.7812220   0.0000000), wk =   0.0011898
        k( 1401) = (   0.0607870  -0.7792220   0.0000000), wk =   0.0011898
        k( 1402) = (   0.0607870  -0.7772220   0.0000000), wk =   0.0011898
        k( 1403) = (   0.0607870  -0.7752220   0.0000000), wk =   0.0011898
        k( 1404) = (   0.0607870  -0.7732220   0.0000000), wk =   0.0011898
        k( 1405) = (   0.0607870  -0.7712220   0.0000000), wk =   0.0011898
        k( 1406) = (   0.0607870  -0.7692220   0.0000000), wk =   0.0011898
        k( 1407) = (   0.0607870  -0.7672220   0.0000000), wk =   0.0011898
        k( 1408) = (   0.0607870  -0.7652220   0.0000000), wk =   0.0011898
        k( 1409) = (   0.0607870  -0.7632220   0.0000000), wk =   0.0011898
        k( 1410) = (   0.0607870  -0.7612220   0.0000000), wk =   0.0011898
        k( 1411) = (   0.0607870  -0.7592220   0.0000000), wk =   0.0011898
        k( 1412) = (   0.0607870  -0.7572220   0.0000000), wk =   0.0011898
        k( 1413) = (   0.0607870  -0.7552220   0.0000000), wk =   0.0011898
        k( 1414) = (   0.0607870  -0.7532220   0.0000000), wk =   0.0011898
        k( 1415) = (   0.0607870  -0.7512220   0.0000000), wk =   0.0011898
        k( 1416) = (   0.0607870  -0.7492220   0.0000000), wk =   0.0011898
        k( 1417) = (   0.0607870  -0.7472220   0.0000000), wk =   0.0011898
        k( 1418) = (   0.0607870  -0.7452220   0.0000000), wk =   0.0011898
        k( 1419) = (   0.0607870  -0.7432220   0.0000000), wk =   0.0011898
        k( 1420) = (   0.0607870  -0.7412220   0.0000000), wk =   0.0011898
        k( 1421) = (   0.0607870  -0.7392220   0.0000000), wk =   0.0011898
        k( 1422) = (   0.0607870  -0.7372220   0.0000000), wk =   0.0011898
        k( 1423) = (   0.0607870  -0.7352220   0.0000000), wk =   0.0011898
        k( 1424) = (   0.0607870  -0.7332220   0.0000000), wk =   0.0011898
        k( 1425) = (   0.0607870  -0.7312220   0.0000000), wk =   0.0011898
        k( 1426) = (   0.0607870  -0.7292220   0.0000000), wk =   0.0011898
        k( 1427) = (   0.0607870  -0.7272220   0.0000000), wk =   0.0011898
        k( 1428) = (   0.0607870  -0.7252220   0.0000000), wk =   0.0011898
        k( 1429) = (   0.0607870  -0.7232220   0.0000000), wk =   0.0011898
        k( 1430) = (   0.0607870  -0.7212220   0.0000000), wk =   0.0011898
        k( 1431) = (   0.0607870  -0.7192220   0.0000000), wk =   0.0011898
        k( 1432) = (   0.0607870  -0.7172220   0.0000000), wk =   0.0011898
        k( 1433) = (   0.0607870  -0.7152220   0.0000000), wk =   0.0011898
        k( 1434) = (   0.0607870  -0.7132220   0.0000000), wk =   0.0011898
        k( 1435) = (   0.0607870  -0.7112220   0.0000000), wk =   0.0011898
        k( 1436) = (   0.0627870  -0.7912220   0.0000000), wk =   0.0011898
        k( 1437) = (   0.0627870  -0.7892220   0.0000000), wk =   0.0011898
        k( 1438) = (   0.0627870  -0.7872220   0.0000000), wk =   0.0011898
        k( 1439) = (   0.0627870  -0.7852220   0.0000000), wk =   0.0011898
        k( 1440) = (   0.0627870  -0.7832220   0.0000000), wk =   0.0011898
        k( 1441) = (   0.0627870  -0.7812220   0.0000000), wk =   0.0011898
        k( 1442) = (   0.0627870  -0.7792220   0.0000000), wk =   0.0011898
        k( 1443) = (   0.0627870  -0.7772220   0.0000000), wk =   0.0011898
        k( 1444) = (   0.0627870  -0.7752220   0.0000000), wk =   0.0011898
        k( 1445) = (   0.0627870  -0.7732220   0.0000000), wk =   0.0011898
        k( 1446) = (   0.0627870  -0.7712220   0.0000000), wk =   0.0011898
        k( 1447) = (   0.0627870  -0.7692220   0.0000000), wk =   0.0011898
        k( 1448) = (   0.0627870  -0.7672220   0.0000000), wk =   0.0011898
        k( 1449) = (   0.0627870  -0.7652220   0.0000000), wk =   0.0011898
        k( 1450) = (   0.0627870  -0.7632220   0.0000000), wk =   0.0011898
        k( 1451) = (   0.0627870  -0.7612220   0.0000000), wk =   0.0011898
        k( 1452) = (   0.0627870  -0.7592220   0.0000000), wk =   0.0011898
        k( 1453) = (   0.0627870  -0.7572220   0.0000000), wk =   0.0011898
        k( 1454) = (   0.0627870  -0.7552220   0.0000000), wk =   0.0011898
        k( 1455) = (   0.0627870  -0.7532220   0.0000000), wk =   0.0011898
        k( 1456) = (   0.0627870  -0.7512220   0.0000000), wk =   0.0011898
        k( 1457) = (   0.0627870  -0.7492220   0.0000000), wk =   0.0011898
        k( 1458) = (   0.0627870  -0.7472220   0.0000000), wk =   0.0011898
        k( 1459) = (   0.0627870  -0.7452220   0.0000000), wk =   0.0011898
        k( 1460) = (   0.0627870  -0.7432220   0.0000000), wk =   0.0011898
        k( 1461) = (   0.0627870  -0.7412220   0.0000000), wk =   0.0011898
        k( 1462) = (   0.0627870  -0.7392220   0.0000000), wk =   0.0011898
        k( 1463) = (   0.0627870  -0.7372220   0.0000000), wk =   0.0011898
        k( 1464) = (   0.0627870  -0.7352220   0.0000000), wk =   0.0011898
        k( 1465) = (   0.0627870  -0.7332220   0.0000000), wk =   0.0011898
        k( 1466) = (   0.0627870  -0.7312220   0.0000000), wk =   0.0011898
        k( 1467) = (   0.0627870  -0.7292220   0.0000000), wk =   0.0011898
        k( 1468) = (   0.0627870  -0.7272220   0.0000000), wk =   0.0011898
        k( 1469) = (   0.0627870  -0.7252220   0.0000000), wk =   0.0011898
        k( 1470) = (   0.0627870  -0.7232220   0.0000000), wk =   0.0011898
        k( 1471) = (   0.0627870  -0.7212220   0.0000000), wk =   0.0011898
        k( 1472) = (   0.0627870  -0.7192220   0.0000000), wk =   0.0011898
        k( 1473) = (   0.0627870  -0.7172220   0.0000000), wk =   0.0011898
        k( 1474) = (   0.0627870  -0.7152220   0.0000000), wk =   0.0011898
        k( 1475) = (   0.0627870  -0.7132220   0.0000000), wk =   0.0011898
        k( 1476) = (   0.0627870  -0.7112220   0.0000000), wk =   0.0011898
        k( 1477) = (   0.0647870  -0.7912220   0.0000000), wk =   0.0011898
        k( 1478) = (   0.0647870  -0.7892220   0.0000000), wk =   0.0011898
        k( 1479) = (   0.0647870  -0.7872220   0.0000000), wk =   0.0011898
        k( 1480) = (   0.0647870  -0.7852220   0.0000000), wk =   0.0011898
        k( 1481) = (   0.0647870  -0.7832220   0.0000000), wk =   0.0011898
        k( 1482) = (   0.0647870  -0.7812220   0.0000000), wk =   0.0011898
        k( 1483) = (   0.0647870  -0.7792220   0.0000000), wk =   0.0011898
        k( 1484) = (   0.0647870  -0.7772220   0.0000000), wk =   0.0011898
        k( 1485) = (   0.0647870  -0.7752220   0.0000000), wk =   0.0011898
        k( 1486) = (   0.0647870  -0.7732220   0.0000000), wk =   0.0011898
        k( 1487) = (   0.0647870  -0.7712220   0.0000000), wk =   0.0011898
        k( 1488) = (   0.0647870  -0.7692220   0.0000000), wk =   0.0011898
        k( 1489) = (   0.0647870  -0.7672220   0.0000000), wk =   0.0011898
        k( 1490) = (   0.0647870  -0.7652220   0.0000000), wk =   0.0011898
        k( 1491) = (   0.0647870  -0.7632220   0.0000000), wk =   0.0011898
        k( 1492) = (   0.0647870  -0.7612220   0.0000000), wk =   0.0011898
        k( 1493) = (   0.0647870  -0.7592220   0.0000000), wk =   0.0011898
        k( 1494) = (   0.0647870  -0.7572220   0.0000000), wk =   0.0011898
        k( 1495) = (   0.0647870  -0.7552220   0.0000000), wk =   0.0011898
        k( 1496) = (   0.0647870  -0.7532220   0.0000000), wk =   0.0011898
        k( 1497) = (   0.0647870  -0.7512220   0.0000000), wk =   0.0011898
        k( 1498) = (   0.0647870  -0.7492220   0.0000000), wk =   0.0011898
        k( 1499) = (   0.0647870  -0.7472220   0.0000000), wk =   0.0011898
        k( 1500) = (   0.0647870  -0.7452220   0.0000000), wk =   0.0011898
        k( 1501) = (   0.0647870  -0.7432220   0.0000000), wk =   0.0011898
        k( 1502) = (   0.0647870  -0.7412220   0.0000000), wk =   0.0011898
        k( 1503) = (   0.0647870  -0.7392220   0.0000000), wk =   0.0011898
        k( 1504) = (   0.0647870  -0.7372220   0.0000000), wk =   0.0011898
        k( 1505) = (   0.0647870  -0.7352220   0.0000000), wk =   0.0011898
        k( 1506) = (   0.0647870  -0.7332220   0.0000000), wk =   0.0011898
        k( 1507) = (   0.0647870  -0.7312220   0.0000000), wk =   0.0011898
        k( 1508) = (   0.0647870  -0.7292220   0.0000000), wk =   0.0011898
        k( 1509) = (   0.0647870  -0.7272220   0.0000000), wk =   0.0011898
        k( 1510) = (   0.0647870  -0.7252220   0.0000000), wk =   0.0011898
        k( 1511) = (   0.0647870  -0.7232220   0.0000000), wk =   0.0011898
        k( 1512) = (   0.0647870  -0.7212220   0.0000000), wk =   0.0011898
        k( 1513) = (   0.0647870  -0.7192220   0.0000000), wk =   0.0011898
        k( 1514) = (   0.0647870  -0.7172220   0.0000000), wk =   0.0011898
        k( 1515) = (   0.0647870  -0.7152220   0.0000000), wk =   0.0011898
        k( 1516) = (   0.0647870  -0.7132220   0.0000000), wk =   0.0011898
        k( 1517) = (   0.0647870  -0.7112220   0.0000000), wk =   0.0011898
        k( 1518) = (   0.0667870  -0.7912220   0.0000000), wk =   0.0011898
        k( 1519) = (   0.0667870  -0.7892220   0.0000000), wk =   0.0011898
        k( 1520) = (   0.0667870  -0.7872220   0.0000000), wk =   0.0011898
        k( 1521) = (   0.0667870  -0.7852220   0.0000000), wk =   0.0011898
        k( 1522) = (   0.0667870  -0.7832220   0.0000000), wk =   0.0011898
        k( 1523) = (   0.0667870  -0.7812220   0.0000000), wk =   0.0011898
        k( 1524) = (   0.0667870  -0.7792220   0.0000000), wk =   0.0011898
        k( 1525) = (   0.0667870  -0.7772220   0.0000000), wk =   0.0011898
        k( 1526) = (   0.0667870  -0.7752220   0.0000000), wk =   0.0011898
        k( 1527) = (   0.0667870  -0.7732220   0.0000000), wk =   0.0011898
        k( 1528) = (   0.0667870  -0.7712220   0.0000000), wk =   0.0011898
        k( 1529) = (   0.0667870  -0.7692220   0.0000000), wk =   0.0011898
        k( 1530) = (   0.0667870  -0.7672220   0.0000000), wk =   0.0011898
        k( 1531) = (   0.0667870  -0.7652220   0.0000000), wk =   0.0011898
        k( 1532) = (   0.0667870  -0.7632220   0.0000000), wk =   0.0011898
        k( 1533) = (   0.0667870  -0.7612220   0.0000000), wk =   0.0011898
        k( 1534) = (   0.0667870  -0.7592220   0.0000000), wk =   0.0011898
        k( 1535) = (   0.0667870  -0.7572220   0.0000000), wk =   0.0011898
        k( 1536) = (   0.0667870  -0.7552220   0.0000000), wk =   0.0011898
        k( 1537) = (   0.0667870  -0.7532220   0.0000000), wk =   0.0011898
        k( 1538) = (   0.0667870  -0.7512220   0.0000000), wk =   0.0011898
        k( 1539) = (   0.0667870  -0.7492220   0.0000000), wk =   0.0011898
        k( 1540) = (   0.0667870  -0.7472220   0.0000000), wk =   0.0011898
        k( 1541) = (   0.0667870  -0.7452220   0.0000000), wk =   0.0011898
        k( 1542) = (   0.0667870  -0.7432220   0.0000000), wk =   0.0011898
        k( 1543) = (   0.0667870  -0.7412220   0.0000000), wk =   0.0011898
        k( 1544) = (   0.0667870  -0.7392220   0.0000000), wk =   0.0011898
        k( 1545) = (   0.0667870  -0.7372220   0.0000000), wk =   0.0011898
        k( 1546) = (   0.0667870  -0.7352220   0.0000000), wk =   0.0011898
        k( 1547) = (   0.0667870  -0.7332220   0.0000000), wk =   0.0011898
        k( 1548) = (   0.0667870  -0.7312220   0.0000000), wk =   0.0011898
        k( 1549) = (   0.0667870  -0.7292220   0.0000000), wk =   0.0011898
        k( 1550) = (   0.0667870  -0.7272220   0.0000000), wk =   0.0011898
        k( 1551) = (   0.0667870  -0.7252220   0.0000000), wk =   0.0011898
        k( 1552) = (   0.0667870  -0.7232220   0.0000000), wk =   0.0011898
        k( 1553) = (   0.0667870  -0.7212220   0.0000000), wk =   0.0011898
        k( 1554) = (   0.0667870  -0.7192220   0.0000000), wk =   0.0011898
        k( 1555) = (   0.0667870  -0.7172220   0.0000000), wk =   0.0011898
        k( 1556) = (   0.0667870  -0.7152220   0.0000000), wk =   0.0011898
        k( 1557) = (   0.0667870  -0.7132220   0.0000000), wk =   0.0011898
        k( 1558) = (   0.0667870  -0.7112220   0.0000000), wk =   0.0011898
        k( 1559) = (   0.0687870  -0.7912220   0.0000000), wk =   0.0011898
        k( 1560) = (   0.0687870  -0.7892220   0.0000000), wk =   0.0011898
        k( 1561) = (   0.0687870  -0.7872220   0.0000000), wk =   0.0011898
        k( 1562) = (   0.0687870  -0.7852220   0.0000000), wk =   0.0011898
        k( 1563) = (   0.0687870  -0.7832220   0.0000000), wk =   0.0011898
        k( 1564) = (   0.0687870  -0.7812220   0.0000000), wk =   0.0011898
        k( 1565) = (   0.0687870  -0.7792220   0.0000000), wk =   0.0011898
        k( 1566) = (   0.0687870  -0.7772220   0.0000000), wk =   0.0011898
        k( 1567) = (   0.0687870  -0.7752220   0.0000000), wk =   0.0011898
        k( 1568) = (   0.0687870  -0.7732220   0.0000000), wk =   0.0011898
        k( 1569) = (   0.0687870  -0.7712220   0.0000000), wk =   0.0011898
        k( 1570) = (   0.0687870  -0.7692220   0.0000000), wk =   0.0011898
        k( 1571) = (   0.0687870  -0.7672220   0.0000000), wk =   0.0011898
        k( 1572) = (   0.0687870  -0.7652220   0.0000000), wk =   0.0011898
        k( 1573) = (   0.0687870  -0.7632220   0.0000000), wk =   0.0011898
        k( 1574) = (   0.0687870  -0.7612220   0.0000000), wk =   0.0011898
        k( 1575) = (   0.0687870  -0.7592220   0.0000000), wk =   0.0011898
        k( 1576) = (   0.0687870  -0.7572220   0.0000000), wk =   0.0011898
        k( 1577) = (   0.0687870  -0.7552220   0.0000000), wk =   0.0011898
        k( 1578) = (   0.0687870  -0.7532220   0.0000000), wk =   0.0011898
        k( 1579) = (   0.0687870  -0.7512220   0.0000000), wk =   0.0011898
        k( 1580) = (   0.0687870  -0.7492220   0.0000000), wk =   0.0011898
        k( 1581) = (   0.0687870  -0.7472220   0.0000000), wk =   0.0011898
        k( 1582) = (   0.0687870  -0.7452220   0.0000000), wk =   0.0011898
        k( 1583) = (   0.0687870  -0.7432220   0.0000000), wk =   0.0011898
        k( 1584) = (   0.0687870  -0.7412220   0.0000000), wk =   0.0011898
        k( 1585) = (   0.0687870  -0.7392220   0.0000000), wk =   0.0011898
        k( 1586) = (   0.0687870  -0.7372220   0.0000000), wk =   0.0011898
        k( 1587) = (   0.0687870  -0.7352220   0.0000000), wk =   0.0011898
        k( 1588) = (   0.0687870  -0.7332220   0.0000000), wk =   0.0011898
        k( 1589) = (   0.0687870  -0.7312220   0.0000000), wk =   0.0011898
        k( 1590) = (   0.0687870  -0.7292220   0.0000000), wk =   0.0011898
        k( 1591) = (   0.0687870  -0.7272220   0.0000000), wk =   0.0011898
        k( 1592) = (   0.0687870  -0.7252220   0.0000000), wk =   0.0011898
        k( 1593) = (   0.0687870  -0.7232220   0.0000000), wk =   0.0011898
        k( 1594) = (   0.0687870  -0.7212220   0.0000000), wk =   0.0011898
        k( 1595) = (   0.0687870  -0.7192220   0.0000000), wk =   0.0011898
        k( 1596) = (   0.0687870  -0.7172220   0.0000000), wk =   0.0011898
        k( 1597) = (   0.0687870  -0.7152220   0.0000000), wk =   0.0011898
        k( 1598) = (   0.0687870  -0.7132220   0.0000000), wk =   0.0011898
        k( 1599) = (   0.0687870  -0.7112220   0.0000000), wk =   0.0011898
        k( 1600) = (   0.0707870  -0.7912220   0.0000000), wk =   0.0011898
        k( 1601) = (   0.0707870  -0.7892220   0.0000000), wk =   0.0011898
        k( 1602) = (   0.0707870  -0.7872220   0.0000000), wk =   0.0011898
        k( 1603) = (   0.0707870  -0.7852220   0.0000000), wk =   0.0011898
        k( 1604) = (   0.0707870  -0.7832220   0.0000000), wk =   0.0011898
        k( 1605) = (   0.0707870  -0.7812220   0.0000000), wk =   0.0011898
        k( 1606) = (   0.0707870  -0.7792220   0.0000000), wk =   0.0011898
        k( 1607) = (   0.0707870  -0.7772220   0.0000000), wk =   0.0011898
        k( 1608) = (   0.0707870  -0.7752220   0.0000000), wk =   0.0011898
        k( 1609) = (   0.0707870  -0.7732220   0.0000000), wk =   0.0011898
        k( 1610) = (   0.0707870  -0.7712220   0.0000000), wk =   0.0011898
        k( 1611) = (   0.0707870  -0.7692220   0.0000000), wk =   0.0011898
        k( 1612) = (   0.0707870  -0.7672220   0.0000000), wk =   0.0011898
        k( 1613) = (   0.0707870  -0.7652220   0.0000000), wk =   0.0011898
        k( 1614) = (   0.0707870  -0.7632220   0.0000000), wk =   0.0011898
        k( 1615) = (   0.0707870  -0.7612220   0.0000000), wk =   0.0011898
        k( 1616) = (   0.0707870  -0.7592220   0.0000000), wk =   0.0011898
        k( 1617) = (   0.0707870  -0.7572220   0.0000000), wk =   0.0011898
        k( 1618) = (   0.0707870  -0.7552220   0.0000000), wk =   0.0011898
        k( 1619) = (   0.0707870  -0.7532220   0.0000000), wk =   0.0011898
        k( 1620) = (   0.0707870  -0.7512220   0.0000000), wk =   0.0011898
        k( 1621) = (   0.0707870  -0.7492220   0.0000000), wk =   0.0011898
        k( 1622) = (   0.0707870  -0.7472220   0.0000000), wk =   0.0011898
        k( 1623) = (   0.0707870  -0.7452220   0.0000000), wk =   0.0011898
        k( 1624) = (   0.0707870  -0.7432220   0.0000000), wk =   0.0011898
        k( 1625) = (   0.0707870  -0.7412220   0.0000000), wk =   0.0011898
        k( 1626) = (   0.0707870  -0.7392220   0.0000000), wk =   0.0011898
        k( 1627) = (   0.0707870  -0.7372220   0.0000000), wk =   0.0011898
        k( 1628) = (   0.0707870  -0.7352220   0.0000000), wk =   0.0011898
        k( 1629) = (   0.0707870  -0.7332220   0.0000000), wk =   0.0011898
        k( 1630) = (   0.0707870  -0.7312220   0.0000000), wk =   0.0011898
        k( 1631) = (   0.0707870  -0.7292220   0.0000000), wk =   0.0011898
        k( 1632) = (   0.0707870  -0.7272220   0.0000000), wk =   0.0011898
        k( 1633) = (   0.0707870  -0.7252220   0.0000000), wk =   0.0011898
        k( 1634) = (   0.0707870  -0.7232220   0.0000000), wk =   0.0011898
        k( 1635) = (   0.0707870  -0.7212220   0.0000000), wk =   0.0011898
        k( 1636) = (   0.0707870  -0.7192220   0.0000000), wk =   0.0011898
        k( 1637) = (   0.0707870  -0.7172220   0.0000000), wk =   0.0011898
        k( 1638) = (   0.0707870  -0.7152220   0.0000000), wk =   0.0011898
        k( 1639) = (   0.0707870  -0.7132220   0.0000000), wk =   0.0011898
        k( 1640) = (   0.0707870  -0.7112220   0.0000000), wk =   0.0011898
        k( 1641) = (   0.0727870  -0.7912220   0.0000000), wk =   0.0011898
        k( 1642) = (   0.0727870  -0.7892220   0.0000000), wk =   0.0011898
        k( 1643) = (   0.0727870  -0.7872220   0.0000000), wk =   0.0011898
        k( 1644) = (   0.0727870  -0.7852220   0.0000000), wk =   0.0011898
        k( 1645) = (   0.0727870  -0.7832220   0.0000000), wk =   0.0011898
        k( 1646) = (   0.0727870  -0.7812220   0.0000000), wk =   0.0011898
        k( 1647) = (   0.0727870  -0.7792220   0.0000000), wk =   0.0011898
        k( 1648) = (   0.0727870  -0.7772220   0.0000000), wk =   0.0011898
        k( 1649) = (   0.0727870  -0.7752220   0.0000000), wk =   0.0011898
        k( 1650) = (   0.0727870  -0.7732220   0.0000000), wk =   0.0011898
        k( 1651) = (   0.0727870  -0.7712220   0.0000000), wk =   0.0011898
        k( 1652) = (   0.0727870  -0.7692220   0.0000000), wk =   0.0011898
        k( 1653) = (   0.0727870  -0.7672220   0.0000000), wk =   0.0011898
        k( 1654) = (   0.0727870  -0.7652220   0.0000000), wk =   0.0011898
        k( 1655) = (   0.0727870  -0.7632220   0.0000000), wk =   0.0011898
        k( 1656) = (   0.0727870  -0.7612220   0.0000000), wk =   0.0011898
        k( 1657) = (   0.0727870  -0.7592220   0.0000000), wk =   0.0011898
        k( 1658) = (   0.0727870  -0.7572220   0.0000000), wk =   0.0011898
        k( 1659) = (   0.0727870  -0.7552220   0.0000000), wk =   0.0011898
        k( 1660) = (   0.0727870  -0.7532220   0.0000000), wk =   0.0011898
        k( 1661) = (   0.0727870  -0.7512220   0.0000000), wk =   0.0011898
        k( 1662) = (   0.0727870  -0.7492220   0.0000000), wk =   0.0011898
        k( 1663) = (   0.0727870  -0.7472220   0.0000000), wk =   0.0011898
        k( 1664) = (   0.0727870  -0.7452220   0.0000000), wk =   0.0011898
        k( 1665) = (   0.0727870  -0.7432220   0.0000000), wk =   0.0011898
        k( 1666) = (   0.0727870  -0.7412220   0.0000000), wk =   0.0011898
        k( 1667) = (   0.0727870  -0.7392220   0.0000000), wk =   0.0011898
        k( 1668) = (   0.0727870  -0.7372220   0.0000000), wk =   0.0011898
        k( 1669) = (   0.0727870  -0.7352220   0.0000000), wk =   0.0011898
        k( 1670) = (   0.0727870  -0.7332220   0.0000000), wk =   0.0011898
        k( 1671) = (   0.0727870  -0.7312220   0.0000000), wk =   0.0011898
        k( 1672) = (   0.0727870  -0.7292220   0.0000000), wk =   0.0011898
        k( 1673) = (   0.0727870  -0.7272220   0.0000000), wk =   0.0011898
        k( 1674) = (   0.0727870  -0.7252220   0.0000000), wk =   0.0011898
        k( 1675) = (   0.0727870  -0.7232220   0.0000000), wk =   0.0011898
        k( 1676) = (   0.0727870  -0.7212220   0.0000000), wk =   0.0011898
        k( 1677) = (   0.0727870  -0.7192220   0.0000000), wk =   0.0011898
        k( 1678) = (   0.0727870  -0.7172220   0.0000000), wk =   0.0011898
        k( 1679) = (   0.0727870  -0.7152220   0.0000000), wk =   0.0011898
        k( 1680) = (   0.0727870  -0.7132220   0.0000000), wk =   0.0011898
        k( 1681) = (   0.0727870  -0.7112220   0.0000000), wk =   0.0011898

                       cryst. coord.
        k(    1) = (  -0.0072130  -0.5215964   0.0000000), wk =   0.0011898
        k(    2) = (  -0.0072130  -0.5202871   0.0000000), wk =   0.0011898
        k(    3) = (  -0.0072130  -0.5189778   0.0000000), wk =   0.0011898
        k(    4) = (  -0.0072130  -0.5176684   0.0000000), wk =   0.0011898
        k(    5) = (  -0.0072130  -0.5163591   0.0000000), wk =   0.0011898
        k(    6) = (  -0.0072130  -0.5150497   0.0000000), wk =   0.0011898
        k(    7) = (  -0.0072130  -0.5137404   0.0000000), wk =   0.0011898
        k(    8) = (  -0.0072130  -0.5124310   0.0000000), wk =   0.0011898
        k(    9) = (  -0.0072130  -0.5111217   0.0000000), wk =   0.0011898
        k(   10) = (  -0.0072130  -0.5098124   0.0000000), wk =   0.0011898
        k(   11) = (  -0.0072130  -0.5085030   0.0000000), wk =   0.0011898
        k(   12) = (  -0.0072130  -0.5071937   0.0000000), wk =   0.0011898
        k(   13) = (  -0.0072130  -0.5058843   0.0000000), wk =   0.0011898
        k(   14) = (  -0.0072130  -0.5045750   0.0000000), wk =   0.0011898
        k(   15) = (  -0.0072130  -0.5032657   0.0000000), wk =   0.0011898
        k(   16) = (  -0.0072130  -0.5019563   0.0000000), wk =   0.0011898
        k(   17) = (  -0.0072130  -0.5006470   0.0000000), wk =   0.0011898
        k(   18) = (  -0.0072130  -0.4993376   0.0000000), wk =   0.0011898
        k(   19) = (  -0.0072130  -0.4980283   0.0000000), wk =   0.0011898
        k(   20) = (  -0.0072130  -0.4967189   0.0000000), wk =   0.0011898
        k(   21) = (  -0.0072130  -0.4954096   0.0000000), wk =   0.0011898
        k(   22) = (  -0.0072130  -0.4941003   0.0000000), wk =   0.0011898
        k(   23) = (  -0.0072130  -0.4927909   0.0000000), wk =   0.0011898
        k(   24) = (  -0.0072130  -0.4914816   0.0000000), wk =   0.0011898
        k(   25) = (  -0.0072130  -0.4901722   0.0000000), wk =   0.0011898
        k(   26) = (  -0.0072130  -0.4888629   0.0000000), wk =   0.0011898
        k(   27) = (  -0.0072130  -0.4875536   0.0000000), wk =   0.0011898
        k(   28) = (  -0.0072130  -0.4862442   0.0000000), wk =   0.0011898
        k(   29) = (  -0.0072130  -0.4849349   0.0000000), wk =   0.0011898
        k(   30) = (  -0.0072130  -0.4836255   0.0000000), wk =   0.0011898
        k(   31) = (  -0.0072130  -0.4823162   0.0000000), wk =   0.0011898
        k(   32) = (  -0.0072130  -0.4810069   0.0000000), wk =   0.0011898
        k(   33) = (  -0.0072130  -0.4796975   0.0000000), wk =   0.0011898
        k(   34) = (  -0.0072130  -0.4783882   0.0000000), wk =   0.0011898
        k(   35) = (  -0.0072130  -0.4770788   0.0000000), wk =   0.0011898
        k(   36) = (  -0.0072130  -0.4757695   0.0000000), wk =   0.0011898
        k(   37) = (  -0.0072130  -0.4744601   0.0000000), wk =   0.0011898
        k(   38) = (  -0.0072130  -0.4731508   0.0000000), wk =   0.0011898
        k(   39) = (  -0.0072130  -0.4718415   0.0000000), wk =   0.0011898
        k(   40) = (  -0.0072130  -0.4705321   0.0000000), wk =   0.0011898
        k(   41) = (  -0.0072130  -0.4692228   0.0000000), wk =   0.0011898
        k(   42) = (  -0.0052130  -0.5205964   0.0000000), wk =   0.0011898
        k(   43) = (  -0.0052130  -0.5192871   0.0000000), wk =   0.0011898
        k(   44) = (  -0.0052130  -0.5179778   0.0000000), wk =   0.0011898
        k(   45) = (  -0.0052130  -0.5166684   0.0000000), wk =   0.0011898
        k(   46) = (  -0.0052130  -0.5153591   0.0000000), wk =   0.0011898
        k(   47) = (  -0.0052130  -0.5140497   0.0000000), wk =   0.0011898
        k(   48) = (  -0.0052130  -0.5127404   0.0000000), wk =   0.0011898
        k(   49) = (  -0.0052130  -0.5114310   0.0000000), wk =   0.0011898
        k(   50) = (  -0.0052130  -0.5101217   0.0000000), wk =   0.0011898
        k(   51) = (  -0.0052130  -0.5088124   0.0000000), wk =   0.0011898
        k(   52) = (  -0.0052130  -0.5075030   0.0000000), wk =   0.0011898
        k(   53) = (  -0.0052130  -0.5061937   0.0000000), wk =   0.0011898
        k(   54) = (  -0.0052130  -0.5048843   0.0000000), wk =   0.0011898
        k(   55) = (  -0.0052130  -0.5035750   0.0000000), wk =   0.0011898
        k(   56) = (  -0.0052130  -0.5022657   0.0000000), wk =   0.0011898
        k(   57) = (  -0.0052130  -0.5009563   0.0000000), wk =   0.0011898
        k(   58) = (  -0.0052130  -0.4996470   0.0000000), wk =   0.0011898
        k(   59) = (  -0.0052130  -0.4983376   0.0000000), wk =   0.0011898
        k(   60) = (  -0.0052130  -0.4970283   0.0000000), wk =   0.0011898
        k(   61) = (  -0.0052130  -0.4957189   0.0000000), wk =   0.0011898
        k(   62) = (  -0.0052130  -0.4944096   0.0000000), wk =   0.0011898
        k(   63) = (  -0.0052130  -0.4931003   0.0000000), wk =   0.0011898
        k(   64) = (  -0.0052130  -0.4917909   0.0000000), wk =   0.0011898
        k(   65) = (  -0.0052130  -0.4904816   0.0000000), wk =   0.0011898
        k(   66) = (  -0.0052130  -0.4891722   0.0000000), wk =   0.0011898
        k(   67) = (  -0.0052130  -0.4878629   0.0000000), wk =   0.0011898
        k(   68) = (  -0.0052130  -0.4865536   0.0000000), wk =   0.0011898
        k(   69) = (  -0.0052130  -0.4852442   0.0000000), wk =   0.0011898
        k(   70) = (  -0.0052130  -0.4839349   0.0000000), wk =   0.0011898
        k(   71) = (  -0.0052130  -0.4826255   0.0000000), wk =   0.0011898
        k(   72) = (  -0.0052130  -0.4813162   0.0000000), wk =   0.0011898
        k(   73) = (  -0.0052130  -0.4800068   0.0000000), wk =   0.0011898
        k(   74) = (  -0.0052130  -0.4786975   0.0000000), wk =   0.0011898
        k(   75) = (  -0.0052130  -0.4773882   0.0000000), wk =   0.0011898
        k(   76) = (  -0.0052130  -0.4760788   0.0000000), wk =   0.0011898
        k(   77) = (  -0.0052130  -0.4747695   0.0000000), wk =   0.0011898
        k(   78) = (  -0.0052130  -0.4734601   0.0000000), wk =   0.0011898
        k(   79) = (  -0.0052130  -0.4721508   0.0000000), wk =   0.0011898
        k(   80) = (  -0.0052130  -0.4708415   0.0000000), wk =   0.0011898
        k(   81) = (  -0.0052130  -0.4695321   0.0000000), wk =   0.0011898
        k(   82) = (  -0.0052130  -0.4682228   0.0000000), wk =   0.0011898
        k(   83) = (  -0.0032130  -0.5195964   0.0000000), wk =   0.0011898
        k(   84) = (  -0.0032130  -0.5182871   0.0000000), wk =   0.0011898
        k(   85) = (  -0.0032130  -0.5169778   0.0000000), wk =   0.0011898
        k(   86) = (  -0.0032130  -0.5156684   0.0000000), wk =   0.0011898
        k(   87) = (  -0.0032130  -0.5143591   0.0000000), wk =   0.0011898
        k(   88) = (  -0.0032130  -0.5130497   0.0000000), wk =   0.0011898
        k(   89) = (  -0.0032130  -0.5117404   0.0000000), wk =   0.0011898
        k(   90) = (  -0.0032130  -0.5104310   0.0000000), wk =   0.0011898
        k(   91) = (  -0.0032130  -0.5091217   0.0000000), wk =   0.0011898
        k(   92) = (  -0.0032130  -0.5078124   0.0000000), wk =   0.0011898
        k(   93) = (  -0.0032130  -0.5065030   0.0000000), wk =   0.0011898
        k(   94) = (  -0.0032130  -0.5051937   0.0000000), wk =   0.0011898
        k(   95) = (  -0.0032130  -0.5038843   0.0000000), wk =   0.0011898
        k(   96) = (  -0.0032130  -0.5025750   0.0000000), wk =   0.0011898
        k(   97) = (  -0.0032130  -0.5012657   0.0000000), wk =   0.0011898
        k(   98) = (  -0.0032130  -0.4999563   0.0000000), wk =   0.0011898
        k(   99) = (  -0.0032130  -0.4986470   0.0000000), wk =   0.0011898
        k(  100) = (  -0.0032130  -0.4973376   0.0000000), wk =   0.0011898
        k(  101) = (  -0.0032130  -0.4960283   0.0000000), wk =   0.0011898
        k(  102) = (  -0.0032130  -0.4947189   0.0000000), wk =   0.0011898
        k(  103) = (  -0.0032130  -0.4934096   0.0000000), wk =   0.0011898
        k(  104) = (  -0.0032130  -0.4921003   0.0000000), wk =   0.0011898
        k(  105) = (  -0.0032130  -0.4907909   0.0000000), wk =   0.0011898
        k(  106) = (  -0.0032130  -0.4894816   0.0000000), wk =   0.0011898
        k(  107) = (  -0.0032130  -0.4881722   0.0000000), wk =   0.0011898
        k(  108) = (  -0.0032130  -0.4868629   0.0000000), wk =   0.0011898
        k(  109) = (  -0.0032130  -0.4855536   0.0000000), wk =   0.0011898
        k(  110) = (  -0.0032130  -0.4842442   0.0000000), wk =   0.0011898
        k(  111) = (  -0.0032130  -0.4829349   0.0000000), wk =   0.0011898
        k(  112) = (  -0.0032130  -0.4816255   0.0000000), wk =   0.0011898
        k(  113) = (  -0.0032130  -0.4803162   0.0000000), wk =   0.0011898
        k(  114) = (  -0.0032130  -0.4790068   0.0000000), wk =   0.0011898
        k(  115) = (  -0.0032130  -0.4776975   0.0000000), wk =   0.0011898
        k(  116) = (  -0.0032130  -0.4763882   0.0000000), wk =   0.0011898
        k(  117) = (  -0.0032130  -0.4750788   0.0000000), wk =   0.0011898
        k(  118) = (  -0.0032130  -0.4737695   0.0000000), wk =   0.0011898
        k(  119) = (  -0.0032130  -0.4724601   0.0000000), wk =   0.0011898
        k(  120) = (  -0.0032130  -0.4711508   0.0000000), wk =   0.0011898
        k(  121) = (  -0.0032130  -0.4698415   0.0000000), wk =   0.0011898
        k(  122) = (  -0.0032130  -0.4685321   0.0000000), wk =   0.0011898
        k(  123) = (  -0.0032130  -0.4672228   0.0000000), wk =   0.0011898
        k(  124) = (  -0.0012130  -0.5185964   0.0000000), wk =   0.0011898
        k(  125) = (  -0.0012130  -0.5172871   0.0000000), wk =   0.0011898
        k(  126) = (  -0.0012130  -0.5159778   0.0000000), wk =   0.0011898
        k(  127) = (  -0.0012130  -0.5146684   0.0000000), wk =   0.0011898
        k(  128) = (  -0.0012130  -0.5133591   0.0000000), wk =   0.0011898
        k(  129) = (  -0.0012130  -0.5120497   0.0000000), wk =   0.0011898
        k(  130) = (  -0.0012130  -0.5107404   0.0000000), wk =   0.0011898
        k(  131) = (  -0.0012130  -0.5094310   0.0000000), wk =   0.0011898
        k(  132) = (  -0.0012130  -0.5081217   0.0000000), wk =   0.0011898
        k(  133) = (  -0.0012130  -0.5068124   0.0000000), wk =   0.0011898
        k(  134) = (  -0.0012130  -0.5055030   0.0000000), wk =   0.0011898
        k(  135) = (  -0.0012130  -0.5041937   0.0000000), wk =   0.0011898
        k(  136) = (  -0.0012130  -0.5028843   0.0000000), wk =   0.0011898
        k(  137) = (  -0.0012130  -0.5015750   0.0000000), wk =   0.0011898
        k(  138) = (  -0.0012130  -0.5002657   0.0000000), wk =   0.0011898
        k(  139) = (  -0.0012130  -0.4989563   0.0000000), wk =   0.0011898
        k(  140) = (  -0.0012130  -0.4976470   0.0000000), wk =   0.0011898
        k(  141) = (  -0.0012130  -0.4963376   0.0000000), wk =   0.0011898
        k(  142) = (  -0.0012130  -0.4950283   0.0000000), wk =   0.0011898
        k(  143) = (  -0.0012130  -0.4937189   0.0000000), wk =   0.0011898
        k(  144) = (  -0.0012130  -0.4924096   0.0000000), wk =   0.0011898
        k(  145) = (  -0.0012130  -0.4911003   0.0000000), wk =   0.0011898
        k(  146) = (  -0.0012130  -0.4897909   0.0000000), wk =   0.0011898
        k(  147) = (  -0.0012130  -0.4884816   0.0000000), wk =   0.0011898
        k(  148) = (  -0.0012130  -0.4871722   0.0000000), wk =   0.0011898
        k(  149) = (  -0.0012130  -0.4858629   0.0000000), wk =   0.0011898
        k(  150) = (  -0.0012130  -0.4845536   0.0000000), wk =   0.0011898
        k(  151) = (  -0.0012130  -0.4832442   0.0000000), wk =   0.0011898
        k(  152) = (  -0.0012130  -0.4819349   0.0000000), wk =   0.0011898
        k(  153) = (  -0.0012130  -0.4806255   0.0000000), wk =   0.0011898
        k(  154) = (  -0.0012130  -0.4793162   0.0000000), wk =   0.0011898
        k(  155) = (  -0.0012130  -0.4780068   0.0000000), wk =   0.0011898
        k(  156) = (  -0.0012130  -0.4766975   0.0000000), wk =   0.0011898
        k(  157) = (  -0.0012130  -0.4753882   0.0000000), wk =   0.0011898
        k(  158) = (  -0.0012130  -0.4740788   0.0000000), wk =   0.0011898
        k(  159) = (  -0.0012130  -0.4727695   0.0000000), wk =   0.0011898
        k(  160) = (  -0.0012130  -0.4714601   0.0000000), wk =   0.0011898
        k(  161) = (  -0.0012130  -0.4701508   0.0000000), wk =   0.0011898
        k(  162) = (  -0.0012130  -0.4688415   0.0000000), wk =   0.0011898
        k(  163) = (  -0.0012130  -0.4675321   0.0000000), wk =   0.0011898
        k(  164) = (  -0.0012130  -0.4662228   0.0000000), wk =   0.0011898
        k(  165) = (   0.0007870  -0.5175964   0.0000000), wk =   0.0011898
        k(  166) = (   0.0007870  -0.5162871   0.0000000), wk =   0.0011898
        k(  167) = (   0.0007870  -0.5149778   0.0000000), wk =   0.0011898
        k(  168) = (   0.0007870  -0.5136684   0.0000000), wk =   0.0011898
        k(  169) = (   0.0007870  -0.5123591   0.0000000), wk =   0.0011898
        k(  170) = (   0.0007870  -0.5110497   0.0000000), wk =   0.0011898
        k(  171) = (   0.0007870  -0.5097404   0.0000000), wk =   0.0011898
        k(  172) = (   0.0007870  -0.5084310   0.0000000), wk =   0.0011898
        k(  173) = (   0.0007870  -0.5071217   0.0000000), wk =   0.0011898
        k(  174) = (   0.0007870  -0.5058124   0.0000000), wk =   0.0011898
        k(  175) = (   0.0007870  -0.5045030   0.0000000), wk =   0.0011898
        k(  176) = (   0.0007870  -0.5031937   0.0000000), wk =   0.0011898
        k(  177) = (   0.0007870  -0.5018843   0.0000000), wk =   0.0011898
        k(  178) = (   0.0007870  -0.5005750   0.0000000), wk =   0.0011898
        k(  179) = (   0.0007870  -0.4992657   0.0000000), wk =   0.0011898
        k(  180) = (   0.0007870  -0.4979563   0.0000000), wk =   0.0011898
        k(  181) = (   0.0007870  -0.4966470   0.0000000), wk =   0.0011898
        k(  182) = (   0.0007870  -0.4953376   0.0000000), wk =   0.0011898
        k(  183) = (   0.0007870  -0.4940283   0.0000000), wk =   0.0011898
        k(  184) = (   0.0007870  -0.4927189   0.0000000), wk =   0.0011898
        k(  185) = (   0.0007870  -0.4914096   0.0000000), wk =   0.0011898
        k(  186) = (   0.0007870  -0.4901003   0.0000000), wk =   0.0011898
        k(  187) = (   0.0007870  -0.4887909   0.0000000), wk =   0.0011898
        k(  188) = (   0.0007870  -0.4874816   0.0000000), wk =   0.0011898
        k(  189) = (   0.0007870  -0.4861722   0.0000000), wk =   0.0011898
        k(  190) = (   0.0007870  -0.4848629   0.0000000), wk =   0.0011898
        k(  191) = (   0.0007870  -0.4835536   0.0000000), wk =   0.0011898
        k(  192) = (   0.0007870  -0.4822442   0.0000000), wk =   0.0011898
        k(  193) = (   0.0007870  -0.4809349   0.0000000), wk =   0.0011898
        k(  194) = (   0.0007870  -0.4796255   0.0000000), wk =   0.0011898
        k(  195) = (   0.0007870  -0.4783162   0.0000000), wk =   0.0011898
        k(  196) = (   0.0007870  -0.4770068   0.0000000), wk =   0.0011898
        k(  197) = (   0.0007870  -0.4756975   0.0000000), wk =   0.0011898
        k(  198) = (   0.0007870  -0.4743882   0.0000000), wk =   0.0011898
        k(  199) = (   0.0007870  -0.4730788   0.0000000), wk =   0.0011898
        k(  200) = (   0.0007870  -0.4717695   0.0000000), wk =   0.0011898
        k(  201) = (   0.0007870  -0.4704601   0.0000000), wk =   0.0011898
        k(  202) = (   0.0007870  -0.4691508   0.0000000), wk =   0.0011898
        k(  203) = (   0.0007870  -0.4678415   0.0000000), wk =   0.0011898
        k(  204) = (   0.0007870  -0.4665321   0.0000000), wk =   0.0011898
        k(  205) = (   0.0007870  -0.4652228   0.0000000), wk =   0.0011898
        k(  206) = (   0.0027870  -0.5165964   0.0000000), wk =   0.0011898
        k(  207) = (   0.0027870  -0.5152871   0.0000000), wk =   0.0011898
        k(  208) = (   0.0027870  -0.5139778   0.0000000), wk =   0.0011898
        k(  209) = (   0.0027870  -0.5126684   0.0000000), wk =   0.0011898
        k(  210) = (   0.0027870  -0.5113591   0.0000000), wk =   0.0011898
        k(  211) = (   0.0027870  -0.5100497   0.0000000), wk =   0.0011898
        k(  212) = (   0.0027870  -0.5087404   0.0000000), wk =   0.0011898
        k(  213) = (   0.0027870  -0.5074310   0.0000000), wk =   0.0011898
        k(  214) = (   0.0027870  -0.5061217   0.0000000), wk =   0.0011898
        k(  215) = (   0.0027870  -0.5048124   0.0000000), wk =   0.0011898
        k(  216) = (   0.0027870  -0.5035030   0.0000000), wk =   0.0011898
        k(  217) = (   0.0027870  -0.5021937   0.0000000), wk =   0.0011898
        k(  218) = (   0.0027870  -0.5008843   0.0000000), wk =   0.0011898
        k(  219) = (   0.0027870  -0.4995750   0.0000000), wk =   0.0011898
        k(  220) = (   0.0027870  -0.4982657   0.0000000), wk =   0.0011898
        k(  221) = (   0.0027870  -0.4969563   0.0000000), wk =   0.0011898
        k(  222) = (   0.0027870  -0.4956470   0.0000000), wk =   0.0011898
        k(  223) = (   0.0027870  -0.4943376   0.0000000), wk =   0.0011898
        k(  224) = (   0.0027870  -0.4930283   0.0000000), wk =   0.0011898
        k(  225) = (   0.0027870  -0.4917189   0.0000000), wk =   0.0011898
        k(  226) = (   0.0027870  -0.4904096   0.0000000), wk =   0.0011898
        k(  227) = (   0.0027870  -0.4891003   0.0000000), wk =   0.0011898
        k(  228) = (   0.0027870  -0.4877909   0.0000000), wk =   0.0011898
        k(  229) = (   0.0027870  -0.4864816   0.0000000), wk =   0.0011898
        k(  230) = (   0.0027870  -0.4851722   0.0000000), wk =   0.0011898
        k(  231) = (   0.0027870  -0.4838629   0.0000000), wk =   0.0011898
        k(  232) = (   0.0027870  -0.4825536   0.0000000), wk =   0.0011898
        k(  233) = (   0.0027870  -0.4812442   0.0000000), wk =   0.0011898
        k(  234) = (   0.0027870  -0.4799349   0.0000000), wk =   0.0011898
        k(  235) = (   0.0027870  -0.4786255   0.0000000), wk =   0.0011898
        k(  236) = (   0.0027870  -0.4773162   0.0000000), wk =   0.0011898
        k(  237) = (   0.0027870  -0.4760068   0.0000000), wk =   0.0011898
        k(  238) = (   0.0027870  -0.4746975   0.0000000), wk =   0.0011898
        k(  239) = (   0.0027870  -0.4733882   0.0000000), wk =   0.0011898
        k(  240) = (   0.0027870  -0.4720788   0.0000000), wk =   0.0011898
        k(  241) = (   0.0027870  -0.4707695   0.0000000), wk =   0.0011898
        k(  242) = (   0.0027870  -0.4694601   0.0000000), wk =   0.0011898
        k(  243) = (   0.0027870  -0.4681508   0.0000000), wk =   0.0011898
        k(  244) = (   0.0027870  -0.4668415   0.0000000), wk =   0.0011898
        k(  245) = (   0.0027870  -0.4655321   0.0000000), wk =   0.0011898
        k(  246) = (   0.0027870  -0.4642228   0.0000000), wk =   0.0011898
        k(  247) = (   0.0047870  -0.5155964   0.0000000), wk =   0.0011898
        k(  248) = (   0.0047870  -0.5142871   0.0000000), wk =   0.0011898
        k(  249) = (   0.0047870  -0.5129778   0.0000000), wk =   0.0011898
        k(  250) = (   0.0047870  -0.5116684   0.0000000), wk =   0.0011898
        k(  251) = (   0.0047870  -0.5103591   0.0000000), wk =   0.0011898
        k(  252) = (   0.0047870  -0.5090497   0.0000000), wk =   0.0011898
        k(  253) = (   0.0047870  -0.5077404   0.0000000), wk =   0.0011898
        k(  254) = (   0.0047870  -0.5064310   0.0000000), wk =   0.0011898
        k(  255) = (   0.0047870  -0.5051217   0.0000000), wk =   0.0011898
        k(  256) = (   0.0047870  -0.5038124   0.0000000), wk =   0.0011898
        k(  257) = (   0.0047870  -0.5025030   0.0000000), wk =   0.0011898
        k(  258) = (   0.0047870  -0.5011937   0.0000000), wk =   0.0011898
        k(  259) = (   0.0047870  -0.4998843   0.0000000), wk =   0.0011898
        k(  260) = (   0.0047870  -0.4985750   0.0000000), wk =   0.0011898
        k(  261) = (   0.0047870  -0.4972657   0.0000000), wk =   0.0011898
        k(  262) = (   0.0047870  -0.4959563   0.0000000), wk =   0.0011898
        k(  263) = (   0.0047870  -0.4946470   0.0000000), wk =   0.0011898
        k(  264) = (   0.0047870  -0.4933376   0.0000000), wk =   0.0011898
        k(  265) = (   0.0047870  -0.4920283   0.0000000), wk =   0.0011898
        k(  266) = (   0.0047870  -0.4907189   0.0000000), wk =   0.0011898
        k(  267) = (   0.0047870  -0.4894096   0.0000000), wk =   0.0011898
        k(  268) = (   0.0047870  -0.4881003   0.0000000), wk =   0.0011898
        k(  269) = (   0.0047870  -0.4867909   0.0000000), wk =   0.0011898
        k(  270) = (   0.0047870  -0.4854816   0.0000000), wk =   0.0011898
        k(  271) = (   0.0047870  -0.4841722   0.0000000), wk =   0.0011898
        k(  272) = (   0.0047870  -0.4828629   0.0000000), wk =   0.0011898
        k(  273) = (   0.0047870  -0.4815536   0.0000000), wk =   0.0011898
        k(  274) = (   0.0047870  -0.4802442   0.0000000), wk =   0.0011898
        k(  275) = (   0.0047870  -0.4789349   0.0000000), wk =   0.0011898
        k(  276) = (   0.0047870  -0.4776255   0.0000000), wk =   0.0011898
        k(  277) = (   0.0047870  -0.4763162   0.0000000), wk =   0.0011898
        k(  278) = (   0.0047870  -0.4750068   0.0000000), wk =   0.0011898
        k(  279) = (   0.0047870  -0.4736975   0.0000000), wk =   0.0011898
        k(  280) = (   0.0047870  -0.4723882   0.0000000), wk =   0.0011898
        k(  281) = (   0.0047870  -0.4710788   0.0000000), wk =   0.0011898
        k(  282) = (   0.0047870  -0.4697695   0.0000000), wk =   0.0011898
        k(  283) = (   0.0047870  -0.4684601   0.0000000), wk =   0.0011898
        k(  284) = (   0.0047870  -0.4671508   0.0000000), wk =   0.0011898
        k(  285) = (   0.0047870  -0.4658415   0.0000000), wk =   0.0011898
        k(  286) = (   0.0047870  -0.4645321   0.0000000), wk =   0.0011898
        k(  287) = (   0.0047870  -0.4632228   0.0000000), wk =   0.0011898
        k(  288) = (   0.0067870  -0.5145964   0.0000000), wk =   0.0011898
        k(  289) = (   0.0067870  -0.5132871   0.0000000), wk =   0.0011898
        k(  290) = (   0.0067870  -0.5119778   0.0000000), wk =   0.0011898
        k(  291) = (   0.0067870  -0.5106684   0.0000000), wk =   0.0011898
        k(  292) = (   0.0067870  -0.5093591   0.0000000), wk =   0.0011898
        k(  293) = (   0.0067870  -0.5080497   0.0000000), wk =   0.0011898
        k(  294) = (   0.0067870  -0.5067404   0.0000000), wk =   0.0011898
        k(  295) = (   0.0067870  -0.5054310   0.0000000), wk =   0.0011898
        k(  296) = (   0.0067870  -0.5041217   0.0000000), wk =   0.0011898
        k(  297) = (   0.0067870  -0.5028124   0.0000000), wk =   0.0011898
        k(  298) = (   0.0067870  -0.5015030   0.0000000), wk =   0.0011898
        k(  299) = (   0.0067870  -0.5001937   0.0000000), wk =   0.0011898
        k(  300) = (   0.0067870  -0.4988843   0.0000000), wk =   0.0011898
        k(  301) = (   0.0067870  -0.4975750   0.0000000), wk =   0.0011898
        k(  302) = (   0.0067870  -0.4962657   0.0000000), wk =   0.0011898
        k(  303) = (   0.0067870  -0.4949563   0.0000000), wk =   0.0011898
        k(  304) = (   0.0067870  -0.4936470   0.0000000), wk =   0.0011898
        k(  305) = (   0.0067870  -0.4923376   0.0000000), wk =   0.0011898
        k(  306) = (   0.0067870  -0.4910283   0.0000000), wk =   0.0011898
        k(  307) = (   0.0067870  -0.4897189   0.0000000), wk =   0.0011898
        k(  308) = (   0.0067870  -0.4884096   0.0000000), wk =   0.0011898
        k(  309) = (   0.0067870  -0.4871003   0.0000000), wk =   0.0011898
        k(  310) = (   0.0067870  -0.4857909   0.0000000), wk =   0.0011898
        k(  311) = (   0.0067870  -0.4844816   0.0000000), wk =   0.0011898
        k(  312) = (   0.0067870  -0.4831722   0.0000000), wk =   0.0011898
        k(  313) = (   0.0067870  -0.4818629   0.0000000), wk =   0.0011898
        k(  314) = (   0.0067870  -0.4805536   0.0000000), wk =   0.0011898
        k(  315) = (   0.0067870  -0.4792442   0.0000000), wk =   0.0011898
        k(  316) = (   0.0067870  -0.4779349   0.0000000), wk =   0.0011898
        k(  317) = (   0.0067870  -0.4766255   0.0000000), wk =   0.0011898
        k(  318) = (   0.0067870  -0.4753162   0.0000000), wk =   0.0011898
        k(  319) = (   0.0067870  -0.4740068   0.0000000), wk =   0.0011898
        k(  320) = (   0.0067870  -0.4726975   0.0000000), wk =   0.0011898
        k(  321) = (   0.0067870  -0.4713882   0.0000000), wk =   0.0011898
        k(  322) = (   0.0067870  -0.4700788   0.0000000), wk =   0.0011898
        k(  323) = (   0.0067870  -0.4687695   0.0000000), wk =   0.0011898
        k(  324) = (   0.0067870  -0.4674601   0.0000000), wk =   0.0011898
        k(  325) = (   0.0067870  -0.4661508   0.0000000), wk =   0.0011898
        k(  326) = (   0.0067870  -0.4648415   0.0000000), wk =   0.0011898
        k(  327) = (   0.0067870  -0.4635321   0.0000000), wk =   0.0011898
        k(  328) = (   0.0067870  -0.4622228   0.0000000), wk =   0.0011898
        k(  329) = (   0.0087870  -0.5135964   0.0000000), wk =   0.0011898
        k(  330) = (   0.0087870  -0.5122871   0.0000000), wk =   0.0011898
        k(  331) = (   0.0087870  -0.5109778   0.0000000), wk =   0.0011898
        k(  332) = (   0.0087870  -0.5096684   0.0000000), wk =   0.0011898
        k(  333) = (   0.0087870  -0.5083591   0.0000000), wk =   0.0011898
        k(  334) = (   0.0087870  -0.5070497   0.0000000), wk =   0.0011898
        k(  335) = (   0.0087870  -0.5057404   0.0000000), wk =   0.0011898
        k(  336) = (   0.0087870  -0.5044310   0.0000000), wk =   0.0011898
        k(  337) = (   0.0087870  -0.5031217   0.0000000), wk =   0.0011898
        k(  338) = (   0.0087870  -0.5018124   0.0000000), wk =   0.0011898
        k(  339) = (   0.0087870  -0.5005030   0.0000000), wk =   0.0011898
        k(  340) = (   0.0087870  -0.4991937   0.0000000), wk =   0.0011898
        k(  341) = (   0.0087870  -0.4978843   0.0000000), wk =   0.0011898
        k(  342) = (   0.0087870  -0.4965750   0.0000000), wk =   0.0011898
        k(  343) = (   0.0087870  -0.4952657   0.0000000), wk =   0.0011898
        k(  344) = (   0.0087870  -0.4939563   0.0000000), wk =   0.0011898
        k(  345) = (   0.0087870  -0.4926470   0.0000000), wk =   0.0011898
        k(  346) = (   0.0087870  -0.4913376   0.0000000), wk =   0.0011898
        k(  347) = (   0.0087870  -0.4900283   0.0000000), wk =   0.0011898
        k(  348) = (   0.0087870  -0.4887189   0.0000000), wk =   0.0011898
        k(  349) = (   0.0087870  -0.4874096   0.0000000), wk =   0.0011898
        k(  350) = (   0.0087870  -0.4861003   0.0000000), wk =   0.0011898
        k(  351) = (   0.0087870  -0.4847909   0.0000000), wk =   0.0011898
        k(  352) = (   0.0087870  -0.4834816   0.0000000), wk =   0.0011898
        k(  353) = (   0.0087870  -0.4821722   0.0000000), wk =   0.0011898
        k(  354) = (   0.0087870  -0.4808629   0.0000000), wk =   0.0011898
        k(  355) = (   0.0087870  -0.4795536   0.0000000), wk =   0.0011898
        k(  356) = (   0.0087870  -0.4782442   0.0000000), wk =   0.0011898
        k(  357) = (   0.0087870  -0.4769349   0.0000000), wk =   0.0011898
        k(  358) = (   0.0087870  -0.4756255   0.0000000), wk =   0.0011898
        k(  359) = (   0.0087870  -0.4743162   0.0000000), wk =   0.0011898
        k(  360) = (   0.0087870  -0.4730068   0.0000000), wk =   0.0011898
        k(  361) = (   0.0087870  -0.4716975   0.0000000), wk =   0.0011898
        k(  362) = (   0.0087870  -0.4703882   0.0000000), wk =   0.0011898
        k(  363) = (   0.0087870  -0.4690788   0.0000000), wk =   0.0011898
        k(  364) = (   0.0087870  -0.4677695   0.0000000), wk =   0.0011898
        k(  365) = (   0.0087870  -0.4664601   0.0000000), wk =   0.0011898
        k(  366) = (   0.0087870  -0.4651508   0.0000000), wk =   0.0011898
        k(  367) = (   0.0087870  -0.4638415   0.0000000), wk =   0.0011898
        k(  368) = (   0.0087870  -0.4625321   0.0000000), wk =   0.0011898
        k(  369) = (   0.0087870  -0.4612228   0.0000000), wk =   0.0011898
        k(  370) = (   0.0107870  -0.5125964   0.0000000), wk =   0.0011898
        k(  371) = (   0.0107870  -0.5112871   0.0000000), wk =   0.0011898
        k(  372) = (   0.0107870  -0.5099778   0.0000000), wk =   0.0011898
        k(  373) = (   0.0107870  -0.5086684   0.0000000), wk =   0.0011898
        k(  374) = (   0.0107870  -0.5073591   0.0000000), wk =   0.0011898
        k(  375) = (   0.0107870  -0.5060497   0.0000000), wk =   0.0011898
        k(  376) = (   0.0107870  -0.5047404   0.0000000), wk =   0.0011898
        k(  377) = (   0.0107870  -0.5034310   0.0000000), wk =   0.0011898
        k(  378) = (   0.0107870  -0.5021217   0.0000000), wk =   0.0011898
        k(  379) = (   0.0107870  -0.5008124   0.0000000), wk =   0.0011898
        k(  380) = (   0.0107870  -0.4995030   0.0000000), wk =   0.0011898
        k(  381) = (   0.0107870  -0.4981937   0.0000000), wk =   0.0011898
        k(  382) = (   0.0107870  -0.4968843   0.0000000), wk =   0.0011898
        k(  383) = (   0.0107870  -0.4955750   0.0000000), wk =   0.0011898
        k(  384) = (   0.0107870  -0.4942657   0.0000000), wk =   0.0011898
        k(  385) = (   0.0107870  -0.4929563   0.0000000), wk =   0.0011898
        k(  386) = (   0.0107870  -0.4916470   0.0000000), wk =   0.0011898
        k(  387) = (   0.0107870  -0.4903376   0.0000000), wk =   0.0011898
        k(  388) = (   0.0107870  -0.4890283   0.0000000), wk =   0.0011898
        k(  389) = (   0.0107870  -0.4877189   0.0000000), wk =   0.0011898
        k(  390) = (   0.0107870  -0.4864096   0.0000000), wk =   0.0011898
        k(  391) = (   0.0107870  -0.4851003   0.0000000), wk =   0.0011898
        k(  392) = (   0.0107870  -0.4837909   0.0000000), wk =   0.0011898
        k(  393) = (   0.0107870  -0.4824816   0.0000000), wk =   0.0011898
        k(  394) = (   0.0107870  -0.4811722   0.0000000), wk =   0.0011898
        k(  395) = (   0.0107870  -0.4798629   0.0000000), wk =   0.0011898
        k(  396) = (   0.0107870  -0.4785536   0.0000000), wk =   0.0011898
        k(  397) = (   0.0107870  -0.4772442   0.0000000), wk =   0.0011898
        k(  398) = (   0.0107870  -0.4759349   0.0000000), wk =   0.0011898
        k(  399) = (   0.0107870  -0.4746255   0.0000000), wk =   0.0011898
        k(  400) = (   0.0107870  -0.4733162   0.0000000), wk =   0.0011898
        k(  401) = (   0.0107870  -0.4720068   0.0000000), wk =   0.0011898
        k(  402) = (   0.0107870  -0.4706975   0.0000000), wk =   0.0011898
        k(  403) = (   0.0107870  -0.4693882   0.0000000), wk =   0.0011898
        k(  404) = (   0.0107870  -0.4680788   0.0000000), wk =   0.0011898
        k(  405) = (   0.0107870  -0.4667695   0.0000000), wk =   0.0011898
        k(  406) = (   0.0107870  -0.4654601   0.0000000), wk =   0.0011898
        k(  407) = (   0.0107870  -0.4641508   0.0000000), wk =   0.0011898
        k(  408) = (   0.0107870  -0.4628415   0.0000000), wk =   0.0011898
        k(  409) = (   0.0107870  -0.4615321   0.0000000), wk =   0.0011898
        k(  410) = (   0.0107870  -0.4602228   0.0000000), wk =   0.0011898
        k(  411) = (   0.0127870  -0.5115964   0.0000000), wk =   0.0011898
        k(  412) = (   0.0127870  -0.5102871   0.0000000), wk =   0.0011898
        k(  413) = (   0.0127870  -0.5089778   0.0000000), wk =   0.0011898
        k(  414) = (   0.0127870  -0.5076684   0.0000000), wk =   0.0011898
        k(  415) = (   0.0127870  -0.5063591   0.0000000), wk =   0.0011898
        k(  416) = (   0.0127870  -0.5050497   0.0000000), wk =   0.0011898
        k(  417) = (   0.0127870  -0.5037404   0.0000000), wk =   0.0011898
        k(  418) = (   0.0127870  -0.5024310   0.0000000), wk =   0.0011898
        k(  419) = (   0.0127870  -0.5011217   0.0000000), wk =   0.0011898
        k(  420) = (   0.0127870  -0.4998124   0.0000000), wk =   0.0011898
        k(  421) = (   0.0127870  -0.4985030   0.0000000), wk =   0.0011898
        k(  422) = (   0.0127870  -0.4971937   0.0000000), wk =   0.0011898
        k(  423) = (   0.0127870  -0.4958843   0.0000000), wk =   0.0011898
        k(  424) = (   0.0127870  -0.4945750   0.0000000), wk =   0.0011898
        k(  425) = (   0.0127870  -0.4932657   0.0000000), wk =   0.0011898
        k(  426) = (   0.0127870  -0.4919563   0.0000000), wk =   0.0011898
        k(  427) = (   0.0127870  -0.4906470   0.0000000), wk =   0.0011898
        k(  428) = (   0.0127870  -0.4893376   0.0000000), wk =   0.0011898
        k(  429) = (   0.0127870  -0.4880283   0.0000000), wk =   0.0011898
        k(  430) = (   0.0127870  -0.4867189   0.0000000), wk =   0.0011898
        k(  431) = (   0.0127870  -0.4854096   0.0000000), wk =   0.0011898
        k(  432) = (   0.0127870  -0.4841003   0.0000000), wk =   0.0011898
        k(  433) = (   0.0127870  -0.4827909   0.0000000), wk =   0.0011898
        k(  434) = (   0.0127870  -0.4814816   0.0000000), wk =   0.0011898
        k(  435) = (   0.0127870  -0.4801722   0.0000000), wk =   0.0011898
        k(  436) = (   0.0127870  -0.4788629   0.0000000), wk =   0.0011898
        k(  437) = (   0.0127870  -0.4775536   0.0000000), wk =   0.0011898
        k(  438) = (   0.0127870  -0.4762442   0.0000000), wk =   0.0011898
        k(  439) = (   0.0127870  -0.4749349   0.0000000), wk =   0.0011898
        k(  440) = (   0.0127870  -0.4736255   0.0000000), wk =   0.0011898
        k(  441) = (   0.0127870  -0.4723162   0.0000000), wk =   0.0011898
        k(  442) = (   0.0127870  -0.4710068   0.0000000), wk =   0.0011898
        k(  443) = (   0.0127870  -0.4696975   0.0000000), wk =   0.0011898
        k(  444) = (   0.0127870  -0.4683882   0.0000000), wk =   0.0011898
        k(  445) = (   0.0127870  -0.4670788   0.0000000), wk =   0.0011898
        k(  446) = (   0.0127870  -0.4657695   0.0000000), wk =   0.0011898
        k(  447) = (   0.0127870  -0.4644601   0.0000000), wk =   0.0011898
        k(  448) = (   0.0127870  -0.4631508   0.0000000), wk =   0.0011898
        k(  449) = (   0.0127870  -0.4618415   0.0000000), wk =   0.0011898
        k(  450) = (   0.0127870  -0.4605321   0.0000000), wk =   0.0011898
        k(  451) = (   0.0127870  -0.4592228   0.0000000), wk =   0.0011898
        k(  452) = (   0.0147870  -0.5105964   0.0000000), wk =   0.0011898
        k(  453) = (   0.0147870  -0.5092871   0.0000000), wk =   0.0011898
        k(  454) = (   0.0147870  -0.5079778   0.0000000), wk =   0.0011898
        k(  455) = (   0.0147870  -0.5066684   0.0000000), wk =   0.0011898
        k(  456) = (   0.0147870  -0.5053591   0.0000000), wk =   0.0011898
        k(  457) = (   0.0147870  -0.5040497   0.0000000), wk =   0.0011898
        k(  458) = (   0.0147870  -0.5027404   0.0000000), wk =   0.0011898
        k(  459) = (   0.0147870  -0.5014310   0.0000000), wk =   0.0011898
        k(  460) = (   0.0147870  -0.5001217   0.0000000), wk =   0.0011898
        k(  461) = (   0.0147870  -0.4988124   0.0000000), wk =   0.0011898
        k(  462) = (   0.0147870  -0.4975030   0.0000000), wk =   0.0011898
        k(  463) = (   0.0147870  -0.4961937   0.0000000), wk =   0.0011898
        k(  464) = (   0.0147870  -0.4948843   0.0000000), wk =   0.0011898
        k(  465) = (   0.0147870  -0.4935750   0.0000000), wk =   0.0011898
        k(  466) = (   0.0147870  -0.4922657   0.0000000), wk =   0.0011898
        k(  467) = (   0.0147870  -0.4909563   0.0000000), wk =   0.0011898
        k(  468) = (   0.0147870  -0.4896470   0.0000000), wk =   0.0011898
        k(  469) = (   0.0147870  -0.4883376   0.0000000), wk =   0.0011898
        k(  470) = (   0.0147870  -0.4870283   0.0000000), wk =   0.0011898
        k(  471) = (   0.0147870  -0.4857189   0.0000000), wk =   0.0011898
        k(  472) = (   0.0147870  -0.4844096   0.0000000), wk =   0.0011898
        k(  473) = (   0.0147870  -0.4831003   0.0000000), wk =   0.0011898
        k(  474) = (   0.0147870  -0.4817909   0.0000000), wk =   0.0011898
        k(  475) = (   0.0147870  -0.4804816   0.0000000), wk =   0.0011898
        k(  476) = (   0.0147870  -0.4791722   0.0000000), wk =   0.0011898
        k(  477) = (   0.0147870  -0.4778629   0.0000000), wk =   0.0011898
        k(  478) = (   0.0147870  -0.4765536   0.0000000), wk =   0.0011898
        k(  479) = (   0.0147870  -0.4752442   0.0000000), wk =   0.0011898
        k(  480) = (   0.0147870  -0.4739349   0.0000000), wk =   0.0011898
        k(  481) = (   0.0147870  -0.4726255   0.0000000), wk =   0.0011898
        k(  482) = (   0.0147870  -0.4713162   0.0000000), wk =   0.0011898
        k(  483) = (   0.0147870  -0.4700068   0.0000000), wk =   0.0011898
        k(  484) = (   0.0147870  -0.4686975   0.0000000), wk =   0.0011898
        k(  485) = (   0.0147870  -0.4673882   0.0000000), wk =   0.0011898
        k(  486) = (   0.0147870  -0.4660788   0.0000000), wk =   0.0011898
        k(  487) = (   0.0147870  -0.4647695   0.0000000), wk =   0.0011898
        k(  488) = (   0.0147870  -0.4634601   0.0000000), wk =   0.0011898
        k(  489) = (   0.0147870  -0.4621508   0.0000000), wk =   0.0011898
        k(  490) = (   0.0147870  -0.4608415   0.0000000), wk =   0.0011898
        k(  491) = (   0.0147870  -0.4595321   0.0000000), wk =   0.0011898
        k(  492) = (   0.0147870  -0.4582228   0.0000000), wk =   0.0011898
        k(  493) = (   0.0167870  -0.5095964   0.0000000), wk =   0.0011898
        k(  494) = (   0.0167870  -0.5082871   0.0000000), wk =   0.0011898
        k(  495) = (   0.0167870  -0.5069778   0.0000000), wk =   0.0011898
        k(  496) = (   0.0167870  -0.5056684   0.0000000), wk =   0.0011898
        k(  497) = (   0.0167870  -0.5043591   0.0000000), wk =   0.0011898
        k(  498) = (   0.0167870  -0.5030497   0.0000000), wk =   0.0011898
        k(  499) = (   0.0167870  -0.5017404   0.0000000), wk =   0.0011898
        k(  500) = (   0.0167870  -0.5004310   0.0000000), wk =   0.0011898
        k(  501) = (   0.0167870  -0.4991217   0.0000000), wk =   0.0011898
        k(  502) = (   0.0167870  -0.4978124   0.0000000), wk =   0.0011898
        k(  503) = (   0.0167870  -0.4965030   0.0000000), wk =   0.0011898
        k(  504) = (   0.0167870  -0.4951937   0.0000000), wk =   0.0011898
        k(  505) = (   0.0167870  -0.4938843   0.0000000), wk =   0.0011898
        k(  506) = (   0.0167870  -0.4925750   0.0000000), wk =   0.0011898
        k(  507) = (   0.0167870  -0.4912657   0.0000000), wk =   0.0011898
        k(  508) = (   0.0167870  -0.4899563   0.0000000), wk =   0.0011898
        k(  509) = (   0.0167870  -0.4886470   0.0000000), wk =   0.0011898
        k(  510) = (   0.0167870  -0.4873376   0.0000000), wk =   0.0011898
        k(  511) = (   0.0167870  -0.4860283   0.0000000), wk =   0.0011898
        k(  512) = (   0.0167870  -0.4847189   0.0000000), wk =   0.0011898
        k(  513) = (   0.0167870  -0.4834096   0.0000000), wk =   0.0011898
        k(  514) = (   0.0167870  -0.4821003   0.0000000), wk =   0.0011898
        k(  515) = (   0.0167870  -0.4807909   0.0000000), wk =   0.0011898
        k(  516) = (   0.0167870  -0.4794816   0.0000000), wk =   0.0011898
        k(  517) = (   0.0167870  -0.4781722   0.0000000), wk =   0.0011898
        k(  518) = (   0.0167870  -0.4768629   0.0000000), wk =   0.0011898
        k(  519) = (   0.0167870  -0.4755536   0.0000000), wk =   0.0011898
        k(  520) = (   0.0167870  -0.4742442   0.0000000), wk =   0.0011898
        k(  521) = (   0.0167870  -0.4729349   0.0000000), wk =   0.0011898
        k(  522) = (   0.0167870  -0.4716255   0.0000000), wk =   0.0011898
        k(  523) = (   0.0167870  -0.4703162   0.0000000), wk =   0.0011898
        k(  524) = (   0.0167870  -0.4690068   0.0000000), wk =   0.0011898
        k(  525) = (   0.0167870  -0.4676975   0.0000000), wk =   0.0011898
        k(  526) = (   0.0167870  -0.4663882   0.0000000), wk =   0.0011898
        k(  527) = (   0.0167870  -0.4650788   0.0000000), wk =   0.0011898
        k(  528) = (   0.0167870  -0.4637695   0.0000000), wk =   0.0011898
        k(  529) = (   0.0167870  -0.4624601   0.0000000), wk =   0.0011898
        k(  530) = (   0.0167870  -0.4611508   0.0000000), wk =   0.0011898
        k(  531) = (   0.0167870  -0.4598415   0.0000000), wk =   0.0011898
        k(  532) = (   0.0167870  -0.4585321   0.0000000), wk =   0.0011898
        k(  533) = (   0.0167870  -0.4572228   0.0000000), wk =   0.0011898
        k(  534) = (   0.0187870  -0.5085964   0.0000000), wk =   0.0011898
        k(  535) = (   0.0187870  -0.5072871   0.0000000), wk =   0.0011898
        k(  536) = (   0.0187870  -0.5059778   0.0000000), wk =   0.0011898
        k(  537) = (   0.0187870  -0.5046684   0.0000000), wk =   0.0011898
        k(  538) = (   0.0187870  -0.5033591   0.0000000), wk =   0.0011898
        k(  539) = (   0.0187870  -0.5020497   0.0000000), wk =   0.0011898
        k(  540) = (   0.0187870  -0.5007404   0.0000000), wk =   0.0011898
        k(  541) = (   0.0187870  -0.4994310   0.0000000), wk =   0.0011898
        k(  542) = (   0.0187870  -0.4981217   0.0000000), wk =   0.0011898
        k(  543) = (   0.0187870  -0.4968124   0.0000000), wk =   0.0011898
        k(  544) = (   0.0187870  -0.4955030   0.0000000), wk =   0.0011898
        k(  545) = (   0.0187870  -0.4941937   0.0000000), wk =   0.0011898
        k(  546) = (   0.0187870  -0.4928843   0.0000000), wk =   0.0011898
        k(  547) = (   0.0187870  -0.4915750   0.0000000), wk =   0.0011898
        k(  548) = (   0.0187870  -0.4902657   0.0000000), wk =   0.0011898
        k(  549) = (   0.0187870  -0.4889563   0.0000000), wk =   0.0011898
        k(  550) = (   0.0187870  -0.4876470   0.0000000), wk =   0.0011898
        k(  551) = (   0.0187870  -0.4863376   0.0000000), wk =   0.0011898
        k(  552) = (   0.0187870  -0.4850283   0.0000000), wk =   0.0011898
        k(  553) = (   0.0187870  -0.4837189   0.0000000), wk =   0.0011898
        k(  554) = (   0.0187870  -0.4824096   0.0000000), wk =   0.0011898
        k(  555) = (   0.0187870  -0.4811003   0.0000000), wk =   0.0011898
        k(  556) = (   0.0187870  -0.4797909   0.0000000), wk =   0.0011898
        k(  557) = (   0.0187870  -0.4784816   0.0000000), wk =   0.0011898
        k(  558) = (   0.0187870  -0.4771722   0.0000000), wk =   0.0011898
        k(  559) = (   0.0187870  -0.4758629   0.0000000), wk =   0.0011898
        k(  560) = (   0.0187870  -0.4745536   0.0000000), wk =   0.0011898
        k(  561) = (   0.0187870  -0.4732442   0.0000000), wk =   0.0011898
        k(  562) = (   0.0187870  -0.4719349   0.0000000), wk =   0.0011898
        k(  563) = (   0.0187870  -0.4706255   0.0000000), wk =   0.0011898
        k(  564) = (   0.0187870  -0.4693162   0.0000000), wk =   0.0011898
        k(  565) = (   0.0187870  -0.4680068   0.0000000), wk =   0.0011898
        k(  566) = (   0.0187870  -0.4666975   0.0000000), wk =   0.0011898
        k(  567) = (   0.0187870  -0.4653882   0.0000000), wk =   0.0011898
        k(  568) = (   0.0187870  -0.4640788   0.0000000), wk =   0.0011898
        k(  569) = (   0.0187870  -0.4627695   0.0000000), wk =   0.0011898
        k(  570) = (   0.0187870  -0.4614601   0.0000000), wk =   0.0011898
        k(  571) = (   0.0187870  -0.4601508   0.0000000), wk =   0.0011898
        k(  572) = (   0.0187870  -0.4588415   0.0000000), wk =   0.0011898
        k(  573) = (   0.0187870  -0.4575321   0.0000000), wk =   0.0011898
        k(  574) = (   0.0187870  -0.4562228   0.0000000), wk =   0.0011898
        k(  575) = (   0.0207870  -0.5075964   0.0000000), wk =   0.0011898
        k(  576) = (   0.0207870  -0.5062871   0.0000000), wk =   0.0011898
        k(  577) = (   0.0207870  -0.5049778   0.0000000), wk =   0.0011898
        k(  578) = (   0.0207870  -0.5036684   0.0000000), wk =   0.0011898
        k(  579) = (   0.0207870  -0.5023591   0.0000000), wk =   0.0011898
        k(  580) = (   0.0207870  -0.5010497   0.0000000), wk =   0.0011898
        k(  581) = (   0.0207870  -0.4997404   0.0000000), wk =   0.0011898
        k(  582) = (   0.0207870  -0.4984310   0.0000000), wk =   0.0011898
        k(  583) = (   0.0207870  -0.4971217   0.0000000), wk =   0.0011898
        k(  584) = (   0.0207870  -0.4958124   0.0000000), wk =   0.0011898
        k(  585) = (   0.0207870  -0.4945030   0.0000000), wk =   0.0011898
        k(  586) = (   0.0207870  -0.4931937   0.0000000), wk =   0.0011898
        k(  587) = (   0.0207870  -0.4918843   0.0000000), wk =   0.0011898
        k(  588) = (   0.0207870  -0.4905750   0.0000000), wk =   0.0011898
        k(  589) = (   0.0207870  -0.4892657   0.0000000), wk =   0.0011898
        k(  590) = (   0.0207870  -0.4879563   0.0000000), wk =   0.0011898
        k(  591) = (   0.0207870  -0.4866470   0.0000000), wk =   0.0011898
        k(  592) = (   0.0207870  -0.4853376   0.0000000), wk =   0.0011898
        k(  593) = (   0.0207870  -0.4840283   0.0000000), wk =   0.0011898
        k(  594) = (   0.0207870  -0.4827189   0.0000000), wk =   0.0011898
        k(  595) = (   0.0207870  -0.4814096   0.0000000), wk =   0.0011898
        k(  596) = (   0.0207870  -0.4801003   0.0000000), wk =   0.0011898
        k(  597) = (   0.0207870  -0.4787909   0.0000000), wk =   0.0011898
        k(  598) = (   0.0207870  -0.4774816   0.0000000), wk =   0.0011898
        k(  599) = (   0.0207870  -0.4761722   0.0000000), wk =   0.0011898
        k(  600) = (   0.0207870  -0.4748629   0.0000000), wk =   0.0011898
        k(  601) = (   0.0207870  -0.4735536   0.0000000), wk =   0.0011898
        k(  602) = (   0.0207870  -0.4722442   0.0000000), wk =   0.0011898
        k(  603) = (   0.0207870  -0.4709349   0.0000000), wk =   0.0011898
        k(  604) = (   0.0207870  -0.4696255   0.0000000), wk =   0.0011898
        k(  605) = (   0.0207870  -0.4683162   0.0000000), wk =   0.0011898
        k(  606) = (   0.0207870  -0.4670068   0.0000000), wk =   0.0011898
        k(  607) = (   0.0207870  -0.4656975   0.0000000), wk =   0.0011898
        k(  608) = (   0.0207870  -0.4643882   0.0000000), wk =   0.0011898
        k(  609) = (   0.0207870  -0.4630788   0.0000000), wk =   0.0011898
        k(  610) = (   0.0207870  -0.4617695   0.0000000), wk =   0.0011898
        k(  611) = (   0.0207870  -0.4604601   0.0000000), wk =   0.0011898
        k(  612) = (   0.0207870  -0.4591508   0.0000000), wk =   0.0011898
        k(  613) = (   0.0207870  -0.4578415   0.0000000), wk =   0.0011898
        k(  614) = (   0.0207870  -0.4565321   0.0000000), wk =   0.0011898
        k(  615) = (   0.0207870  -0.4552228   0.0000000), wk =   0.0011898
        k(  616) = (   0.0227870  -0.5065964   0.0000000), wk =   0.0011898
        k(  617) = (   0.0227870  -0.5052871   0.0000000), wk =   0.0011898
        k(  618) = (   0.0227870  -0.5039778   0.0000000), wk =   0.0011898
        k(  619) = (   0.0227870  -0.5026684   0.0000000), wk =   0.0011898
        k(  620) = (   0.0227870  -0.5013591   0.0000000), wk =   0.0011898
        k(  621) = (   0.0227870  -0.5000497   0.0000000), wk =   0.0011898
        k(  622) = (   0.0227870  -0.4987404   0.0000000), wk =   0.0011898
        k(  623) = (   0.0227870  -0.4974310   0.0000000), wk =   0.0011898
        k(  624) = (   0.0227870  -0.4961217   0.0000000), wk =   0.0011898
        k(  625) = (   0.0227870  -0.4948124   0.0000000), wk =   0.0011898
        k(  626) = (   0.0227870  -0.4935030   0.0000000), wk =   0.0011898
        k(  627) = (   0.0227870  -0.4921937   0.0000000), wk =   0.0011898
        k(  628) = (   0.0227870  -0.4908843   0.0000000), wk =   0.0011898
        k(  629) = (   0.0227870  -0.4895750   0.0000000), wk =   0.0011898
        k(  630) = (   0.0227870  -0.4882657   0.0000000), wk =   0.0011898
        k(  631) = (   0.0227870  -0.4869563   0.0000000), wk =   0.0011898
        k(  632) = (   0.0227870  -0.4856470   0.0000000), wk =   0.0011898
        k(  633) = (   0.0227870  -0.4843376   0.0000000), wk =   0.0011898
        k(  634) = (   0.0227870  -0.4830283   0.0000000), wk =   0.0011898
        k(  635) = (   0.0227870  -0.4817189   0.0000000), wk =   0.0011898
        k(  636) = (   0.0227870  -0.4804096   0.0000000), wk =   0.0011898
        k(  637) = (   0.0227870  -0.4791003   0.0000000), wk =   0.0011898
        k(  638) = (   0.0227870  -0.4777909   0.0000000), wk =   0.0011898
        k(  639) = (   0.0227870  -0.4764816   0.0000000), wk =   0.0011898
        k(  640) = (   0.0227870  -0.4751722   0.0000000), wk =   0.0011898
        k(  641) = (   0.0227870  -0.4738629   0.0000000), wk =   0.0011898
        k(  642) = (   0.0227870  -0.4725536   0.0000000), wk =   0.0011898
        k(  643) = (   0.0227870  -0.4712442   0.0000000), wk =   0.0011898
        k(  644) = (   0.0227870  -0.4699349   0.0000000), wk =   0.0011898
        k(  645) = (   0.0227870  -0.4686255   0.0000000), wk =   0.0011898
        k(  646) = (   0.0227870  -0.4673162   0.0000000), wk =   0.0011898
        k(  647) = (   0.0227870  -0.4660068   0.0000000), wk =   0.0011898
        k(  648) = (   0.0227870  -0.4646975   0.0000000), wk =   0.0011898
        k(  649) = (   0.0227870  -0.4633882   0.0000000), wk =   0.0011898
        k(  650) = (   0.0227870  -0.4620788   0.0000000), wk =   0.0011898
        k(  651) = (   0.0227870  -0.4607695   0.0000000), wk =   0.0011898
        k(  652) = (   0.0227870  -0.4594601   0.0000000), wk =   0.0011898
        k(  653) = (   0.0227870  -0.4581508   0.0000000), wk =   0.0011898
        k(  654) = (   0.0227870  -0.4568415   0.0000000), wk =   0.0011898
        k(  655) = (   0.0227870  -0.4555321   0.0000000), wk =   0.0011898
        k(  656) = (   0.0227870  -0.4542228   0.0000000), wk =   0.0011898
        k(  657) = (   0.0247870  -0.5055964   0.0000000), wk =   0.0011898
        k(  658) = (   0.0247870  -0.5042871   0.0000000), wk =   0.0011898
        k(  659) = (   0.0247870  -0.5029778   0.0000000), wk =   0.0011898
        k(  660) = (   0.0247870  -0.5016684   0.0000000), wk =   0.0011898
        k(  661) = (   0.0247870  -0.5003591   0.0000000), wk =   0.0011898
        k(  662) = (   0.0247870  -0.4990497   0.0000000), wk =   0.0011898
        k(  663) = (   0.0247870  -0.4977404   0.0000000), wk =   0.0011898
        k(  664) = (   0.0247870  -0.4964310   0.0000000), wk =   0.0011898
        k(  665) = (   0.0247870  -0.4951217   0.0000000), wk =   0.0011898
        k(  666) = (   0.0247870  -0.4938124   0.0000000), wk =   0.0011898
        k(  667) = (   0.0247870  -0.4925030   0.0000000), wk =   0.0011898
        k(  668) = (   0.0247870  -0.4911937   0.0000000), wk =   0.0011898
        k(  669) = (   0.0247870  -0.4898843   0.0000000), wk =   0.0011898
        k(  670) = (   0.0247870  -0.4885750   0.0000000), wk =   0.0011898
        k(  671) = (   0.0247870  -0.4872657   0.0000000), wk =   0.0011898
        k(  672) = (   0.0247870  -0.4859563   0.0000000), wk =   0.0011898
        k(  673) = (   0.0247870  -0.4846470   0.0000000), wk =   0.0011898
        k(  674) = (   0.0247870  -0.4833376   0.0000000), wk =   0.0011898
        k(  675) = (   0.0247870  -0.4820283   0.0000000), wk =   0.0011898
        k(  676) = (   0.0247870  -0.4807189   0.0000000), wk =   0.0011898
        k(  677) = (   0.0247870  -0.4794096   0.0000000), wk =   0.0011898
        k(  678) = (   0.0247870  -0.4781003   0.0000000), wk =   0.0011898
        k(  679) = (   0.0247870  -0.4767909   0.0000000), wk =   0.0011898
        k(  680) = (   0.0247870  -0.4754816   0.0000000), wk =   0.0011898
        k(  681) = (   0.0247870  -0.4741722   0.0000000), wk =   0.0011898
        k(  682) = (   0.0247870  -0.4728629   0.0000000), wk =   0.0011898
        k(  683) = (   0.0247870  -0.4715536   0.0000000), wk =   0.0011898
        k(  684) = (   0.0247870  -0.4702442   0.0000000), wk =   0.0011898
        k(  685) = (   0.0247870  -0.4689349   0.0000000), wk =   0.0011898
        k(  686) = (   0.0247870  -0.4676255   0.0000000), wk =   0.0011898
        k(  687) = (   0.0247870  -0.4663162   0.0000000), wk =   0.0011898
        k(  688) = (   0.0247870  -0.4650068   0.0000000), wk =   0.0011898
        k(  689) = (   0.0247870  -0.4636975   0.0000000), wk =   0.0011898
        k(  690) = (   0.0247870  -0.4623882   0.0000000), wk =   0.0011898
        k(  691) = (   0.0247870  -0.4610788   0.0000000), wk =   0.0011898
        k(  692) = (   0.0247870  -0.4597695   0.0000000), wk =   0.0011898
        k(  693) = (   0.0247870  -0.4584601   0.0000000), wk =   0.0011898
        k(  694) = (   0.0247870  -0.4571508   0.0000000), wk =   0.0011898
        k(  695) = (   0.0247870  -0.4558415   0.0000000), wk =   0.0011898
        k(  696) = (   0.0247870  -0.4545321   0.0000000), wk =   0.0011898
        k(  697) = (   0.0247870  -0.4532228   0.0000000), wk =   0.0011898
        k(  698) = (   0.0267870  -0.5045964   0.0000000), wk =   0.0011898
        k(  699) = (   0.0267870  -0.5032871   0.0000000), wk =   0.0011898
        k(  700) = (   0.0267870  -0.5019778   0.0000000), wk =   0.0011898
        k(  701) = (   0.0267870  -0.5006684   0.0000000), wk =   0.0011898
        k(  702) = (   0.0267870  -0.4993591   0.0000000), wk =   0.0011898
        k(  703) = (   0.0267870  -0.4980497   0.0000000), wk =   0.0011898
        k(  704) = (   0.0267870  -0.4967404   0.0000000), wk =   0.0011898
        k(  705) = (   0.0267870  -0.4954310   0.0000000), wk =   0.0011898
        k(  706) = (   0.0267870  -0.4941217   0.0000000), wk =   0.0011898
        k(  707) = (   0.0267870  -0.4928124   0.0000000), wk =   0.0011898
        k(  708) = (   0.0267870  -0.4915030   0.0000000), wk =   0.0011898
        k(  709) = (   0.0267870  -0.4901937   0.0000000), wk =   0.0011898
        k(  710) = (   0.0267870  -0.4888843   0.0000000), wk =   0.0011898
        k(  711) = (   0.0267870  -0.4875750   0.0000000), wk =   0.0011898
        k(  712) = (   0.0267870  -0.4862657   0.0000000), wk =   0.0011898
        k(  713) = (   0.0267870  -0.4849563   0.0000000), wk =   0.0011898
        k(  714) = (   0.0267870  -0.4836470   0.0000000), wk =   0.0011898
        k(  715) = (   0.0267870  -0.4823376   0.0000000), wk =   0.0011898
        k(  716) = (   0.0267870  -0.4810283   0.0000000), wk =   0.0011898
        k(  717) = (   0.0267870  -0.4797189   0.0000000), wk =   0.0011898
        k(  718) = (   0.0267870  -0.4784096   0.0000000), wk =   0.0011898
        k(  719) = (   0.0267870  -0.4771003   0.0000000), wk =   0.0011898
        k(  720) = (   0.0267870  -0.4757909   0.0000000), wk =   0.0011898
        k(  721) = (   0.0267870  -0.4744816   0.0000000), wk =   0.0011898
        k(  722) = (   0.0267870  -0.4731722   0.0000000), wk =   0.0011898
        k(  723) = (   0.0267870  -0.4718629   0.0000000), wk =   0.0011898
        k(  724) = (   0.0267870  -0.4705536   0.0000000), wk =   0.0011898
        k(  725) = (   0.0267870  -0.4692442   0.0000000), wk =   0.0011898
        k(  726) = (   0.0267870  -0.4679349   0.0000000), wk =   0.0011898
        k(  727) = (   0.0267870  -0.4666255   0.0000000), wk =   0.0011898
        k(  728) = (   0.0267870  -0.4653162   0.0000000), wk =   0.0011898
        k(  729) = (   0.0267870  -0.4640068   0.0000000), wk =   0.0011898
        k(  730) = (   0.0267870  -0.4626975   0.0000000), wk =   0.0011898
        k(  731) = (   0.0267870  -0.4613882   0.0000000), wk =   0.0011898
        k(  732) = (   0.0267870  -0.4600788   0.0000000), wk =   0.0011898
        k(  733) = (   0.0267870  -0.4587695   0.0000000), wk =   0.0011898
        k(  734) = (   0.0267870  -0.4574601   0.0000000), wk =   0.0011898
        k(  735) = (   0.0267870  -0.4561508   0.0000000), wk =   0.0011898
        k(  736) = (   0.0267870  -0.4548415   0.0000000), wk =   0.0011898
        k(  737) = (   0.0267870  -0.4535321   0.0000000), wk =   0.0011898
        k(  738) = (   0.0267870  -0.4522228   0.0000000), wk =   0.0011898
        k(  739) = (   0.0287870  -0.5035964   0.0000000), wk =   0.0011898
        k(  740) = (   0.0287870  -0.5022871   0.0000000), wk =   0.0011898
        k(  741) = (   0.0287870  -0.5009778   0.0000000), wk =   0.0011898
        k(  742) = (   0.0287870  -0.4996684   0.0000000), wk =   0.0011898
        k(  743) = (   0.0287870  -0.4983591   0.0000000), wk =   0.0011898
        k(  744) = (   0.0287870  -0.4970497   0.0000000), wk =   0.0011898
        k(  745) = (   0.0287870  -0.4957404   0.0000000), wk =   0.0011898
        k(  746) = (   0.0287870  -0.4944310   0.0000000), wk =   0.0011898
        k(  747) = (   0.0287870  -0.4931217   0.0000000), wk =   0.0011898
        k(  748) = (   0.0287870  -0.4918124   0.0000000), wk =   0.0011898
        k(  749) = (   0.0287870  -0.4905030   0.0000000), wk =   0.0011898
        k(  750) = (   0.0287870  -0.4891937   0.0000000), wk =   0.0011898
        k(  751) = (   0.0287870  -0.4878843   0.0000000), wk =   0.0011898
        k(  752) = (   0.0287870  -0.4865750   0.0000000), wk =   0.0011898
        k(  753) = (   0.0287870  -0.4852657   0.0000000), wk =   0.0011898
        k(  754) = (   0.0287870  -0.4839563   0.0000000), wk =   0.0011898
        k(  755) = (   0.0287870  -0.4826470   0.0000000), wk =   0.0011898
        k(  756) = (   0.0287870  -0.4813376   0.0000000), wk =   0.0011898
        k(  757) = (   0.0287870  -0.4800283   0.0000000), wk =   0.0011898
        k(  758) = (   0.0287870  -0.4787189   0.0000000), wk =   0.0011898
        k(  759) = (   0.0287870  -0.4774096   0.0000000), wk =   0.0011898
        k(  760) = (   0.0287870  -0.4761003   0.0000000), wk =   0.0011898
        k(  761) = (   0.0287870  -0.4747909   0.0000000), wk =   0.0011898
        k(  762) = (   0.0287870  -0.4734816   0.0000000), wk =   0.0011898
        k(  763) = (   0.0287870  -0.4721722   0.0000000), wk =   0.0011898
        k(  764) = (   0.0287870  -0.4708629   0.0000000), wk =   0.0011898
        k(  765) = (   0.0287870  -0.4695536   0.0000000), wk =   0.0011898
        k(  766) = (   0.0287870  -0.4682442   0.0000000), wk =   0.0011898
        k(  767) = (   0.0287870  -0.4669349   0.0000000), wk =   0.0011898
        k(  768) = (   0.0287870  -0.4656255   0.0000000), wk =   0.0011898
        k(  769) = (   0.0287870  -0.4643162   0.0000000), wk =   0.0011898
        k(  770) = (   0.0287870  -0.4630068   0.0000000), wk =   0.0011898
        k(  771) = (   0.0287870  -0.4616975   0.0000000), wk =   0.0011898
        k(  772) = (   0.0287870  -0.4603882   0.0000000), wk =   0.0011898
        k(  773) = (   0.0287870  -0.4590788   0.0000000), wk =   0.0011898
        k(  774) = (   0.0287870  -0.4577695   0.0000000), wk =   0.0011898
        k(  775) = (   0.0287870  -0.4564601   0.0000000), wk =   0.0011898
        k(  776) = (   0.0287870  -0.4551508   0.0000000), wk =   0.0011898
        k(  777) = (   0.0287870  -0.4538415   0.0000000), wk =   0.0011898
        k(  778) = (   0.0287870  -0.4525321   0.0000000), wk =   0.0011898
        k(  779) = (   0.0287870  -0.4512228   0.0000000), wk =   0.0011898
        k(  780) = (   0.0307870  -0.5025964   0.0000000), wk =   0.0011898
        k(  781) = (   0.0307870  -0.5012871   0.0000000), wk =   0.0011898
        k(  782) = (   0.0307870  -0.4999778   0.0000000), wk =   0.0011898
        k(  783) = (   0.0307870  -0.4986684   0.0000000), wk =   0.0011898
        k(  784) = (   0.0307870  -0.4973591   0.0000000), wk =   0.0011898
        k(  785) = (   0.0307870  -0.4960497   0.0000000), wk =   0.0011898
        k(  786) = (   0.0307870  -0.4947404   0.0000000), wk =   0.0011898
        k(  787) = (   0.0307870  -0.4934310   0.0000000), wk =   0.0011898
        k(  788) = (   0.0307870  -0.4921217   0.0000000), wk =   0.0011898
        k(  789) = (   0.0307870  -0.4908124   0.0000000), wk =   0.0011898
        k(  790) = (   0.0307870  -0.4895030   0.0000000), wk =   0.0011898
        k(  791) = (   0.0307870  -0.4881937   0.0000000), wk =   0.0011898
        k(  792) = (   0.0307870  -0.4868843   0.0000000), wk =   0.0011898
        k(  793) = (   0.0307870  -0.4855750   0.0000000), wk =   0.0011898
        k(  794) = (   0.0307870  -0.4842657   0.0000000), wk =   0.0011898
        k(  795) = (   0.0307870  -0.4829563   0.0000000), wk =   0.0011898
        k(  796) = (   0.0307870  -0.4816470   0.0000000), wk =   0.0011898
        k(  797) = (   0.0307870  -0.4803376   0.0000000), wk =   0.0011898
        k(  798) = (   0.0307870  -0.4790283   0.0000000), wk =   0.0011898
        k(  799) = (   0.0307870  -0.4777189   0.0000000), wk =   0.0011898
        k(  800) = (   0.0307870  -0.4764096   0.0000000), wk =   0.0011898
        k(  801) = (   0.0307870  -0.4751003   0.0000000), wk =   0.0011898
        k(  802) = (   0.0307870  -0.4737909   0.0000000), wk =   0.0011898
        k(  803) = (   0.0307870  -0.4724816   0.0000000), wk =   0.0011898
        k(  804) = (   0.0307870  -0.4711722   0.0000000), wk =   0.0011898
        k(  805) = (   0.0307870  -0.4698629   0.0000000), wk =   0.0011898
        k(  806) = (   0.0307870  -0.4685536   0.0000000), wk =   0.0011898
        k(  807) = (   0.0307870  -0.4672442   0.0000000), wk =   0.0011898
        k(  808) = (   0.0307870  -0.4659349   0.0000000), wk =   0.0011898
        k(  809) = (   0.0307870  -0.4646255   0.0000000), wk =   0.0011898
        k(  810) = (   0.0307870  -0.4633162   0.0000000), wk =   0.0011898
        k(  811) = (   0.0307870  -0.4620068   0.0000000), wk =   0.0011898
        k(  812) = (   0.0307870  -0.4606975   0.0000000), wk =   0.0011898
        k(  813) = (   0.0307870  -0.4593882   0.0000000), wk =   0.0011898
        k(  814) = (   0.0307870  -0.4580788   0.0000000), wk =   0.0011898
        k(  815) = (   0.0307870  -0.4567695   0.0000000), wk =   0.0011898
        k(  816) = (   0.0307870  -0.4554601   0.0000000), wk =   0.0011898
        k(  817) = (   0.0307870  -0.4541508   0.0000000), wk =   0.0011898
        k(  818) = (   0.0307870  -0.4528415   0.0000000), wk =   0.0011898
        k(  819) = (   0.0307870  -0.4515321   0.0000000), wk =   0.0011898
        k(  820) = (   0.0307870  -0.4502228   0.0000000), wk =   0.0011898
        k(  821) = (   0.0327870  -0.5015964   0.0000000), wk =   0.0011898
        k(  822) = (   0.0327870  -0.5002871   0.0000000), wk =   0.0011898
        k(  823) = (   0.0327870  -0.4989778   0.0000000), wk =   0.0011898
        k(  824) = (   0.0327870  -0.4976684   0.0000000), wk =   0.0011898
        k(  825) = (   0.0327870  -0.4963591   0.0000000), wk =   0.0011898
        k(  826) = (   0.0327870  -0.4950497   0.0000000), wk =   0.0011898
        k(  827) = (   0.0327870  -0.4937404   0.0000000), wk =   0.0011898
        k(  828) = (   0.0327870  -0.4924310   0.0000000), wk =   0.0011898
        k(  829) = (   0.0327870  -0.4911217   0.0000000), wk =   0.0011898
        k(  830) = (   0.0327870  -0.4898124   0.0000000), wk =   0.0011898
        k(  831) = (   0.0327870  -0.4885030   0.0000000), wk =   0.0011898
        k(  832) = (   0.0327870  -0.4871937   0.0000000), wk =   0.0011898
        k(  833) = (   0.0327870  -0.4858843   0.0000000), wk =   0.0011898
        k(  834) = (   0.0327870  -0.4845750   0.0000000), wk =   0.0011898
        k(  835) = (   0.0327870  -0.4832657   0.0000000), wk =   0.0011898
        k(  836) = (   0.0327870  -0.4819563   0.0000000), wk =   0.0011898
        k(  837) = (   0.0327870  -0.4806470   0.0000000), wk =   0.0011898
        k(  838) = (   0.0327870  -0.4793376   0.0000000), wk =   0.0011898
        k(  839) = (   0.0327870  -0.4780283   0.0000000), wk =   0.0011898
        k(  840) = (   0.0327870  -0.4767189   0.0000000), wk =   0.0011898
        k(  841) = (   0.0327870  -0.4754096   0.0000000), wk =   0.0011898
        k(  842) = (   0.0327870  -0.4741003   0.0000000), wk =   0.0011898
        k(  843) = (   0.0327870  -0.4727909   0.0000000), wk =   0.0011898
        k(  844) = (   0.0327870  -0.4714816   0.0000000), wk =   0.0011898
        k(  845) = (   0.0327870  -0.4701722   0.0000000), wk =   0.0011898
        k(  846) = (   0.0327870  -0.4688629   0.0000000), wk =   0.0011898
        k(  847) = (   0.0327870  -0.4675536   0.0000000), wk =   0.0011898
        k(  848) = (   0.0327870  -0.4662442   0.0000000), wk =   0.0011898
        k(  849) = (   0.0327870  -0.4649349   0.0000000), wk =   0.0011898
        k(  850) = (   0.0327870  -0.4636255   0.0000000), wk =   0.0011898
        k(  851) = (   0.0327870  -0.4623162   0.0000000), wk =   0.0011898
        k(  852) = (   0.0327870  -0.4610068   0.0000000), wk =   0.0011898
        k(  853) = (   0.0327870  -0.4596975   0.0000000), wk =   0.0011898
        k(  854) = (   0.0327870  -0.4583882   0.0000000), wk =   0.0011898
        k(  855) = (   0.0327870  -0.4570788   0.0000000), wk =   0.0011898
        k(  856) = (   0.0327870  -0.4557695   0.0000000), wk =   0.0011898
        k(  857) = (   0.0327870  -0.4544601   0.0000000), wk =   0.0011898
        k(  858) = (   0.0327870  -0.4531508   0.0000000), wk =   0.0011898
        k(  859) = (   0.0327870  -0.4518415   0.0000000), wk =   0.0011898
        k(  860) = (   0.0327870  -0.4505321   0.0000000), wk =   0.0011898
        k(  861) = (   0.0327870  -0.4492228   0.0000000), wk =   0.0011898
        k(  862) = (   0.0347870  -0.5005964   0.0000000), wk =   0.0011898
        k(  863) = (   0.0347870  -0.4992871   0.0000000), wk =   0.0011898
        k(  864) = (   0.0347870  -0.4979778   0.0000000), wk =   0.0011898
        k(  865) = (   0.0347870  -0.4966684   0.0000000), wk =   0.0011898
        k(  866) = (   0.0347870  -0.4953591   0.0000000), wk =   0.0011898
        k(  867) = (   0.0347870  -0.4940497   0.0000000), wk =   0.0011898
        k(  868) = (   0.0347870  -0.4927404   0.0000000), wk =   0.0011898
        k(  869) = (   0.0347870  -0.4914310   0.0000000), wk =   0.0011898
        k(  870) = (   0.0347870  -0.4901217   0.0000000), wk =   0.0011898
        k(  871) = (   0.0347870  -0.4888124   0.0000000), wk =   0.0011898
        k(  872) = (   0.0347870  -0.4875030   0.0000000), wk =   0.0011898
        k(  873) = (   0.0347870  -0.4861937   0.0000000), wk =   0.0011898
        k(  874) = (   0.0347870  -0.4848843   0.0000000), wk =   0.0011898
        k(  875) = (   0.0347870  -0.4835750   0.0000000), wk =   0.0011898
        k(  876) = (   0.0347870  -0.4822657   0.0000000), wk =   0.0011898
        k(  877) = (   0.0347870  -0.4809563   0.0000000), wk =   0.0011898
        k(  878) = (   0.0347870  -0.4796470   0.0000000), wk =   0.0011898
        k(  879) = (   0.0347870  -0.4783376   0.0000000), wk =   0.0011898
        k(  880) = (   0.0347870  -0.4770283   0.0000000), wk =   0.0011898
        k(  881) = (   0.0347870  -0.4757189   0.0000000), wk =   0.0011898
        k(  882) = (   0.0347870  -0.4744096   0.0000000), wk =   0.0011898
        k(  883) = (   0.0347870  -0.4731003   0.0000000), wk =   0.0011898
        k(  884) = (   0.0347870  -0.4717909   0.0000000), wk =   0.0011898
        k(  885) = (   0.0347870  -0.4704816   0.0000000), wk =   0.0011898
        k(  886) = (   0.0347870  -0.4691722   0.0000000), wk =   0.0011898
        k(  887) = (   0.0347870  -0.4678629   0.0000000), wk =   0.0011898
        k(  888) = (   0.0347870  -0.4665536   0.0000000), wk =   0.0011898
        k(  889) = (   0.0347870  -0.4652442   0.0000000), wk =   0.0011898
        k(  890) = (   0.0347870  -0.4639349   0.0000000), wk =   0.0011898
        k(  891) = (   0.0347870  -0.4626255   0.0000000), wk =   0.0011898
        k(  892) = (   0.0347870  -0.4613162   0.0000000), wk =   0.0011898
        k(  893) = (   0.0347870  -0.4600068   0.0000000), wk =   0.0011898
        k(  894) = (   0.0347870  -0.4586975   0.0000000), wk =   0.0011898
        k(  895) = (   0.0347870  -0.4573882   0.0000000), wk =   0.0011898
        k(  896) = (   0.0347870  -0.4560788   0.0000000), wk =   0.0011898
        k(  897) = (   0.0347870  -0.4547695   0.0000000), wk =   0.0011898
        k(  898) = (   0.0347870  -0.4534601   0.0000000), wk =   0.0011898
        k(  899) = (   0.0347870  -0.4521508   0.0000000), wk =   0.0011898
        k(  900) = (   0.0347870  -0.4508415   0.0000000), wk =   0.0011898
        k(  901) = (   0.0347870  -0.4495321   0.0000000), wk =   0.0011898
        k(  902) = (   0.0347870  -0.4482228   0.0000000), wk =   0.0011898
        k(  903) = (   0.0367870  -0.4995964   0.0000000), wk =   0.0011898
        k(  904) = (   0.0367870  -0.4982871   0.0000000), wk =   0.0011898
        k(  905) = (   0.0367870  -0.4969778   0.0000000), wk =   0.0011898
        k(  906) = (   0.0367870  -0.4956684   0.0000000), wk =   0.0011898
        k(  907) = (   0.0367870  -0.4943591   0.0000000), wk =   0.0011898
        k(  908) = (   0.0367870  -0.4930497   0.0000000), wk =   0.0011898
        k(  909) = (   0.0367870  -0.4917404   0.0000000), wk =   0.0011898
        k(  910) = (   0.0367870  -0.4904310   0.0000000), wk =   0.0011898
        k(  911) = (   0.0367870  -0.4891217   0.0000000), wk =   0.0011898
        k(  912) = (   0.0367870  -0.4878124   0.0000000), wk =   0.0011898
        k(  913) = (   0.0367870  -0.4865030   0.0000000), wk =   0.0011898
        k(  914) = (   0.0367870  -0.4851937   0.0000000), wk =   0.0011898
        k(  915) = (   0.0367870  -0.4838843   0.0000000), wk =   0.0011898
        k(  916) = (   0.0367870  -0.4825750   0.0000000), wk =   0.0011898
        k(  917) = (   0.0367870  -0.4812657   0.0000000), wk =   0.0011898
        k(  918) = (   0.0367870  -0.4799563   0.0000000), wk =   0.0011898
        k(  919) = (   0.0367870  -0.4786470   0.0000000), wk =   0.0011898
        k(  920) = (   0.0367870  -0.4773376   0.0000000), wk =   0.0011898
        k(  921) = (   0.0367870  -0.4760283   0.0000000), wk =   0.0011898
        k(  922) = (   0.0367870  -0.4747189   0.0000000), wk =   0.0011898
        k(  923) = (   0.0367870  -0.4734096   0.0000000), wk =   0.0011898
        k(  924) = (   0.0367870  -0.4721003   0.0000000), wk =   0.0011898
        k(  925) = (   0.0367870  -0.4707909   0.0000000), wk =   0.0011898
        k(  926) = (   0.0367870  -0.4694816   0.0000000), wk =   0.0011898
        k(  927) = (   0.0367870  -0.4681722   0.0000000), wk =   0.0011898
        k(  928) = (   0.0367870  -0.4668629   0.0000000), wk =   0.0011898
        k(  929) = (   0.0367870  -0.4655536   0.0000000), wk =   0.0011898
        k(  930) = (   0.0367870  -0.4642442   0.0000000), wk =   0.0011898
        k(  931) = (   0.0367870  -0.4629349   0.0000000), wk =   0.0011898
        k(  932) = (   0.0367870  -0.4616255   0.0000000), wk =   0.0011898
        k(  933) = (   0.0367870  -0.4603162   0.0000000), wk =   0.0011898
        k(  934) = (   0.0367870  -0.4590068   0.0000000), wk =   0.0011898
        k(  935) = (   0.0367870  -0.4576975   0.0000000), wk =   0.0011898
        k(  936) = (   0.0367870  -0.4563882   0.0000000), wk =   0.0011898
        k(  937) = (   0.0367870  -0.4550788   0.0000000), wk =   0.0011898
        k(  938) = (   0.0367870  -0.4537695   0.0000000), wk =   0.0011898
        k(  939) = (   0.0367870  -0.4524601   0.0000000), wk =   0.0011898
        k(  940) = (   0.0367870  -0.4511508   0.0000000), wk =   0.0011898
        k(  941) = (   0.0367870  -0.4498415   0.0000000), wk =   0.0011898
        k(  942) = (   0.0367870  -0.4485321   0.0000000), wk =   0.0011898
        k(  943) = (   0.0367870  -0.4472228   0.0000000), wk =   0.0011898
        k(  944) = (   0.0387870  -0.4985964   0.0000000), wk =   0.0011898
        k(  945) = (   0.0387870  -0.4972871   0.0000000), wk =   0.0011898
        k(  946) = (   0.0387870  -0.4959778   0.0000000), wk =   0.0011898
        k(  947) = (   0.0387870  -0.4946684   0.0000000), wk =   0.0011898
        k(  948) = (   0.0387870  -0.4933591   0.0000000), wk =   0.0011898
        k(  949) = (   0.0387870  -0.4920497   0.0000000), wk =   0.0011898
        k(  950) = (   0.0387870  -0.4907404   0.0000000), wk =   0.0011898
        k(  951) = (   0.0387870  -0.4894310   0.0000000), wk =   0.0011898
        k(  952) = (   0.0387870  -0.4881217   0.0000000), wk =   0.0011898
        k(  953) = (   0.0387870  -0.4868124   0.0000000), wk =   0.0011898
        k(  954) = (   0.0387870  -0.4855030   0.0000000), wk =   0.0011898
        k(  955) = (   0.0387870  -0.4841937   0.0000000), wk =   0.0011898
        k(  956) = (   0.0387870  -0.4828843   0.0000000), wk =   0.0011898
        k(  957) = (   0.0387870  -0.4815750   0.0000000), wk =   0.0011898
        k(  958) = (   0.0387870  -0.4802657   0.0000000), wk =   0.0011898
        k(  959) = (   0.0387870  -0.4789563   0.0000000), wk =   0.0011898
        k(  960) = (   0.0387870  -0.4776470   0.0000000), wk =   0.0011898
        k(  961) = (   0.0387870  -0.4763376   0.0000000), wk =   0.0011898
        k(  962) = (   0.0387870  -0.4750283   0.0000000), wk =   0.0011898
        k(  963) = (   0.0387870  -0.4737189   0.0000000), wk =   0.0011898
        k(  964) = (   0.0387870  -0.4724096   0.0000000), wk =   0.0011898
        k(  965) = (   0.0387870  -0.4711003   0.0000000), wk =   0.0011898
        k(  966) = (   0.0387870  -0.4697909   0.0000000), wk =   0.0011898
        k(  967) = (   0.0387870  -0.4684816   0.0000000), wk =   0.0011898
        k(  968) = (   0.0387870  -0.4671722   0.0000000), wk =   0.0011898
        k(  969) = (   0.0387870  -0.4658629   0.0000000), wk =   0.0011898
        k(  970) = (   0.0387870  -0.4645536   0.0000000), wk =   0.0011898
        k(  971) = (   0.0387870  -0.4632442   0.0000000), wk =   0.0011898
        k(  972) = (   0.0387870  -0.4619349   0.0000000), wk =   0.0011898
        k(  973) = (   0.0387870  -0.4606255   0.0000000), wk =   0.0011898
        k(  974) = (   0.0387870  -0.4593162   0.0000000), wk =   0.0011898
        k(  975) = (   0.0387870  -0.4580068   0.0000000), wk =   0.0011898
        k(  976) = (   0.0387870  -0.4566975   0.0000000), wk =   0.0011898
        k(  977) = (   0.0387870  -0.4553882   0.0000000), wk =   0.0011898
        k(  978) = (   0.0387870  -0.4540788   0.0000000), wk =   0.0011898
        k(  979) = (   0.0387870  -0.4527695   0.0000000), wk =   0.0011898
        k(  980) = (   0.0387870  -0.4514601   0.0000000), wk =   0.0011898
        k(  981) = (   0.0387870  -0.4501508   0.0000000), wk =   0.0011898
        k(  982) = (   0.0387870  -0.4488415   0.0000000), wk =   0.0011898
        k(  983) = (   0.0387870  -0.4475321   0.0000000), wk =   0.0011898
        k(  984) = (   0.0387870  -0.4462228   0.0000000), wk =   0.0011898
        k(  985) = (   0.0407870  -0.4975964   0.0000000), wk =   0.0011898
        k(  986) = (   0.0407870  -0.4962871   0.0000000), wk =   0.0011898
        k(  987) = (   0.0407870  -0.4949778   0.0000000), wk =   0.0011898
        k(  988) = (   0.0407870  -0.4936684   0.0000000), wk =   0.0011898
        k(  989) = (   0.0407870  -0.4923591   0.0000000), wk =   0.0011898
        k(  990) = (   0.0407870  -0.4910497   0.0000000), wk =   0.0011898
        k(  991) = (   0.0407870  -0.4897404   0.0000000), wk =   0.0011898
        k(  992) = (   0.0407870  -0.4884310   0.0000000), wk =   0.0011898
        k(  993) = (   0.0407870  -0.4871217   0.0000000), wk =   0.0011898
        k(  994) = (   0.0407870  -0.4858124   0.0000000), wk =   0.0011898
        k(  995) = (   0.0407870  -0.4845030   0.0000000), wk =   0.0011898
        k(  996) = (   0.0407870  -0.4831937   0.0000000), wk =   0.0011898
        k(  997) = (   0.0407870  -0.4818843   0.0000000), wk =   0.0011898
        k(  998) = (   0.0407870  -0.4805750   0.0000000), wk =   0.0011898
        k(  999) = (   0.0407870  -0.4792657   0.0000000), wk =   0.0011898
        k( 1000) = (   0.0407870  -0.4779563   0.0000000), wk =   0.0011898
        k( 1001) = (   0.0407870  -0.4766470   0.0000000), wk =   0.0011898
        k( 1002) = (   0.0407870  -0.4753376   0.0000000), wk =   0.0011898
        k( 1003) = (   0.0407870  -0.4740283   0.0000000), wk =   0.0011898
        k( 1004) = (   0.0407870  -0.4727189   0.0000000), wk =   0.0011898
        k( 1005) = (   0.0407870  -0.4714096   0.0000000), wk =   0.0011898
        k( 1006) = (   0.0407870  -0.4701003   0.0000000), wk =   0.0011898
        k( 1007) = (   0.0407870  -0.4687909   0.0000000), wk =   0.0011898
        k( 1008) = (   0.0407870  -0.4674816   0.0000000), wk =   0.0011898
        k( 1009) = (   0.0407870  -0.4661722   0.0000000), wk =   0.0011898
        k( 1010) = (   0.0407870  -0.4648629   0.0000000), wk =   0.0011898
        k( 1011) = (   0.0407870  -0.4635536   0.0000000), wk =   0.0011898
        k( 1012) = (   0.0407870  -0.4622442   0.0000000), wk =   0.0011898
        k( 1013) = (   0.0407870  -0.4609349   0.0000000), wk =   0.0011898
        k( 1014) = (   0.0407870  -0.4596255   0.0000000), wk =   0.0011898
        k( 1015) = (   0.0407870  -0.4583162   0.0000000), wk =   0.0011898
        k( 1016) = (   0.0407870  -0.4570068   0.0000000), wk =   0.0011898
        k( 1017) = (   0.0407870  -0.4556975   0.0000000), wk =   0.0011898
        k( 1018) = (   0.0407870  -0.4543882   0.0000000), wk =   0.0011898
        k( 1019) = (   0.0407870  -0.4530788   0.0000000), wk =   0.0011898
        k( 1020) = (   0.0407870  -0.4517695   0.0000000), wk =   0.0011898
        k( 1021) = (   0.0407870  -0.4504601   0.0000000), wk =   0.0011898
        k( 1022) = (   0.0407870  -0.4491508   0.0000000), wk =   0.0011898
        k( 1023) = (   0.0407870  -0.4478415   0.0000000), wk =   0.0011898
        k( 1024) = (   0.0407870  -0.4465321   0.0000000), wk =   0.0011898
        k( 1025) = (   0.0407870  -0.4452228   0.0000000), wk =   0.0011898
        k( 1026) = (   0.0427870  -0.4965964   0.0000000), wk =   0.0011898
        k( 1027) = (   0.0427870  -0.4952871   0.0000000), wk =   0.0011898
        k( 1028) = (   0.0427870  -0.4939778   0.0000000), wk =   0.0011898
        k( 1029) = (   0.0427870  -0.4926684   0.0000000), wk =   0.0011898
        k( 1030) = (   0.0427870  -0.4913591   0.0000000), wk =   0.0011898
        k( 1031) = (   0.0427870  -0.4900497   0.0000000), wk =   0.0011898
        k( 1032) = (   0.0427870  -0.4887404   0.0000000), wk =   0.0011898
        k( 1033) = (   0.0427870  -0.4874310   0.0000000), wk =   0.0011898
        k( 1034) = (   0.0427870  -0.4861217   0.0000000), wk =   0.0011898
        k( 1035) = (   0.0427870  -0.4848124   0.0000000), wk =   0.0011898
        k( 1036) = (   0.0427870  -0.4835030   0.0000000), wk =   0.0011898
        k( 1037) = (   0.0427870  -0.4821937   0.0000000), wk =   0.0011898
        k( 1038) = (   0.0427870  -0.4808843   0.0000000), wk =   0.0011898
        k( 1039) = (   0.0427870  -0.4795750   0.0000000), wk =   0.0011898
        k( 1040) = (   0.0427870  -0.4782657   0.0000000), wk =   0.0011898
        k( 1041) = (   0.0427870  -0.4769563   0.0000000), wk =   0.0011898
        k( 1042) = (   0.0427870  -0.4756470   0.0000000), wk =   0.0011898
        k( 1043) = (   0.0427870  -0.4743376   0.0000000), wk =   0.0011898
        k( 1044) = (   0.0427870  -0.4730283   0.0000000), wk =   0.0011898
        k( 1045) = (   0.0427870  -0.4717189   0.0000000), wk =   0.0011898
        k( 1046) = (   0.0427870  -0.4704096   0.0000000), wk =   0.0011898
        k( 1047) = (   0.0427870  -0.4691003   0.0000000), wk =   0.0011898
        k( 1048) = (   0.0427870  -0.4677909   0.0000000), wk =   0.0011898
        k( 1049) = (   0.0427870  -0.4664816   0.0000000), wk =   0.0011898
        k( 1050) = (   0.0427870  -0.4651722   0.0000000), wk =   0.0011898
        k( 1051) = (   0.0427870  -0.4638629   0.0000000), wk =   0.0011898
        k( 1052) = (   0.0427870  -0.4625536   0.0000000), wk =   0.0011898
        k( 1053) = (   0.0427870  -0.4612442   0.0000000), wk =   0.0011898
        k( 1054) = (   0.0427870  -0.4599349   0.0000000), wk =   0.0011898
        k( 1055) = (   0.0427870  -0.4586255   0.0000000), wk =   0.0011898
        k( 1056) = (   0.0427870  -0.4573162   0.0000000), wk =   0.0011898
        k( 1057) = (   0.0427870  -0.4560068   0.0000000), wk =   0.0011898
        k( 1058) = (   0.0427870  -0.4546975   0.0000000), wk =   0.0011898
        k( 1059) = (   0.0427870  -0.4533882   0.0000000), wk =   0.0011898
        k( 1060) = (   0.0427870  -0.4520788   0.0000000), wk =   0.0011898
        k( 1061) = (   0.0427870  -0.4507695   0.0000000), wk =   0.0011898
        k( 1062) = (   0.0427870  -0.4494601   0.0000000), wk =   0.0011898
        k( 1063) = (   0.0427870  -0.4481508   0.0000000), wk =   0.0011898
        k( 1064) = (   0.0427870  -0.4468415   0.0000000), wk =   0.0011898
        k( 1065) = (   0.0427870  -0.4455321   0.0000000), wk =   0.0011898
        k( 1066) = (   0.0427870  -0.4442228   0.0000000), wk =   0.0011898
        k( 1067) = (   0.0447870  -0.4955964   0.0000000), wk =   0.0011898
        k( 1068) = (   0.0447870  -0.4942871   0.0000000), wk =   0.0011898
        k( 1069) = (   0.0447870  -0.4929778   0.0000000), wk =   0.0011898
        k( 1070) = (   0.0447870  -0.4916684   0.0000000), wk =   0.0011898
        k( 1071) = (   0.0447870  -0.4903591   0.0000000), wk =   0.0011898
        k( 1072) = (   0.0447870  -0.4890497   0.0000000), wk =   0.0011898
        k( 1073) = (   0.0447870  -0.4877404   0.0000000), wk =   0.0011898
        k( 1074) = (   0.0447870  -0.4864310   0.0000000), wk =   0.0011898
        k( 1075) = (   0.0447870  -0.4851217   0.0000000), wk =   0.0011898
        k( 1076) = (   0.0447870  -0.4838124   0.0000000), wk =   0.0011898
        k( 1077) = (   0.0447870  -0.4825030   0.0000000), wk =   0.0011898
        k( 1078) = (   0.0447870  -0.4811937   0.0000000), wk =   0.0011898
        k( 1079) = (   0.0447870  -0.4798843   0.0000000), wk =   0.0011898
        k( 1080) = (   0.0447870  -0.4785750   0.0000000), wk =   0.0011898
        k( 1081) = (   0.0447870  -0.4772657   0.0000000), wk =   0.0011898
        k( 1082) = (   0.0447870  -0.4759563   0.0000000), wk =   0.0011898
        k( 1083) = (   0.0447870  -0.4746470   0.0000000), wk =   0.0011898
        k( 1084) = (   0.0447870  -0.4733376   0.0000000), wk =   0.0011898
        k( 1085) = (   0.0447870  -0.4720283   0.0000000), wk =   0.0011898
        k( 1086) = (   0.0447870  -0.4707189   0.0000000), wk =   0.0011898
        k( 1087) = (   0.0447870  -0.4694096   0.0000000), wk =   0.0011898
        k( 1088) = (   0.0447870  -0.4681003   0.0000000), wk =   0.0011898
        k( 1089) = (   0.0447870  -0.4667909   0.0000000), wk =   0.0011898
        k( 1090) = (   0.0447870  -0.4654816   0.0000000), wk =   0.0011898
        k( 1091) = (   0.0447870  -0.4641722   0.0000000), wk =   0.0011898
        k( 1092) = (   0.0447870  -0.4628629   0.0000000), wk =   0.0011898
        k( 1093) = (   0.0447870  -0.4615536   0.0000000), wk =   0.0011898
        k( 1094) = (   0.0447870  -0.4602442   0.0000000), wk =   0.0011898
        k( 1095) = (   0.0447870  -0.4589349   0.0000000), wk =   0.0011898
        k( 1096) = (   0.0447870  -0.4576255   0.0000000), wk =   0.0011898
        k( 1097) = (   0.0447870  -0.4563162   0.0000000), wk =   0.0011898
        k( 1098) = (   0.0447870  -0.4550068   0.0000000), wk =   0.0011898
        k( 1099) = (   0.0447870  -0.4536975   0.0000000), wk =   0.0011898
        k( 1100) = (   0.0447870  -0.4523882   0.0000000), wk =   0.0011898
        k( 1101) = (   0.0447870  -0.4510788   0.0000000), wk =   0.0011898
        k( 1102) = (   0.0447870  -0.4497695   0.0000000), wk =   0.0011898
        k( 1103) = (   0.0447870  -0.4484601   0.0000000), wk =   0.0011898
        k( 1104) = (   0.0447870  -0.4471508   0.0000000), wk =   0.0011898
        k( 1105) = (   0.0447870  -0.4458415   0.0000000), wk =   0.0011898
        k( 1106) = (   0.0447870  -0.4445321   0.0000000), wk =   0.0011898
        k( 1107) = (   0.0447870  -0.4432228   0.0000000), wk =   0.0011898
        k( 1108) = (   0.0467870  -0.4945964   0.0000000), wk =   0.0011898
        k( 1109) = (   0.0467870  -0.4932871   0.0000000), wk =   0.0011898
        k( 1110) = (   0.0467870  -0.4919778   0.0000000), wk =   0.0011898
        k( 1111) = (   0.0467870  -0.4906684   0.0000000), wk =   0.0011898
        k( 1112) = (   0.0467870  -0.4893591   0.0000000), wk =   0.0011898
        k( 1113) = (   0.0467870  -0.4880497   0.0000000), wk =   0.0011898
        k( 1114) = (   0.0467870  -0.4867404   0.0000000), wk =   0.0011898
        k( 1115) = (   0.0467870  -0.4854310   0.0000000), wk =   0.0011898
        k( 1116) = (   0.0467870  -0.4841217   0.0000000), wk =   0.0011898
        k( 1117) = (   0.0467870  -0.4828124   0.0000000), wk =   0.0011898
        k( 1118) = (   0.0467870  -0.4815030   0.0000000), wk =   0.0011898
        k( 1119) = (   0.0467870  -0.4801937   0.0000000), wk =   0.0011898
        k( 1120) = (   0.0467870  -0.4788843   0.0000000), wk =   0.0011898
        k( 1121) = (   0.0467870  -0.4775750   0.0000000), wk =   0.0011898
        k( 1122) = (   0.0467870  -0.4762657   0.0000000), wk =   0.0011898
        k( 1123) = (   0.0467870  -0.4749563   0.0000000), wk =   0.0011898
        k( 1124) = (   0.0467870  -0.4736470   0.0000000), wk =   0.0011898
        k( 1125) = (   0.0467870  -0.4723376   0.0000000), wk =   0.0011898
        k( 1126) = (   0.0467870  -0.4710283   0.0000000), wk =   0.0011898
        k( 1127) = (   0.0467870  -0.4697189   0.0000000), wk =   0.0011898
        k( 1128) = (   0.0467870  -0.4684096   0.0000000), wk =   0.0011898
        k( 1129) = (   0.0467870  -0.4671003   0.0000000), wk =   0.0011898
        k( 1130) = (   0.0467870  -0.4657909   0.0000000), wk =   0.0011898
        k( 1131) = (   0.0467870  -0.4644816   0.0000000), wk =   0.0011898
        k( 1132) = (   0.0467870  -0.4631722   0.0000000), wk =   0.0011898
        k( 1133) = (   0.0467870  -0.4618629   0.0000000), wk =   0.0011898
        k( 1134) = (   0.0467870  -0.4605536   0.0000000), wk =   0.0011898
        k( 1135) = (   0.0467870  -0.4592442   0.0000000), wk =   0.0011898
        k( 1136) = (   0.0467870  -0.4579349   0.0000000), wk =   0.0011898
        k( 1137) = (   0.0467870  -0.4566255   0.0000000), wk =   0.0011898
        k( 1138) = (   0.0467870  -0.4553162   0.0000000), wk =   0.0011898
        k( 1139) = (   0.0467870  -0.4540068   0.0000000), wk =   0.0011898
        k( 1140) = (   0.0467870  -0.4526975   0.0000000), wk =   0.0011898
        k( 1141) = (   0.0467870  -0.4513882   0.0000000), wk =   0.0011898
        k( 1142) = (   0.0467870  -0.4500788   0.0000000), wk =   0.0011898
        k( 1143) = (   0.0467870  -0.4487695   0.0000000), wk =   0.0011898
        k( 1144) = (   0.0467870  -0.4474601   0.0000000), wk =   0.0011898
        k( 1145) = (   0.0467870  -0.4461508   0.0000000), wk =   0.0011898
        k( 1146) = (   0.0467870  -0.4448415   0.0000000), wk =   0.0011898
        k( 1147) = (   0.0467870  -0.4435321   0.0000000), wk =   0.0011898
        k( 1148) = (   0.0467870  -0.4422228   0.0000000), wk =   0.0011898
        k( 1149) = (   0.0487870  -0.4935964   0.0000000), wk =   0.0011898
        k( 1150) = (   0.0487870  -0.4922871   0.0000000), wk =   0.0011898
        k( 1151) = (   0.0487870  -0.4909778   0.0000000), wk =   0.0011898
        k( 1152) = (   0.0487870  -0.4896684   0.0000000), wk =   0.0011898
        k( 1153) = (   0.0487870  -0.4883591   0.0000000), wk =   0.0011898
        k( 1154) = (   0.0487870  -0.4870497   0.0000000), wk =   0.0011898
        k( 1155) = (   0.0487870  -0.4857404   0.0000000), wk =   0.0011898
        k( 1156) = (   0.0487870  -0.4844310   0.0000000), wk =   0.0011898
        k( 1157) = (   0.0487870  -0.4831217   0.0000000), wk =   0.0011898
        k( 1158) = (   0.0487870  -0.4818124   0.0000000), wk =   0.0011898
        k( 1159) = (   0.0487870  -0.4805030   0.0000000), wk =   0.0011898
        k( 1160) = (   0.0487870  -0.4791937   0.0000000), wk =   0.0011898
        k( 1161) = (   0.0487870  -0.4778843   0.0000000), wk =   0.0011898
        k( 1162) = (   0.0487870  -0.4765750   0.0000000), wk =   0.0011898
        k( 1163) = (   0.0487870  -0.4752657   0.0000000), wk =   0.0011898
        k( 1164) = (   0.0487870  -0.4739563   0.0000000), wk =   0.0011898
        k( 1165) = (   0.0487870  -0.4726470   0.0000000), wk =   0.0011898
        k( 1166) = (   0.0487870  -0.4713376   0.0000000), wk =   0.0011898
        k( 1167) = (   0.0487870  -0.4700283   0.0000000), wk =   0.0011898
        k( 1168) = (   0.0487870  -0.4687189   0.0000000), wk =   0.0011898
        k( 1169) = (   0.0487870  -0.4674096   0.0000000), wk =   0.0011898
        k( 1170) = (   0.0487870  -0.4661003   0.0000000), wk =   0.0011898
        k( 1171) = (   0.0487870  -0.4647909   0.0000000), wk =   0.0011898
        k( 1172) = (   0.0487870  -0.4634816   0.0000000), wk =   0.0011898
        k( 1173) = (   0.0487870  -0.4621722   0.0000000), wk =   0.0011898
        k( 1174) = (   0.0487870  -0.4608629   0.0000000), wk =   0.0011898
        k( 1175) = (   0.0487870  -0.4595536   0.0000000), wk =   0.0011898
        k( 1176) = (   0.0487870  -0.4582442   0.0000000), wk =   0.0011898
        k( 1177) = (   0.0487870  -0.4569349   0.0000000), wk =   0.0011898
        k( 1178) = (   0.0487870  -0.4556255   0.0000000), wk =   0.0011898
        k( 1179) = (   0.0487870  -0.4543162   0.0000000), wk =   0.0011898
        k( 1180) = (   0.0487870  -0.4530068   0.0000000), wk =   0.0011898
        k( 1181) = (   0.0487870  -0.4516975   0.0000000), wk =   0.0011898
        k( 1182) = (   0.0487870  -0.4503882   0.0000000), wk =   0.0011898
        k( 1183) = (   0.0487870  -0.4490788   0.0000000), wk =   0.0011898
        k( 1184) = (   0.0487870  -0.4477695   0.0000000), wk =   0.0011898
        k( 1185) = (   0.0487870  -0.4464601   0.0000000), wk =   0.0011898
        k( 1186) = (   0.0487870  -0.4451508   0.0000000), wk =   0.0011898
        k( 1187) = (   0.0487870  -0.4438415   0.0000000), wk =   0.0011898
        k( 1188) = (   0.0487870  -0.4425321   0.0000000), wk =   0.0011898
        k( 1189) = (   0.0487870  -0.4412228   0.0000000), wk =   0.0011898
        k( 1190) = (   0.0507870  -0.4925964   0.0000000), wk =   0.0011898
        k( 1191) = (   0.0507870  -0.4912871   0.0000000), wk =   0.0011898
        k( 1192) = (   0.0507870  -0.4899778   0.0000000), wk =   0.0011898
        k( 1193) = (   0.0507870  -0.4886684   0.0000000), wk =   0.0011898
        k( 1194) = (   0.0507870  -0.4873591   0.0000000), wk =   0.0011898
        k( 1195) = (   0.0507870  -0.4860497   0.0000000), wk =   0.0011898
        k( 1196) = (   0.0507870  -0.4847404   0.0000000), wk =   0.0011898
        k( 1197) = (   0.0507870  -0.4834310   0.0000000), wk =   0.0011898
        k( 1198) = (   0.0507870  -0.4821217   0.0000000), wk =   0.0011898
        k( 1199) = (   0.0507870  -0.4808124   0.0000000), wk =   0.0011898
        k( 1200) = (   0.0507870  -0.4795030   0.0000000), wk =   0.0011898
        k( 1201) = (   0.0507870  -0.4781937   0.0000000), wk =   0.0011898
        k( 1202) = (   0.0507870  -0.4768843   0.0000000), wk =   0.0011898
        k( 1203) = (   0.0507870  -0.4755750   0.0000000), wk =   0.0011898
        k( 1204) = (   0.0507870  -0.4742657   0.0000000), wk =   0.0011898
        k( 1205) = (   0.0507870  -0.4729563   0.0000000), wk =   0.0011898
        k( 1206) = (   0.0507870  -0.4716470   0.0000000), wk =   0.0011898
        k( 1207) = (   0.0507870  -0.4703376   0.0000000), wk =   0.0011898
        k( 1208) = (   0.0507870  -0.4690283   0.0000000), wk =   0.0011898
        k( 1209) = (   0.0507870  -0.4677189   0.0000000), wk =   0.0011898
        k( 1210) = (   0.0507870  -0.4664096   0.0000000), wk =   0.0011898
        k( 1211) = (   0.0507870  -0.4651003   0.0000000), wk =   0.0011898
        k( 1212) = (   0.0507870  -0.4637909   0.0000000), wk =   0.0011898
        k( 1213) = (   0.0507870  -0.4624816   0.0000000), wk =   0.0011898
        k( 1214) = (   0.0507870  -0.4611722   0.0000000), wk =   0.0011898
        k( 1215) = (   0.0507870  -0.4598629   0.0000000), wk =   0.0011898
        k( 1216) = (   0.0507870  -0.4585536   0.0000000), wk =   0.0011898
        k( 1217) = (   0.0507870  -0.4572442   0.0000000), wk =   0.0011898
        k( 1218) = (   0.0507870  -0.4559349   0.0000000), wk =   0.0011898
        k( 1219) = (   0.0507870  -0.4546255   0.0000000), wk =   0.0011898
        k( 1220) = (   0.0507870  -0.4533162   0.0000000), wk =   0.0011898
        k( 1221) = (   0.0507870  -0.4520068   0.0000000), wk =   0.0011898
        k( 1222) = (   0.0507870  -0.4506975   0.0000000), wk =   0.0011898
        k( 1223) = (   0.0507870  -0.4493882   0.0000000), wk =   0.0011898
        k( 1224) = (   0.0507870  -0.4480788   0.0000000), wk =   0.0011898
        k( 1225) = (   0.0507870  -0.4467695   0.0000000), wk =   0.0011898
        k( 1226) = (   0.0507870  -0.4454601   0.0000000), wk =   0.0011898
        k( 1227) = (   0.0507870  -0.4441508   0.0000000), wk =   0.0011898
        k( 1228) = (   0.0507870  -0.4428415   0.0000000), wk =   0.0011898
        k( 1229) = (   0.0507870  -0.4415321   0.0000000), wk =   0.0011898
        k( 1230) = (   0.0507870  -0.4402228   0.0000000), wk =   0.0011898
        k( 1231) = (   0.0527870  -0.4915964   0.0000000), wk =   0.0011898
        k( 1232) = (   0.0527870  -0.4902871   0.0000000), wk =   0.0011898
        k( 1233) = (   0.0527870  -0.4889778   0.0000000), wk =   0.0011898
        k( 1234) = (   0.0527870  -0.4876684   0.0000000), wk =   0.0011898
        k( 1235) = (   0.0527870  -0.4863591   0.0000000), wk =   0.0011898
        k( 1236) = (   0.0527870  -0.4850497   0.0000000), wk =   0.0011898
        k( 1237) = (   0.0527870  -0.4837404   0.0000000), wk =   0.0011898
        k( 1238) = (   0.0527870  -0.4824310   0.0000000), wk =   0.0011898
        k( 1239) = (   0.0527870  -0.4811217   0.0000000), wk =   0.0011898
        k( 1240) = (   0.0527870  -0.4798124   0.0000000), wk =   0.0011898
        k( 1241) = (   0.0527870  -0.4785030   0.0000000), wk =   0.0011898
        k( 1242) = (   0.0527870  -0.4771937   0.0000000), wk =   0.0011898
        k( 1243) = (   0.0527870  -0.4758843   0.0000000), wk =   0.0011898
        k( 1244) = (   0.0527870  -0.4745750   0.0000000), wk =   0.0011898
        k( 1245) = (   0.0527870  -0.4732657   0.0000000), wk =   0.0011898
        k( 1246) = (   0.0527870  -0.4719563   0.0000000), wk =   0.0011898
        k( 1247) = (   0.0527870  -0.4706470   0.0000000), wk =   0.0011898
        k( 1248) = (   0.0527870  -0.4693376   0.0000000), wk =   0.0011898
        k( 1249) = (   0.0527870  -0.4680283   0.0000000), wk =   0.0011898
        k( 1250) = (   0.0527870  -0.4667189   0.0000000), wk =   0.0011898
        k( 1251) = (   0.0527870  -0.4654096   0.0000000), wk =   0.0011898
        k( 1252) = (   0.0527870  -0.4641003   0.0000000), wk =   0.0011898
        k( 1253) = (   0.0527870  -0.4627909   0.0000000), wk =   0.0011898
        k( 1254) = (   0.0527870  -0.4614816   0.0000000), wk =   0.0011898
        k( 1255) = (   0.0527870  -0.4601722   0.0000000), wk =   0.0011898
        k( 1256) = (   0.0527870  -0.4588629   0.0000000), wk =   0.0011898
        k( 1257) = (   0.0527870  -0.4575536   0.0000000), wk =   0.0011898
        k( 1258) = (   0.0527870  -0.4562442   0.0000000), wk =   0.0011898
        k( 1259) = (   0.0527870  -0.4549349   0.0000000), wk =   0.0011898
        k( 1260) = (   0.0527870  -0.4536255   0.0000000), wk =   0.0011898
        k( 1261) = (   0.0527870  -0.4523162   0.0000000), wk =   0.0011898
        k( 1262) = (   0.0527870  -0.4510068   0.0000000), wk =   0.0011898
        k( 1263) = (   0.0527870  -0.4496975   0.0000000), wk =   0.0011898
        k( 1264) = (   0.0527870  -0.4483882   0.0000000), wk =   0.0011898
        k( 1265) = (   0.0527870  -0.4470788   0.0000000), wk =   0.0011898
        k( 1266) = (   0.0527870  -0.4457695   0.0000000), wk =   0.0011898
        k( 1267) = (   0.0527870  -0.4444601   0.0000000), wk =   0.0011898
        k( 1268) = (   0.0527870  -0.4431508   0.0000000), wk =   0.0011898
        k( 1269) = (   0.0527870  -0.4418415   0.0000000), wk =   0.0011898
        k( 1270) = (   0.0527870  -0.4405321   0.0000000), wk =   0.0011898
        k( 1271) = (   0.0527870  -0.4392228   0.0000000), wk =   0.0011898
        k( 1272) = (   0.0547870  -0.4905964   0.0000000), wk =   0.0011898
        k( 1273) = (   0.0547870  -0.4892871   0.0000000), wk =   0.0011898
        k( 1274) = (   0.0547870  -0.4879778   0.0000000), wk =   0.0011898
        k( 1275) = (   0.0547870  -0.4866684   0.0000000), wk =   0.0011898
        k( 1276) = (   0.0547870  -0.4853591   0.0000000), wk =   0.0011898
        k( 1277) = (   0.0547870  -0.4840497   0.0000000), wk =   0.0011898
        k( 1278) = (   0.0547870  -0.4827404   0.0000000), wk =   0.0011898
        k( 1279) = (   0.0547870  -0.4814310   0.0000000), wk =   0.0011898
        k( 1280) = (   0.0547870  -0.4801217   0.0000000), wk =   0.0011898
        k( 1281) = (   0.0547870  -0.4788124   0.0000000), wk =   0.0011898
        k( 1282) = (   0.0547870  -0.4775030   0.0000000), wk =   0.0011898
        k( 1283) = (   0.0547870  -0.4761937   0.0000000), wk =   0.0011898
        k( 1284) = (   0.0547870  -0.4748843   0.0000000), wk =   0.0011898
        k( 1285) = (   0.0547870  -0.4735750   0.0000000), wk =   0.0011898
        k( 1286) = (   0.0547870  -0.4722657   0.0000000), wk =   0.0011898
        k( 1287) = (   0.0547870  -0.4709563   0.0000000), wk =   0.0011898
        k( 1288) = (   0.0547870  -0.4696470   0.0000000), wk =   0.0011898
        k( 1289) = (   0.0547870  -0.4683376   0.0000000), wk =   0.0011898
        k( 1290) = (   0.0547870  -0.4670283   0.0000000), wk =   0.0011898
        k( 1291) = (   0.0547870  -0.4657189   0.0000000), wk =   0.0011898
        k( 1292) = (   0.0547870  -0.4644096   0.0000000), wk =   0.0011898
        k( 1293) = (   0.0547870  -0.4631003   0.0000000), wk =   0.0011898
        k( 1294) = (   0.0547870  -0.4617909   0.0000000), wk =   0.0011898
        k( 1295) = (   0.0547870  -0.4604816   0.0000000), wk =   0.0011898
        k( 1296) = (   0.0547870  -0.4591722   0.0000000), wk =   0.0011898
        k( 1297) = (   0.0547870  -0.4578629   0.0000000), wk =   0.0011898
        k( 1298) = (   0.0547870  -0.4565536   0.0000000), wk =   0.0011898
        k( 1299) = (   0.0547870  -0.4552442   0.0000000), wk =   0.0011898
        k( 1300) = (   0.0547870  -0.4539349   0.0000000), wk =   0.0011898
        k( 1301) = (   0.0547870  -0.4526255   0.0000000), wk =   0.0011898
        k( 1302) = (   0.0547870  -0.4513162   0.0000000), wk =   0.0011898
        k( 1303) = (   0.0547870  -0.4500068   0.0000000), wk =   0.0011898
        k( 1304) = (   0.0547870  -0.4486975   0.0000000), wk =   0.0011898
        k( 1305) = (   0.0547870  -0.4473882   0.0000000), wk =   0.0011898
        k( 1306) = (   0.0547870  -0.4460788   0.0000000), wk =   0.0011898
        k( 1307) = (   0.0547870  -0.4447695   0.0000000), wk =   0.0011898
        k( 1308) = (   0.0547870  -0.4434601   0.0000000), wk =   0.0011898
        k( 1309) = (   0.0547870  -0.4421508   0.0000000), wk =   0.0011898
        k( 1310) = (   0.0547870  -0.4408415   0.0000000), wk =   0.0011898
        k( 1311) = (   0.0547870  -0.4395321   0.0000000), wk =   0.0011898
        k( 1312) = (   0.0547870  -0.4382228   0.0000000), wk =   0.0011898
        k( 1313) = (   0.0567870  -0.4895964   0.0000000), wk =   0.0011898
        k( 1314) = (   0.0567870  -0.4882871   0.0000000), wk =   0.0011898
        k( 1315) = (   0.0567870  -0.4869778   0.0000000), wk =   0.0011898
        k( 1316) = (   0.0567870  -0.4856684   0.0000000), wk =   0.0011898
        k( 1317) = (   0.0567870  -0.4843591   0.0000000), wk =   0.0011898
        k( 1318) = (   0.0567870  -0.4830497   0.0000000), wk =   0.0011898
        k( 1319) = (   0.0567870  -0.4817404   0.0000000), wk =   0.0011898
        k( 1320) = (   0.0567870  -0.4804310   0.0000000), wk =   0.0011898
        k( 1321) = (   0.0567870  -0.4791217   0.0000000), wk =   0.0011898
        k( 1322) = (   0.0567870  -0.4778124   0.0000000), wk =   0.0011898
        k( 1323) = (   0.0567870  -0.4765030   0.0000000), wk =   0.0011898
        k( 1324) = (   0.0567870  -0.4751937   0.0000000), wk =   0.0011898
        k( 1325) = (   0.0567870  -0.4738843   0.0000000), wk =   0.0011898
        k( 1326) = (   0.0567870  -0.4725750   0.0000000), wk =   0.0011898
        k( 1327) = (   0.0567870  -0.4712657   0.0000000), wk =   0.0011898
        k( 1328) = (   0.0567870  -0.4699563   0.0000000), wk =   0.0011898
        k( 1329) = (   0.0567870  -0.4686470   0.0000000), wk =   0.0011898
        k( 1330) = (   0.0567870  -0.4673376   0.0000000), wk =   0.0011898
        k( 1331) = (   0.0567870  -0.4660283   0.0000000), wk =   0.0011898
        k( 1332) = (   0.0567870  -0.4647189   0.0000000), wk =   0.0011898
        k( 1333) = (   0.0567870  -0.4634096   0.0000000), wk =   0.0011898
        k( 1334) = (   0.0567870  -0.4621003   0.0000000), wk =   0.0011898
        k( 1335) = (   0.0567870  -0.4607909   0.0000000), wk =   0.0011898
        k( 1336) = (   0.0567870  -0.4594816   0.0000000), wk =   0.0011898
        k( 1337) = (   0.0567870  -0.4581722   0.0000000), wk =   0.0011898
        k( 1338) = (   0.0567870  -0.4568629   0.0000000), wk =   0.0011898
        k( 1339) = (   0.0567870  -0.4555536   0.0000000), wk =   0.0011898
        k( 1340) = (   0.0567870  -0.4542442   0.0000000), wk =   0.0011898
        k( 1341) = (   0.0567870  -0.4529349   0.0000000), wk =   0.0011898
        k( 1342) = (   0.0567870  -0.4516255   0.0000000), wk =   0.0011898
        k( 1343) = (   0.0567870  -0.4503162   0.0000000), wk =   0.0011898
        k( 1344) = (   0.0567870  -0.4490068   0.0000000), wk =   0.0011898
        k( 1345) = (   0.0567870  -0.4476975   0.0000000), wk =   0.0011898
        k( 1346) = (   0.0567870  -0.4463882   0.0000000), wk =   0.0011898
        k( 1347) = (   0.0567870  -0.4450788   0.0000000), wk =   0.0011898
        k( 1348) = (   0.0567870  -0.4437695   0.0000000), wk =   0.0011898
        k( 1349) = (   0.0567870  -0.4424601   0.0000000), wk =   0.0011898
        k( 1350) = (   0.0567870  -0.4411508   0.0000000), wk =   0.0011898
        k( 1351) = (   0.0567870  -0.4398415   0.0000000), wk =   0.0011898
        k( 1352) = (   0.0567870  -0.4385321   0.0000000), wk =   0.0011898
        k( 1353) = (   0.0567870  -0.4372228   0.0000000), wk =   0.0011898
        k( 1354) = (   0.0587870  -0.4885964   0.0000000), wk =   0.0011898
        k( 1355) = (   0.0587870  -0.4872871   0.0000000), wk =   0.0011898
        k( 1356) = (   0.0587870  -0.4859778   0.0000000), wk =   0.0011898
        k( 1357) = (   0.0587870  -0.4846684   0.0000000), wk =   0.0011898
        k( 1358) = (   0.0587870  -0.4833591   0.0000000), wk =   0.0011898
        k( 1359) = (   0.0587870  -0.4820497   0.0000000), wk =   0.0011898
        k( 1360) = (   0.0587870  -0.4807404   0.0000000), wk =   0.0011898
        k( 1361) = (   0.0587870  -0.4794310   0.0000000), wk =   0.0011898
        k( 1362) = (   0.0587870  -0.4781217   0.0000000), wk =   0.0011898
        k( 1363) = (   0.0587870  -0.4768124   0.0000000), wk =   0.0011898
        k( 1364) = (   0.0587870  -0.4755030   0.0000000), wk =   0.0011898
        k( 1365) = (   0.0587870  -0.4741937   0.0000000), wk =   0.0011898
        k( 1366) = (   0.0587870  -0.4728843   0.0000000), wk =   0.0011898
        k( 1367) = (   0.0587870  -0.4715750   0.0000000), wk =   0.0011898
        k( 1368) = (   0.0587870  -0.4702657   0.0000000), wk =   0.0011898
        k( 1369) = (   0.0587870  -0.4689563   0.0000000), wk =   0.0011898
        k( 1370) = (   0.0587870  -0.4676470   0.0000000), wk =   0.0011898
        k( 1371) = (   0.0587870  -0.4663376   0.0000000), wk =   0.0011898
        k( 1372) = (   0.0587870  -0.4650283   0.0000000), wk =   0.0011898
        k( 1373) = (   0.0587870  -0.4637189   0.0000000), wk =   0.0011898
        k( 1374) = (   0.0587870  -0.4624096   0.0000000), wk =   0.0011898
        k( 1375) = (   0.0587870  -0.4611003   0.0000000), wk =   0.0011898
        k( 1376) = (   0.0587870  -0.4597909   0.0000000), wk =   0.0011898
        k( 1377) = (   0.0587870  -0.4584816   0.0000000), wk =   0.0011898
        k( 1378) = (   0.0587870  -0.4571722   0.0000000), wk =   0.0011898
        k( 1379) = (   0.0587870  -0.4558629   0.0000000), wk =   0.0011898
        k( 1380) = (   0.0587870  -0.4545536   0.0000000), wk =   0.0011898
        k( 1381) = (   0.0587870  -0.4532442   0.0000000), wk =   0.0011898
        k( 1382) = (   0.0587870  -0.4519349   0.0000000), wk =   0.0011898
        k( 1383) = (   0.0587870  -0.4506255   0.0000000), wk =   0.0011898
        k( 1384) = (   0.0587870  -0.4493162   0.0000000), wk =   0.0011898
        k( 1385) = (   0.0587870  -0.4480068   0.0000000), wk =   0.0011898
        k( 1386) = (   0.0587870  -0.4466975   0.0000000), wk =   0.0011898
        k( 1387) = (   0.0587870  -0.4453882   0.0000000), wk =   0.0011898
        k( 1388) = (   0.0587870  -0.4440788   0.0000000), wk =   0.0011898
        k( 1389) = (   0.0587870  -0.4427695   0.0000000), wk =   0.0011898
        k( 1390) = (   0.0587870  -0.4414601   0.0000000), wk =   0.0011898
        k( 1391) = (   0.0587870  -0.4401508   0.0000000), wk =   0.0011898
        k( 1392) = (   0.0587870  -0.4388415   0.0000000), wk =   0.0011898
        k( 1393) = (   0.0587870  -0.4375321   0.0000000), wk =   0.0011898
        k( 1394) = (   0.0587870  -0.4362228   0.0000000), wk =   0.0011898
        k( 1395) = (   0.0607870  -0.4875964   0.0000000), wk =   0.0011898
        k( 1396) = (   0.0607870  -0.4862871   0.0000000), wk =   0.0011898
        k( 1397) = (   0.0607870  -0.4849778   0.0000000), wk =   0.0011898
        k( 1398) = (   0.0607870  -0.4836684   0.0000000), wk =   0.0011898
        k( 1399) = (   0.0607870  -0.4823591   0.0000000), wk =   0.0011898
        k( 1400) = (   0.0607870  -0.4810497   0.0000000), wk =   0.0011898
        k( 1401) = (   0.0607870  -0.4797404   0.0000000), wk =   0.0011898
        k( 1402) = (   0.0607870  -0.4784310   0.0000000), wk =   0.0011898
        k( 1403) = (   0.0607870  -0.4771217   0.0000000), wk =   0.0011898
        k( 1404) = (   0.0607870  -0.4758124   0.0000000), wk =   0.0011898
        k( 1405) = (   0.0607870  -0.4745030   0.0000000), wk =   0.0011898
        k( 1406) = (   0.0607870  -0.4731937   0.0000000), wk =   0.0011898
        k( 1407) = (   0.0607870  -0.4718843   0.0000000), wk =   0.0011898
        k( 1408) = (   0.0607870  -0.4705750   0.0000000), wk =   0.0011898
        k( 1409) = (   0.0607870  -0.4692657   0.0000000), wk =   0.0011898
        k( 1410) = (   0.0607870  -0.4679563   0.0000000), wk =   0.0011898
        k( 1411) = (   0.0607870  -0.4666470   0.0000000), wk =   0.0011898
        k( 1412) = (   0.0607870  -0.4653376   0.0000000), wk =   0.0011898
        k( 1413) = (   0.0607870  -0.4640283   0.0000000), wk =   0.0011898
        k( 1414) = (   0.0607870  -0.4627189   0.0000000), wk =   0.0011898
        k( 1415) = (   0.0607870  -0.4614096   0.0000000), wk =   0.0011898
        k( 1416) = (   0.0607870  -0.4601003   0.0000000), wk =   0.0011898
        k( 1417) = (   0.0607870  -0.4587909   0.0000000), wk =   0.0011898
        k( 1418) = (   0.0607870  -0.4574816   0.0000000), wk =   0.0011898
        k( 1419) = (   0.0607870  -0.4561722   0.0000000), wk =   0.0011898
        k( 1420) = (   0.0607870  -0.4548629   0.0000000), wk =   0.0011898
        k( 1421) = (   0.0607870  -0.4535536   0.0000000), wk =   0.0011898
        k( 1422) = (   0.0607870  -0.4522442   0.0000000), wk =   0.0011898
        k( 1423) = (   0.0607870  -0.4509349   0.0000000), wk =   0.0011898
        k( 1424) = (   0.0607870  -0.4496255   0.0000000), wk =   0.0011898
        k( 1425) = (   0.0607870  -0.4483162   0.0000000), wk =   0.0011898
        k( 1426) = (   0.0607870  -0.4470068   0.0000000), wk =   0.0011898
        k( 1427) = (   0.0607870  -0.4456975   0.0000000), wk =   0.0011898
        k( 1428) = (   0.0607870  -0.4443882   0.0000000), wk =   0.0011898
        k( 1429) = (   0.0607870  -0.4430788   0.0000000), wk =   0.0011898
        k( 1430) = (   0.0607870  -0.4417695   0.0000000), wk =   0.0011898
        k( 1431) = (   0.0607870  -0.4404601   0.0000000), wk =   0.0011898
        k( 1432) = (   0.0607870  -0.4391508   0.0000000), wk =   0.0011898
        k( 1433) = (   0.0607870  -0.4378415   0.0000000), wk =   0.0011898
        k( 1434) = (   0.0607870  -0.4365321   0.0000000), wk =   0.0011898
        k( 1435) = (   0.0607870  -0.4352228   0.0000000), wk =   0.0011898
        k( 1436) = (   0.0627870  -0.4865964   0.0000000), wk =   0.0011898
        k( 1437) = (   0.0627870  -0.4852871   0.0000000), wk =   0.0011898
        k( 1438) = (   0.0627870  -0.4839778   0.0000000), wk =   0.0011898
        k( 1439) = (   0.0627870  -0.4826684   0.0000000), wk =   0.0011898
        k( 1440) = (   0.0627870  -0.4813591   0.0000000), wk =   0.0011898
        k( 1441) = (   0.0627870  -0.4800497   0.0000000), wk =   0.0011898
        k( 1442) = (   0.0627870  -0.4787404   0.0000000), wk =   0.0011898
        k( 1443) = (   0.0627870  -0.4774310   0.0000000), wk =   0.0011898
        k( 1444) = (   0.0627870  -0.4761217   0.0000000), wk =   0.0011898
        k( 1445) = (   0.0627870  -0.4748124   0.0000000), wk =   0.0011898
        k( 1446) = (   0.0627870  -0.4735030   0.0000000), wk =   0.0011898
        k( 1447) = (   0.0627870  -0.4721937   0.0000000), wk =   0.0011898
        k( 1448) = (   0.0627870  -0.4708843   0.0000000), wk =   0.0011898
        k( 1449) = (   0.0627870  -0.4695750   0.0000000), wk =   0.0011898
        k( 1450) = (   0.0627870  -0.4682657   0.0000000), wk =   0.0011898
        k( 1451) = (   0.0627870  -0.4669563   0.0000000), wk =   0.0011898
        k( 1452) = (   0.0627870  -0.4656470   0.0000000), wk =   0.0011898
        k( 1453) = (   0.0627870  -0.4643376   0.0000000), wk =   0.0011898
        k( 1454) = (   0.0627870  -0.4630283   0.0000000), wk =   0.0011898
        k( 1455) = (   0.0627870  -0.4617189   0.0000000), wk =   0.0011898
        k( 1456) = (   0.0627870  -0.4604096   0.0000000), wk =   0.0011898
        k( 1457) = (   0.0627870  -0.4591003   0.0000000), wk =   0.0011898
        k( 1458) = (   0.0627870  -0.4577909   0.0000000), wk =   0.0011898
        k( 1459) = (   0.0627870  -0.4564816   0.0000000), wk =   0.0011898
        k( 1460) = (   0.0627870  -0.4551722   0.0000000), wk =   0.0011898
        k( 1461) = (   0.0627870  -0.4538629   0.0000000), wk =   0.0011898
        k( 1462) = (   0.0627870  -0.4525536   0.0000000), wk =   0.0011898
        k( 1463) = (   0.0627870  -0.4512442   0.0000000), wk =   0.0011898
        k( 1464) = (   0.0627870  -0.4499349   0.0000000), wk =   0.0011898
        k( 1465) = (   0.0627870  -0.4486255   0.0000000), wk =   0.0011898
        k( 1466) = (   0.0627870  -0.4473162   0.0000000), wk =   0.0011898
        k( 1467) = (   0.0627870  -0.4460068   0.0000000), wk =   0.0011898
        k( 1468) = (   0.0627870  -0.4446975   0.0000000), wk =   0.0011898
        k( 1469) = (   0.0627870  -0.4433882   0.0000000), wk =   0.0011898
        k( 1470) = (   0.0627870  -0.4420788   0.0000000), wk =   0.0011898
        k( 1471) = (   0.0627870  -0.4407695   0.0000000), wk =   0.0011898
        k( 1472) = (   0.0627870  -0.4394601   0.0000000), wk =   0.0011898
        k( 1473) = (   0.0627870  -0.4381508   0.0000000), wk =   0.0011898
        k( 1474) = (   0.0627870  -0.4368415   0.0000000), wk =   0.0011898
        k( 1475) = (   0.0627870  -0.4355321   0.0000000), wk =   0.0011898
        k( 1476) = (   0.0627870  -0.4342228   0.0000000), wk =   0.0011898
        k( 1477) = (   0.0647870  -0.4855964   0.0000000), wk =   0.0011898
        k( 1478) = (   0.0647870  -0.4842871   0.0000000), wk =   0.0011898
        k( 1479) = (   0.0647870  -0.4829778   0.0000000), wk =   0.0011898
        k( 1480) = (   0.0647870  -0.4816684   0.0000000), wk =   0.0011898
        k( 1481) = (   0.0647870  -0.4803591   0.0000000), wk =   0.0011898
        k( 1482) = (   0.0647870  -0.4790497   0.0000000), wk =   0.0011898
        k( 1483) = (   0.0647870  -0.4777404   0.0000000), wk =   0.0011898
        k( 1484) = (   0.0647870  -0.4764310   0.0000000), wk =   0.0011898
        k( 1485) = (   0.0647870  -0.4751217   0.0000000), wk =   0.0011898
        k( 1486) = (   0.0647870  -0.4738124   0.0000000), wk =   0.0011898
        k( 1487) = (   0.0647870  -0.4725030   0.0000000), wk =   0.0011898
        k( 1488) = (   0.0647870  -0.4711937   0.0000000), wk =   0.0011898
        k( 1489) = (   0.0647870  -0.4698843   0.0000000), wk =   0.0011898
        k( 1490) = (   0.0647870  -0.4685750   0.0000000), wk =   0.0011898
        k( 1491) = (   0.0647870  -0.4672657   0.0000000), wk =   0.0011898
        k( 1492) = (   0.0647870  -0.4659563   0.0000000), wk =   0.0011898
        k( 1493) = (   0.0647870  -0.4646470   0.0000000), wk =   0.0011898
        k( 1494) = (   0.0647870  -0.4633376   0.0000000), wk =   0.0011898
        k( 1495) = (   0.0647870  -0.4620283   0.0000000), wk =   0.0011898
        k( 1496) = (   0.0647870  -0.4607189   0.0000000), wk =   0.0011898
        k( 1497) = (   0.0647870  -0.4594096   0.0000000), wk =   0.0011898
        k( 1498) = (   0.0647870  -0.4581003   0.0000000), wk =   0.0011898
        k( 1499) = (   0.0647870  -0.4567909   0.0000000), wk =   0.0011898
        k( 1500) = (   0.0647870  -0.4554816   0.0000000), wk =   0.0011898
        k( 1501) = (   0.0647870  -0.4541722   0.0000000), wk =   0.0011898
        k( 1502) = (   0.0647870  -0.4528629   0.0000000), wk =   0.0011898
        k( 1503) = (   0.0647870  -0.4515536   0.0000000), wk =   0.0011898
        k( 1504) = (   0.0647870  -0.4502442   0.0000000), wk =   0.0011898
        k( 1505) = (   0.0647870  -0.4489349   0.0000000), wk =   0.0011898
        k( 1506) = (   0.0647870  -0.4476255   0.0000000), wk =   0.0011898
        k( 1507) = (   0.0647870  -0.4463162   0.0000000), wk =   0.0011898
        k( 1508) = (   0.0647870  -0.4450068   0.0000000), wk =   0.0011898
        k( 1509) = (   0.0647870  -0.4436975   0.0000000), wk =   0.0011898
        k( 1510) = (   0.0647870  -0.4423882   0.0000000), wk =   0.0011898
        k( 1511) = (   0.0647870  -0.4410788   0.0000000), wk =   0.0011898
        k( 1512) = (   0.0647870  -0.4397695   0.0000000), wk =   0.0011898
        k( 1513) = (   0.0647870  -0.4384601   0.0000000), wk =   0.0011898
        k( 1514) = (   0.0647870  -0.4371508   0.0000000), wk =   0.0011898
        k( 1515) = (   0.0647870  -0.4358415   0.0000000), wk =   0.0011898
        k( 1516) = (   0.0647870  -0.4345321   0.0000000), wk =   0.0011898
        k( 1517) = (   0.0647870  -0.4332228   0.0000000), wk =   0.0011898
        k( 1518) = (   0.0667870  -0.4845964   0.0000000), wk =   0.0011898
        k( 1519) = (   0.0667870  -0.4832871   0.0000000), wk =   0.0011898
        k( 1520) = (   0.0667870  -0.4819778   0.0000000), wk =   0.0011898
        k( 1521) = (   0.0667870  -0.4806684   0.0000000), wk =   0.0011898
        k( 1522) = (   0.0667870  -0.4793591   0.0000000), wk =   0.0011898
        k( 1523) = (   0.0667870  -0.4780497   0.0000000), wk =   0.0011898
        k( 1524) = (   0.0667870  -0.4767404   0.0000000), wk =   0.0011898
        k( 1525) = (   0.0667870  -0.4754310   0.0000000), wk =   0.0011898
        k( 1526) = (   0.0667870  -0.4741217   0.0000000), wk =   0.0011898
        k( 1527) = (   0.0667870  -0.4728124   0.0000000), wk =   0.0011898
        k( 1528) = (   0.0667870  -0.4715030   0.0000000), wk =   0.0011898
        k( 1529) = (   0.0667870  -0.4701937   0.0000000), wk =   0.0011898
        k( 1530) = (   0.0667870  -0.4688843   0.0000000), wk =   0.0011898
        k( 1531) = (   0.0667870  -0.4675750   0.0000000), wk =   0.0011898
        k( 1532) = (   0.0667870  -0.4662657   0.0000000), wk =   0.0011898
        k( 1533) = (   0.0667870  -0.4649563   0.0000000), wk =   0.0011898
        k( 1534) = (   0.0667870  -0.4636470   0.0000000), wk =   0.0011898
        k( 1535) = (   0.0667870  -0.4623376   0.0000000), wk =   0.0011898
        k( 1536) = (   0.0667870  -0.4610283   0.0000000), wk =   0.0011898
        k( 1537) = (   0.0667870  -0.4597189   0.0000000), wk =   0.0011898
        k( 1538) = (   0.0667870  -0.4584096   0.0000000), wk =   0.0011898
        k( 1539) = (   0.0667870  -0.4571003   0.0000000), wk =   0.0011898
        k( 1540) = (   0.0667870  -0.4557909   0.0000000), wk =   0.0011898
        k( 1541) = (   0.0667870  -0.4544816   0.0000000), wk =   0.0011898
        k( 1542) = (   0.0667870  -0.4531722   0.0000000), wk =   0.0011898
        k( 1543) = (   0.0667870  -0.4518629   0.0000000), wk =   0.0011898
        k( 1544) = (   0.0667870  -0.4505536   0.0000000), wk =   0.0011898
        k( 1545) = (   0.0667870  -0.4492442   0.0000000), wk =   0.0011898
        k( 1546) = (   0.0667870  -0.4479349   0.0000000), wk =   0.0011898
        k( 1547) = (   0.0667870  -0.4466255   0.0000000), wk =   0.0011898
        k( 1548) = (   0.0667870  -0.4453162   0.0000000), wk =   0.0011898
        k( 1549) = (   0.0667870  -0.4440068   0.0000000), wk =   0.0011898
        k( 1550) = (   0.0667870  -0.4426975   0.0000000), wk =   0.0011898
        k( 1551) = (   0.0667870  -0.4413882   0.0000000), wk =   0.0011898
        k( 1552) = (   0.0667870  -0.4400788   0.0000000), wk =   0.0011898
        k( 1553) = (   0.0667870  -0.4387695   0.0000000), wk =   0.0011898
        k( 1554) = (   0.0667870  -0.4374601   0.0000000), wk =   0.0011898
        k( 1555) = (   0.0667870  -0.4361508   0.0000000), wk =   0.0011898
        k( 1556) = (   0.0667870  -0.4348415   0.0000000), wk =   0.0011898
        k( 1557) = (   0.0667870  -0.4335321   0.0000000), wk =   0.0011898
        k( 1558) = (   0.0667870  -0.4322228   0.0000000), wk =   0.0011898
        k( 1559) = (   0.0687870  -0.4835964   0.0000000), wk =   0.0011898
        k( 1560) = (   0.0687870  -0.4822871   0.0000000), wk =   0.0011898
        k( 1561) = (   0.0687870  -0.4809778   0.0000000), wk =   0.0011898
        k( 1562) = (   0.0687870  -0.4796684   0.0000000), wk =   0.0011898
        k( 1563) = (   0.0687870  -0.4783591   0.0000000), wk =   0.0011898
        k( 1564) = (   0.0687870  -0.4770497   0.0000000), wk =   0.0011898
        k( 1565) = (   0.0687870  -0.4757404   0.0000000), wk =   0.0011898
        k( 1566) = (   0.0687870  -0.4744310   0.0000000), wk =   0.0011898
        k( 1567) = (   0.0687870  -0.4731217   0.0000000), wk =   0.0011898
        k( 1568) = (   0.0687870  -0.4718124   0.0000000), wk =   0.0011898
        k( 1569) = (   0.0687870  -0.4705030   0.0000000), wk =   0.0011898
        k( 1570) = (   0.0687870  -0.4691937   0.0000000), wk =   0.0011898
        k( 1571) = (   0.0687870  -0.4678843   0.0000000), wk =   0.0011898
        k( 1572) = (   0.0687870  -0.4665750   0.0000000), wk =   0.0011898
        k( 1573) = (   0.0687870  -0.4652657   0.0000000), wk =   0.0011898
        k( 1574) = (   0.0687870  -0.4639563   0.0000000), wk =   0.0011898
        k( 1575) = (   0.0687870  -0.4626470   0.0000000), wk =   0.0011898
        k( 1576) = (   0.0687870  -0.4613376   0.0000000), wk =   0.0011898
        k( 1577) = (   0.0687870  -0.4600283   0.0000000), wk =   0.0011898
        k( 1578) = (   0.0687870  -0.4587189   0.0000000), wk =   0.0011898
        k( 1579) = (   0.0687870  -0.4574096   0.0000000), wk =   0.0011898
        k( 1580) = (   0.0687870  -0.4561003   0.0000000), wk =   0.0011898
        k( 1581) = (   0.0687870  -0.4547909   0.0000000), wk =   0.0011898
        k( 1582) = (   0.0687870  -0.4534816   0.0000000), wk =   0.0011898
        k( 1583) = (   0.0687870  -0.4521722   0.0000000), wk =   0.0011898
        k( 1584) = (   0.0687870  -0.4508629   0.0000000), wk =   0.0011898
        k( 1585) = (   0.0687870  -0.4495536   0.0000000), wk =   0.0011898
        k( 1586) = (   0.0687870  -0.4482442   0.0000000), wk =   0.0011898
        k( 1587) = (   0.0687870  -0.4469349   0.0000000), wk =   0.0011898
        k( 1588) = (   0.0687870  -0.4456255   0.0000000), wk =   0.0011898
        k( 1589) = (   0.0687870  -0.4443162   0.0000000), wk =   0.0011898
        k( 1590) = (   0.0687870  -0.4430068   0.0000000), wk =   0.0011898
        k( 1591) = (   0.0687870  -0.4416975   0.0000000), wk =   0.0011898
        k( 1592) = (   0.0687870  -0.4403882   0.0000000), wk =   0.0011898
        k( 1593) = (   0.0687870  -0.4390788   0.0000000), wk =   0.0011898
        k( 1594) = (   0.0687870  -0.4377695   0.0000000), wk =   0.0011898
        k( 1595) = (   0.0687870  -0.4364601   0.0000000), wk =   0.0011898
        k( 1596) = (   0.0687870  -0.4351508   0.0000000), wk =   0.0011898
        k( 1597) = (   0.0687870  -0.4338415   0.0000000), wk =   0.0011898
        k( 1598) = (   0.0687870  -0.4325321   0.0000000), wk =   0.0011898
        k( 1599) = (   0.0687870  -0.4312228   0.0000000), wk =   0.0011898
        k( 1600) = (   0.0707870  -0.4825964   0.0000000), wk =   0.0011898
        k( 1601) = (   0.0707870  -0.4812871   0.0000000), wk =   0.0011898
        k( 1602) = (   0.0707870  -0.4799777   0.0000000), wk =   0.0011898
        k( 1603) = (   0.0707870  -0.4786684   0.0000000), wk =   0.0011898
        k( 1604) = (   0.0707870  -0.4773591   0.0000000), wk =   0.0011898
        k( 1605) = (   0.0707870  -0.4760497   0.0000000), wk =   0.0011898
        k( 1606) = (   0.0707870  -0.4747404   0.0000000), wk =   0.0011898
        k( 1607) = (   0.0707870  -0.4734310   0.0000000), wk =   0.0011898
        k( 1608) = (   0.0707870  -0.4721217   0.0000000), wk =   0.0011898
        k( 1609) = (   0.0707870  -0.4708124   0.0000000), wk =   0.0011898
        k( 1610) = (   0.0707870  -0.4695030   0.0000000), wk =   0.0011898
        k( 1611) = (   0.0707870  -0.4681937   0.0000000), wk =   0.0011898
        k( 1612) = (   0.0707870  -0.4668843   0.0000000), wk =   0.0011898
        k( 1613) = (   0.0707870  -0.4655750   0.0000000), wk =   0.0011898
        k( 1614) = (   0.0707870  -0.4642657   0.0000000), wk =   0.0011898
        k( 1615) = (   0.0707870  -0.4629563   0.0000000), wk =   0.0011898
        k( 1616) = (   0.0707870  -0.4616470   0.0000000), wk =   0.0011898
        k( 1617) = (   0.0707870  -0.4603376   0.0000000), wk =   0.0011898
        k( 1618) = (   0.0707870  -0.4590283   0.0000000), wk =   0.0011898
        k( 1619) = (   0.0707870  -0.4577189   0.0000000), wk =   0.0011898
        k( 1620) = (   0.0707870  -0.4564096   0.0000000), wk =   0.0011898
        k( 1621) = (   0.0707870  -0.4551003   0.0000000), wk =   0.0011898
        k( 1622) = (   0.0707870  -0.4537909   0.0000000), wk =   0.0011898
        k( 1623) = (   0.0707870  -0.4524816   0.0000000), wk =   0.0011898
        k( 1624) = (   0.0707870  -0.4511722   0.0000000), wk =   0.0011898
        k( 1625) = (   0.0707870  -0.4498629   0.0000000), wk =   0.0011898
        k( 1626) = (   0.0707870  -0.4485536   0.0000000), wk =   0.0011898
        k( 1627) = (   0.0707870  -0.4472442   0.0000000), wk =   0.0011898
        k( 1628) = (   0.0707870  -0.4459349   0.0000000), wk =   0.0011898
        k( 1629) = (   0.0707870  -0.4446255   0.0000000), wk =   0.0011898
        k( 1630) = (   0.0707870  -0.4433162   0.0000000), wk =   0.0011898
        k( 1631) = (   0.0707870  -0.4420068   0.0000000), wk =   0.0011898
        k( 1632) = (   0.0707870  -0.4406975   0.0000000), wk =   0.0011898
        k( 1633) = (   0.0707870  -0.4393882   0.0000000), wk =   0.0011898
        k( 1634) = (   0.0707870  -0.4380788   0.0000000), wk =   0.0011898
        k( 1635) = (   0.0707870  -0.4367695   0.0000000), wk =   0.0011898
        k( 1636) = (   0.0707870  -0.4354601   0.0000000), wk =   0.0011898
        k( 1637) = (   0.0707870  -0.4341508   0.0000000), wk =   0.0011898
        k( 1638) = (   0.0707870  -0.4328415   0.0000000), wk =   0.0011898
        k( 1639) = (   0.0707870  -0.4315321   0.0000000), wk =   0.0011898
        k( 1640) = (   0.0707870  -0.4302228   0.0000000), wk =   0.0011898
        k( 1641) = (   0.0727870  -0.4815964   0.0000000), wk =   0.0011898
        k( 1642) = (   0.0727870  -0.4802871   0.0000000), wk =   0.0011898
        k( 1643) = (   0.0727870  -0.4789777   0.0000000), wk =   0.0011898
        k( 1644) = (   0.0727870  -0.4776684   0.0000000), wk =   0.0011898
        k( 1645) = (   0.0727870  -0.4763591   0.0000000), wk =   0.0011898
        k( 1646) = (   0.0727870  -0.4750497   0.0000000), wk =   0.0011898
        k( 1647) = (   0.0727870  -0.4737404   0.0000000), wk =   0.0011898
        k( 1648) = (   0.0727870  -0.4724310   0.0000000), wk =   0.0011898
        k( 1649) = (   0.0727870  -0.4711217   0.0000000), wk =   0.0011898
        k( 1650) = (   0.0727870  -0.4698124   0.0000000), wk =   0.0011898
        k( 1651) = (   0.0727870  -0.4685030   0.0000000), wk =   0.0011898
        k( 1652) = (   0.0727870  -0.4671937   0.0000000), wk =   0.0011898
        k( 1653) = (   0.0727870  -0.4658843   0.0000000), wk =   0.0011898
        k( 1654) = (   0.0727870  -0.4645750   0.0000000), wk =   0.0011898
        k( 1655) = (   0.0727870  -0.4632657   0.0000000), wk =   0.0011898
        k( 1656) = (   0.0727870  -0.4619563   0.0000000), wk =   0.0011898
        k( 1657) = (   0.0727870  -0.4606470   0.0000000), wk =   0.0011898
        k( 1658) = (   0.0727870  -0.4593376   0.0000000), wk =   0.0011898
        k( 1659) = (   0.0727870  -0.4580283   0.0000000), wk =   0.0011898
        k( 1660) = (   0.0727870  -0.4567189   0.0000000), wk =   0.0011898
        k( 1661) = (   0.0727870  -0.4554096   0.0000000), wk =   0.0011898
        k( 1662) = (   0.0727870  -0.4541003   0.0000000), wk =   0.0011898
        k( 1663) = (   0.0727870  -0.4527909   0.0000000), wk =   0.0011898
        k( 1664) = (   0.0727870  -0.4514816   0.0000000), wk =   0.0011898
        k( 1665) = (   0.0727870  -0.4501722   0.0000000), wk =   0.0011898
        k( 1666) = (   0.0727870  -0.4488629   0.0000000), wk =   0.0011898
        k( 1667) = (   0.0727870  -0.4475536   0.0000000), wk =   0.0011898
        k( 1668) = (   0.0727870  -0.4462442   0.0000000), wk =   0.0011898
        k( 1669) = (   0.0727870  -0.4449349   0.0000000), wk =   0.0011898
        k( 1670) = (   0.0727870  -0.4436255   0.0000000), wk =   0.0011898
        k( 1671) = (   0.0727870  -0.4423162   0.0000000), wk =   0.0011898
        k( 1672) = (   0.0727870  -0.4410068   0.0000000), wk =   0.0011898
        k( 1673) = (   0.0727870  -0.4396975   0.0000000), wk =   0.0011898
        k( 1674) = (   0.0727870  -0.4383882   0.0000000), wk =   0.0011898
        k( 1675) = (   0.0727870  -0.4370788   0.0000000), wk =   0.0011898
        k( 1676) = (   0.0727870  -0.4357695   0.0000000), wk =   0.0011898
        k( 1677) = (   0.0727870  -0.4344601   0.0000000), wk =   0.0011898
        k( 1678) = (   0.0727870  -0.4331508   0.0000000), wk =   0.0011898
        k( 1679) = (   0.0727870  -0.4318415   0.0000000), wk =   0.0011898
        k( 1680) = (   0.0727870  -0.4305321   0.0000000), wk =   0.0011898
        k( 1681) = (   0.0727870  -0.4292228   0.0000000), wk =   0.0011898

     Dense  grid:    21755 G-vectors     FFT dimensions: (  24,  20, 120)

     Dynamical RAM for                 wfc:       0.33 MB

     Dynamical RAM for     wfc (w. buffer):       0.33 MB

     Dynamical RAM for           str. fact:       0.33 MB

     Dynamical RAM for           local pot:       0.00 MB

     Dynamical RAM for          nlocal pot:       0.66 MB

     Dynamical RAM for                qrad:       0.29 MB

     Dynamical RAM for          rho,v,vnew:       2.31 MB

     Dynamical RAM for           G-vectors:       1.41 MB

     Dynamical RAM for          h,s,v(r/c):       0.01 MB

     Dynamical RAM for          <psi|beta>:       0.00 MB

     Dynamical RAM for                 psi:       0.66 MB

     Dynamical RAM for                hpsi:       0.66 MB

     Dynamical RAM for                spsi:       0.66 MB

     Dynamical RAM for      wfcinit/wfcrot:       0.66 MB

     Dynamical RAM for           addusdens:       2.16 MB

     Estimated static dynamical RAM per process >       8.20 MB

     Estimated max dynamical RAM per process >      10.36 MB

     Estimated total dynamical RAM >      82.88 MB

     Check: negative core charge=   -0.000013

     The potential is recalculated from file :
     ./tmp/graphene26.5lower.save/charge-density


     negative rho (up, down):  1.970E-03 0.000E+00
     Starting wfcs are    8 randomized atomic wfcs
     Checking if some PAW data can be deallocated... 

     Band Structure Calculation
     Davidson diagonalization with overlap

     Computing kpt #:     1  of   211 on this pool
     total cpu time spent up to now is        1.6 secs

     Computing kpt #:     2  of   211 on this pool
     total cpu time spent up to now is        1.7 secs

     Computing kpt #:     3  of   211 on this pool
     total cpu time spent up to now is        1.8 secs

     Computing kpt #:     4  of   211 on this pool
     total cpu time spent up to now is        1.9 secs

     Computing kpt #:     5  of   211 on this pool
     total cpu time spent up to now is        2.0 secs

     Computing kpt #:     6  of   211 on this pool
     total cpu time spent up to now is        2.1 secs

     Computing kpt #:     7  of   211 on this pool
     total cpu time spent up to now is        2.2 secs

     Computing kpt #:     8  of   211 on this pool
     total cpu time spent up to now is        2.3 secs

     Computing kpt #:     9  of   211 on this pool
     total cpu time spent up to now is        2.5 secs

     Computing kpt #:    10  of   211 on this pool
     total cpu time spent up to now is        2.6 secs

     Computing kpt #:    11  of   211 on this pool
     total cpu time spent up to now is        2.7 secs

     Computing kpt #:    12  of   211 on this pool
     total cpu time spent up to now is        2.8 secs

     Computing kpt #:    13  of   211 on this pool
     total cpu time spent up to now is        2.9 secs

     Computing kpt #:    14  of   211 on this pool
     total cpu time spent up to now is        3.0 secs

     Computing kpt #:    15  of   211 on this pool
     total cpu time spent up to now is        3.1 secs

     Computing kpt #:    16  of   211 on this pool
     total cpu time spent up to now is        3.2 secs

     Computing kpt #:    17  of   211 on this pool
     total cpu time spent up to now is        3.3 secs

     Computing kpt #:    18  of   211 on this pool
     total cpu time spent up to now is        3.4 secs

     Computing kpt #:    19  of   211 on this pool
     total cpu time spent up to now is        3.5 secs

     Computing kpt #:    20  of   211 on this pool
     total cpu time spent up to now is        3.6 secs

     Computing kpt #:    21  of   211 on this pool
     total cpu time spent up to now is        3.8 secs

     Computing kpt #:    22  of   211 on this pool
     total cpu time spent up to now is        3.9 secs

     Computing kpt #:    23  of   211 on this pool
     total cpu time spent up to now is        4.0 secs

     Computing kpt #:    24  of   211 on this pool
     total cpu time spent up to now is        4.1 secs

     Computing kpt #:    25  of   211 on this pool
     total cpu time spent up to now is        4.2 secs

     Computing kpt #:    26  of   211 on this pool
     total cpu time spent up to now is        4.3 secs

     Computing kpt #:    27  of   211 on this pool
     total cpu time spent up to now is        4.4 secs

     Computing kpt #:    28  of   211 on this pool
     total cpu time spent up to now is        4.5 secs

     Computing kpt #:    29  of   211 on this pool
     total cpu time spent up to now is        4.6 secs

     Computing kpt #:    30  of   211 on this pool
     total cpu time spent up to now is        4.7 secs

     Computing kpt #:    31  of   211 on this pool
     total cpu time spent up to now is        4.9 secs

     Computing kpt #:    32  of   211 on this pool
     total cpu time spent up to now is        5.0 secs

     Computing kpt #:    33  of   211 on this pool
     total cpu time spent up to now is        5.1 secs

     Computing kpt #:    34  of   211 on this pool
     total cpu time spent up to now is        5.2 secs

     Computing kpt #:    35  of   211 on this pool
     total cpu time spent up to now is        5.3 secs

     Computing kpt #:    36  of   211 on this pool
     total cpu time spent up to now is        5.4 secs

     Computing kpt #:    37  of   211 on this pool
     total cpu time spent up to now is        5.5 secs

     Computing kpt #:    38  of   211 on this pool
     total cpu time spent up to now is        5.6 secs

     Computing kpt #:    39  of   211 on this pool
     total cpu time spent up to now is        5.7 secs

     Computing kpt #:    40  of   211 on this pool
     total cpu time spent up to now is        5.8 secs

     Computing kpt #:    41  of   211 on this pool
     total cpu time spent up to now is        6.0 secs

     Computing kpt #:    42  of   211 on this pool
     total cpu time spent up to now is        6.1 secs

     Computing kpt #:    43  of   211 on this pool
     total cpu time spent up to now is        6.2 secs

     Computing kpt #:    44  of   211 on this pool
     total cpu time spent up to now is        6.3 secs

     Computing kpt #:    45  of   211 on this pool
     total cpu time spent up to now is        6.4 secs

     Computing kpt #:    46  of   211 on this pool
     total cpu time spent up to now is        6.5 secs

     Computing kpt #:    47  of   211 on this pool
     total cpu time spent up to now is        6.6 secs

     Computing kpt #:    48  of   211 on this pool
     total cpu time spent up to now is        6.7 secs

     Computing kpt #:    49  of   211 on this pool
     total cpu time spent up to now is        6.8 secs

     Computing kpt #:    50  of   211 on this pool
     total cpu time spent up to now is        6.9 secs

     Computing kpt #:    51  of   211 on this pool
     total cpu time spent up to now is        7.0 secs

     Computing kpt #:    52  of   211 on this pool
     total cpu time spent up to now is        7.1 secs

     Computing kpt #:    53  of   211 on this pool
     total cpu time spent up to now is        7.2 secs

     Computing kpt #:    54  of   211 on this pool
     total cpu time spent up to now is        7.3 secs

     Computing kpt #:    55  of   211 on this pool
     total cpu time spent up to now is        7.5 secs

     Computing kpt #:    56  of   211 on this pool
     total cpu time spent up to now is        7.6 secs

     Computing kpt #:    57  of   211 on this pool
     total cpu time spent up to now is        7.7 secs

     Computing kpt #:    58  of   211 on this pool
     total cpu time spent up to now is        7.8 secs

     Computing kpt #:    59  of   211 on this pool
     total cpu time spent up to now is        7.9 secs

     Computing kpt #:    60  of   211 on this pool
     total cpu time spent up to now is        8.0 secs

     Computing kpt #:    61  of   211 on this pool
     total cpu time spent up to now is        8.1 secs

     Computing kpt #:    62  of   211 on this pool
     total cpu time spent up to now is        8.2 secs

     Computing kpt #:    63  of   211 on this pool
     total cpu time spent up to now is        8.3 secs

     Computing kpt #:    64  of   211 on this pool
     total cpu time spent up to now is        8.4 secs

     Computing kpt #:    65  of   211 on this pool
     total cpu time spent up to now is        8.5 secs

     Computing kpt #:    66  of   211 on this pool
     total cpu time spent up to now is        8.6 secs

     Computing kpt #:    67  of   211 on this pool
     total cpu time spent up to now is        8.7 secs

     Computing kpt #:    68  of   211 on this pool
     total cpu time spent up to now is        8.9 secs

     Computing kpt #:    69  of   211 on this pool
     total cpu time spent up to now is        9.0 secs

     Computing kpt #:    70  of   211 on this pool
     total cpu time spent up to now is        9.1 secs

     Computing kpt #:    71  of   211 on this pool
     total cpu time spent up to now is        9.2 secs

     Computing kpt #:    72  of   211 on this pool
     total cpu time spent up to now is        9.3 secs

     Computing kpt #:    73  of   211 on this pool
     total cpu time spent up to now is        9.4 secs

     Computing kpt #:    74  of   211 on this pool
     total cpu time spent up to now is        9.5 secs

     Computing kpt #:    75  of   211 on this pool
     total cpu time spent up to now is        9.7 secs

     Computing kpt #:    76  of   211 on this pool
     total cpu time spent up to now is        9.8 secs

     Computing kpt #:    77  of   211 on this pool
     total cpu time spent up to now is        9.9 secs

     Computing kpt #:    78  of   211 on this pool
     total cpu time spent up to now is       10.0 secs

     Computing kpt #:    79  of   211 on this pool
     total cpu time spent up to now is       10.1 secs

     Computing kpt #:    80  of   211 on this pool
     total cpu time spent up to now is       10.2 secs

     Computing kpt #:    81  of   211 on this pool
     total cpu time spent up to now is       10.3 secs

     Computing kpt #:    82  of   211 on this pool
     total cpu time spent up to now is       10.4 secs

     Computing kpt #:    83  of   211 on this pool
     total cpu time spent up to now is       10.5 secs

     Computing kpt #:    84  of   211 on this pool
     total cpu time spent up to now is       10.6 secs

     Computing kpt #:    85  of   211 on this pool
     total cpu time spent up to now is       10.8 secs

     Computing kpt #:    86  of   211 on this pool
     total cpu time spent up to now is       10.9 secs

     Computing kpt #:    87  of   211 on this pool
     total cpu time spent up to now is       11.0 secs

     Computing kpt #:    88  of   211 on this pool
     total cpu time spent up to now is       11.1 secs

     Computing kpt #:    89  of   211 on this pool
     total cpu time spent up to now is       11.2 secs

     Computing kpt #:    90  of   211 on this pool
     total cpu time spent up to now is       11.3 secs

     Computing kpt #:    91  of   211 on this pool
     total cpu time spent up to now is       11.4 secs

     Computing kpt #:    92  of   211 on this pool
     total cpu time spent up to now is       11.5 secs

     Computing kpt #:    93  of   211 on this pool
     total cpu time spent up to now is       11.6 secs

     Computing kpt #:    94  of   211 on this pool
     total cpu time spent up to now is       11.7 secs

     Computing kpt #:    95  of   211 on this pool
     total cpu time spent up to now is       11.8 secs

     Computing kpt #:    96  of   211 on this pool
     total cpu time spent up to now is       11.9 secs

     Computing kpt #:    97  of   211 on this pool
     total cpu time spent up to now is       12.1 secs

     Computing kpt #:    98  of   211 on this pool
     total cpu time spent up to now is       12.2 secs

     Computing kpt #:    99  of   211 on this pool
     total cpu time spent up to now is       12.3 secs

     Computing kpt #:   100  of   211 on this pool
     total cpu time spent up to now is       12.4 secs

     Computing kpt #:   101  of   211 on this pool
     total cpu time spent up to now is       12.5 secs

     Computing kpt #:   102  of   211 on this pool
     total cpu time spent up to now is       12.6 secs

     Computing kpt #:   103  of   211 on this pool
     total cpu time spent up to now is       12.7 secs

     Computing kpt #:   104  of   211 on this pool
     total cpu time spent up to now is       12.8 secs

     Computing kpt #:   105  of   211 on this pool
     total cpu time spent up to now is       12.9 secs

     Computing kpt #:   106  of   211 on this pool
     total cpu time spent up to now is       13.0 secs

     Computing kpt #:   107  of   211 on this pool
     total cpu time spent up to now is       13.1 secs

     Computing kpt #:   108  of   211 on this pool
     total cpu time spent up to now is       13.2 secs

     Computing kpt #:   109  of   211 on this pool
     total cpu time spent up to now is       13.3 secs

     Computing kpt #:   110  of   211 on this pool
     total cpu time spent up to now is       13.4 secs

     Computing kpt #:   111  of   211 on this pool
     total cpu time spent up to now is       13.5 secs

     Computing kpt #:   112  of   211 on this pool
     total cpu time spent up to now is       13.7 secs

     Computing kpt #:   113  of   211 on this pool
     total cpu time spent up to now is       13.8 secs

     Computing kpt #:   114  of   211 on this pool
     total cpu time spent up to now is       13.9 secs

     Computing kpt #:   115  of   211 on this pool
     total cpu time spent up to now is       14.0 secs

     Computing kpt #:   116  of   211 on this pool
     total cpu time spent up to now is       14.1 secs

     Computing kpt #:   117  of   211 on this pool
     total cpu time spent up to now is       14.2 secs

     Computing kpt #:   118  of   211 on this pool
     total cpu time spent up to now is       14.3 secs

     Computing kpt #:   119  of   211 on this pool
     total cpu time spent up to now is       14.4 secs

     Computing kpt #:   120  of   211 on this pool
     total cpu time spent up to now is       14.5 secs

     Computing kpt #:   121  of   211 on this pool
     total cpu time spent up to now is       14.6 secs

     Computing kpt #:   122  of   211 on this pool
     total cpu time spent up to now is       14.8 secs

     Computing kpt #:   123  of   211 on this pool
     total cpu time spent up to now is       14.9 secs

     Computing kpt #:   124  of   211 on this pool
     total cpu time spent up to now is       15.0 secs

     Computing kpt #:   125  of   211 on this pool
     total cpu time spent up to now is       15.1 secs

     Computing kpt #:   126  of   211 on this pool
     total cpu time spent up to now is       15.2 secs

     Computing kpt #:   127  of   211 on this pool
     total cpu time spent up to now is       15.3 secs

     Computing kpt #:   128  of   211 on this pool
     total cpu time spent up to now is       15.5 secs

     Computing kpt #:   129  of   211 on this pool
     total cpu time spent up to now is       15.6 secs

     Computing kpt #:   130  of   211 on this pool
     total cpu time spent up to now is       15.7 secs

     Computing kpt #:   131  of   211 on this pool
     total cpu time spent up to now is       15.8 secs

     Computing kpt #:   132  of   211 on this pool
     total cpu time spent up to now is       15.9 secs

     Computing kpt #:   133  of   211 on this pool
     total cpu time spent up to now is       16.0 secs

     Computing kpt #:   134  of   211 on this pool
     total cpu time spent up to now is       16.1 secs

     Computing kpt #:   135  of   211 on this pool
     total cpu time spent up to now is       16.2 secs

     Computing kpt #:   136  of   211 on this pool
     total cpu time spent up to now is       16.3 secs

     Computing kpt #:   137  of   211 on this pool
     total cpu time spent up to now is       16.4 secs

     Computing kpt #:   138  of   211 on this pool
     total cpu time spent up to now is       16.5 secs

     Computing kpt #:   139  of   211 on this pool
     total cpu time spent up to now is       16.6 secs

     Computing kpt #:   140  of   211 on this pool
     total cpu time spent up to now is       16.7 secs

     Computing kpt #:   141  of   211 on this pool
     total cpu time spent up to now is       16.8 secs

     Computing kpt #:   142  of   211 on this pool
     total cpu time spent up to now is       16.9 secs

     Computing kpt #:   143  of   211 on this pool
     total cpu time spent up to now is       17.0 secs

     Computing kpt #:   144  of   211 on this pool
     total cpu time spent up to now is       17.2 secs

     Computing kpt #:   145  of   211 on this pool
     total cpu time spent up to now is       17.3 secs

     Computing kpt #:   146  of   211 on this pool
     total cpu time spent up to now is       17.4 secs

     Computing kpt #:   147  of   211 on this pool
     total cpu time spent up to now is       17.5 secs

     Computing kpt #:   148  of   211 on this pool
     total cpu time spent up to now is       17.6 secs

     Computing kpt #:   149  of   211 on this pool
     total cpu time spent up to now is       17.7 secs

     Computing kpt #:   150  of   211 on this pool
     total cpu time spent up to now is       17.8 secs

     Computing kpt #:   151  of   211 on this pool
     total cpu time spent up to now is       17.9 secs

     Computing kpt #:   152  of   211 on this pool
     total cpu time spent up to now is       18.1 secs

     Computing kpt #:   153  of   211 on this pool
     total cpu time spent up to now is       18.2 secs

     Computing kpt #:   154  of   211 on this pool
     total cpu time spent up to now is       18.3 secs

     Computing kpt #:   155  of   211 on this pool
     total cpu time spent up to now is       18.4 secs

     Computing kpt #:   156  of   211 on this pool
     total cpu time spent up to now is       18.5 secs

     Computing kpt #:   157  of   211 on this pool
     total cpu time spent up to now is       18.6 secs

     Computing kpt #:   158  of   211 on this pool
     total cpu time spent up to now is       18.7 secs

     Computing kpt #:   159  of   211 on this pool
     total cpu time spent up to now is       18.8 secs

     Computing kpt #:   160  of   211 on this pool
     total cpu time spent up to now is       18.9 secs

     Computing kpt #:   161  of   211 on this pool
     total cpu time spent up to now is       19.0 secs

     Computing kpt #:   162  of   211 on this pool
     total cpu time spent up to now is       19.2 secs

     Computing kpt #:   163  of   211 on this pool
     total cpu time spent up to now is       19.3 secs

     Computing kpt #:   164  of   211 on this pool
     total cpu time spent up to now is       19.4 secs

     Computing kpt #:   165  of   211 on this pool
     total cpu time spent up to now is       19.5 secs

     Computing kpt #:   166  of   211 on this pool
     total cpu time spent up to now is       19.6 secs

     Computing kpt #:   167  of   211 on this pool
     total cpu time spent up to now is       19.7 secs

     Computing kpt #:   168  of   211 on this pool
     total cpu time spent up to now is       19.8 secs

     Computing kpt #:   169  of   211 on this pool
     total cpu time spent up to now is       20.0 secs

     Computing kpt #:   170  of   211 on this pool
     total cpu time spent up to now is       20.1 secs

     Computing kpt #:   171  of   211 on this pool
     total cpu time spent up to now is       20.2 secs

     Computing kpt #:   172  of   211 on this pool
     total cpu time spent up to now is       20.3 secs

     Computing kpt #:   173  of   211 on this pool
     total cpu time spent up to now is       20.4 secs

     Computing kpt #:   174  of   211 on this pool
     total cpu time spent up to now is       20.5 secs

     Computing kpt #:   175  of   211 on this pool
     total cpu time spent up to now is       20.6 secs

     Computing kpt #:   176  of   211 on this pool
     total cpu time spent up to now is       20.7 secs

     Computing kpt #:   177  of   211 on this pool
     total cpu time spent up to now is       20.8 secs

     Computing kpt #:   178  of   211 on this pool
     total cpu time spent up to now is       20.9 secs

     Computing kpt #:   179  of   211 on this pool
     total cpu time spent up to now is       21.0 secs

     Computing kpt #:   180  of   211 on this pool
     total cpu time spent up to now is       21.1 secs

     Computing kpt #:   181  of   211 on this pool
     total cpu time spent up to now is       21.2 secs

     Computing kpt #:   182  of   211 on this pool
     total cpu time spent up to now is       21.4 secs

     Computing kpt #:   183  of   211 on this pool
     total cpu time spent up to now is       21.5 secs

     Computing kpt #:   184  of   211 on this pool
     total cpu time spent up to now is       21.6 secs

     Computing kpt #:   185  of   211 on this pool
     total cpu time spent up to now is       21.7 secs

     Computing kpt #:   186  of   211 on this pool
     total cpu time spent up to now is       21.8 secs

     Computing kpt #:   187  of   211 on this pool
     total cpu time spent up to now is       21.9 secs

     Computing kpt #:   188  of   211 on this pool
     total cpu time spent up to now is       22.0 secs

     Computing kpt #:   189  of   211 on this pool
     total cpu time spent up to now is       22.1 secs

     Computing kpt #:   190  of   211 on this pool
     total cpu time spent up to now is       22.2 secs

     Computing kpt #:   191  of   211 on this pool
     total cpu time spent up to now is       22.3 secs

     Computing kpt #:   192  of   211 on this pool
     total cpu time spent up to now is       22.4 secs

     Computing kpt #:   193  of   211 on this pool
     total cpu time spent up to now is       22.6 secs

     Computing kpt #:   194  of   211 on this pool
     total cpu time spent up to now is       22.7 secs

     Computing kpt #:   195  of   211 on this pool
     total cpu time spent up to now is       22.8 secs

     Computing kpt #:   196  of   211 on this pool
     total cpu time spent up to now is       22.9 secs

     Computing kpt #:   197  of   211 on this pool
     total cpu time spent up to now is       23.0 secs

     Computing kpt #:   198  of   211 on this pool
     total cpu time spent up to now is       23.1 secs

     Computing kpt #:   199  of   211 on this pool
     total cpu time spent up to now is       23.2 secs

     Computing kpt #:   200  of   211 on this pool
     total cpu time spent up to now is       23.3 secs

     Computing kpt #:   201  of   211 on this pool
     total cpu time spent up to now is       23.4 secs

     Computing kpt #:   202  of   211 on this pool
     total cpu time spent up to now is       23.6 secs

     Computing kpt #:   203  of   211 on this pool
     total cpu time spent up to now is       23.7 secs

     Computing kpt #:   204  of   211 on this pool
     total cpu time spent up to now is       23.8 secs

     Computing kpt #:   205  of   211 on this pool
     total cpu time spent up to now is       23.9 secs

     Computing kpt #:   206  of   211 on this pool
     total cpu time spent up to now is       24.0 secs

     Computing kpt #:   207  of   211 on this pool
     total cpu time spent up to now is       24.1 secs

     Computing kpt #:   208  of   211 on this pool
     total cpu time spent up to now is       24.2 secs

     Computing kpt #:   209  of   211 on this pool
     total cpu time spent up to now is       24.3 secs

     Computing kpt #:   210  of   211 on this pool
     total cpu time spent up to now is       24.4 secs

     Computing kpt #:   211  of   211 on this pool
     total cpu time spent up to now is       24.5 secs

     ethr =  1.25E-08,  avg # of iterations = 28.8

     total cpu time spent up to now is       24.5 secs

     End of band structure calculation

          k =-0.0072-0.7912 0.0000 (  2738 PWs)   bands (ev):

   -15.2773 -13.0366 -10.0272  -2.5075  -2.4044  -1.7387   9.1997   9.3616

          k =-0.0072-0.7892 0.0000 (  2736 PWs)   bands (ev):

   -15.2683 -13.0465 -10.0286  -2.4797  -2.4059  -1.7665   9.2107   9.4031

          k =-0.0072-0.7872 0.0000 (  2736 PWs)   bands (ev):

   -15.2600 -13.0556 -10.0299  -2.4519  -2.4073  -1.7943   9.2209   9.4444

          k =-0.0072-0.7852 0.0000 (  2736 PWs)   bands (ev):

   -15.2522 -13.0641 -10.0310  -2.4241  -2.4086  -1.8221   9.2303   9.4856

          k =-0.0072-0.7832 0.0000 (  2738 PWs)   bands (ev):

   -15.2451 -13.0719 -10.0321  -2.4098  -2.3962  -1.8499   9.2389   9.5265

          k =-0.0072-0.7812 0.0000 (  2738 PWs)   bands (ev):

   -15.2386 -13.0790 -10.0331  -2.4109  -2.3685  -1.8777   9.2467   9.5670

          k =-0.0072-0.7792 0.0000 (  2738 PWs)   bands (ev):

   -15.2328 -13.0854 -10.0339  -2.4118  -2.3407  -1.9055   9.2536   9.6071

          k =-0.0072-0.7772 0.0000 (  2736 PWs)   bands (ev):

   -15.2276 -13.0910 -10.0347  -2.4127  -2.3130  -1.9332   9.2596   9.6464

          k =-0.0072-0.7752 0.0000 (  2734 PWs)   bands (ev):

   -15.2232 -13.0958 -10.0353  -2.4134  -2.2853  -1.9609   9.2649   9.6847

          k =-0.0072-0.7732 0.0000 (  2734 PWs)   bands (ev):

   -15.2194 -13.0999 -10.0358  -2.4140  -2.2578  -1.9884   9.2693   9.7214

          k =-0.0072-0.7712 0.0000 (  2736 PWs)   bands (ev):

   -15.2164 -13.1033 -10.0363  -2.4145  -2.2304  -2.0157   9.2728   9.7558

          k =-0.0072-0.7692 0.0000 (  2736 PWs)   bands (ev):

   -15.2141 -13.1058 -10.0366  -2.4148  -2.2035  -2.0427   9.2756   9.7865

          k =-0.0072-0.7672 0.0000 (  2738 PWs)   bands (ev):

   -15.2124 -13.1076 -10.0369  -2.4151  -2.1776  -2.0686   9.2774   9.8112

          k =-0.0072-0.7652 0.0000 (  2736 PWs)   bands (ev):

   -15.2115 -13.1086 -10.0370  -2.4152  -2.1551  -2.0910   9.2785   9.8268

          k =-0.0072-0.7632 0.0000 (  2736 PWs)   bands (ev):

   -15.2114 -13.1088 -10.0370  -2.4153  -2.1486  -2.0976   9.2787   9.8300

          k =-0.0072-0.7612 0.0000 (  2738 PWs)   bands (ev):

   -15.2119 -13.1082 -10.0369  -2.4152  -2.1660  -2.0802   9.2781   9.8201

          k =-0.0072-0.7592 0.0000 (  2738 PWs)   bands (ev):

   -15.2132 -13.1068 -10.0367  -2.4150  -2.1908  -2.0554   9.2766   9.7993

          k =-0.0072-0.7572 0.0000 (  2736 PWs)   bands (ev):

   -15.2152 -13.1046 -10.0365  -2.4147  -2.2174  -2.0288   9.2743   9.7711

          k =-0.0072-0.7552 0.0000 (  2734 PWs)   bands (ev):

   -15.2179 -13.1016 -10.0361  -2.4142  -2.2446  -2.0016   9.2711   9.7383

          k =-0.0072-0.7532 0.0000 (  2734 PWs)   bands (ev):

   -15.2213 -13.0979 -10.0356  -2.4137  -2.2721  -1.9741   9.2671   9.7025

          k =-0.0072-0.7512 0.0000 (  2736 PWs)   bands (ev):

   -15.2254 -13.0934 -10.0350  -2.4130  -2.2997  -1.9465   9.2623   9.6649

          k =-0.0072-0.7492 0.0000 (  2736 PWs)   bands (ev):

   -15.2302 -13.0882 -10.0343  -2.4122  -2.3273  -1.9188   9.2566   9.6260

          k =-0.0072-0.7472 0.0000 (  2738 PWs)   bands (ev):

   -15.2357 -13.0822 -10.0335  -2.4113  -2.3551  -1.8911   9.2501   9.5863

          k =-0.0072-0.7452 0.0000 (  2738 PWs)   bands (ev):

   -15.2419 -13.0754 -10.0326  -2.4103  -2.3829  -1.8633   9.2428   9.5460

          k =-0.0072-0.7432 0.0000 (  2736 PWs)   bands (ev):

   -15.2487 -13.0680 -10.0315  -2.4107  -2.4092  -1.8355   9.2346   9.5052

          k =-0.0072-0.7412 0.0000 (  2736 PWs)   bands (ev):

   -15.2562 -13.0598 -10.0304  -2.4385  -2.4080  -1.8077   9.2256   9.4642

          k =-0.0072-0.7392 0.0000 (  2736 PWs)   bands (ev):

   -15.2642 -13.0510 -10.0292  -2.4663  -2.4066  -1.7799   9.2157   9.4229

          k =-0.0072-0.7372 0.0000 (  2736 PWs)   bands (ev):

   -15.2729 -13.0414 -10.0279  -2.4941  -2.4051  -1.7521   9.2051   9.3815

          k =-0.0072-0.7352 0.0000 (  2740 PWs)   bands (ev):

   -15.2823 -13.0313 -10.0264  -2.5220  -2.4036  -1.7243   9.1936   9.3399

          k =-0.0072-0.7332 0.0000 (  2738 PWs)   bands (ev):

   -15.2921 -13.0204 -10.0249  -2.5498  -2.4019  -1.6964   9.1813   9.2983

          k =-0.0072-0.7312 0.0000 (  2738 PWs)   bands (ev):

   -15.3026 -13.0090 -10.0233  -2.5777  -2.4000  -1.6686   9.1682   9.2566

          k =-0.0072-0.7292 0.0000 (  2740 PWs)   bands (ev):

   -15.3136 -12.9969 -10.0215  -2.6055  -2.3981  -1.6408   9.1543   9.2148

          k =-0.0072-0.7272 0.0000 (  2740 PWs)   bands (ev):

   -15.3251 -12.9842 -10.0197  -2.6334  -2.3961  -1.6130   9.1397   9.1731

          k =-0.0072-0.7252 0.0000 (  2740 PWs)   bands (ev):

   -15.3371 -12.9710 -10.0177  -2.6612  -2.3939  -1.5852   9.1242   9.1313

          k =-0.0072-0.7232 0.0000 (  2736 PWs)   bands (ev):

   -15.3496 -12.9572 -10.0157  -2.6890  -2.3916  -1.5573   9.0896   9.1080

          k =-0.0072-0.7212 0.0000 (  2738 PWs)   bands (ev):

   -15.3626 -12.9428 -10.0135  -2.7167  -2.3892  -1.5295   9.0478   9.0910

          k =-0.0072-0.7192 0.0000 (  2732 PWs)   bands (ev):

   -15.3761 -12.9280 -10.0112  -2.7445  -2.3867  -1.5017   9.0061   9.0733

          k =-0.0072-0.7172 0.0000 (  2734 PWs)   bands (ev):

   -15.3899 -12.9126 -10.0089  -2.7723  -2.3841  -1.4740   8.9644   9.0548

          k =-0.0072-0.7152 0.0000 (  2733 PWs)   bands (ev):

   -15.4042 -12.8968 -10.0064  -2.8000  -2.3813  -1.4462   8.9228   9.0356

          k =-0.0072-0.7132 0.0000 (  2733 PWs)   bands (ev):

   -15.4189 -12.8805 -10.0038  -2.8278  -2.3785  -1.4185   8.8812   9.0157

          k =-0.0072-0.7112 0.0000 (  2729 PWs)   bands (ev):

   -15.4340 -12.8637 -10.0012  -2.8555  -2.3755  -1.3907   8.8396   8.9952

          k =-0.0052-0.7912 0.0000 (  2738 PWs)   bands (ev):

   -15.2773 -13.0368 -10.0262  -2.5075  -2.4062  -1.7386   9.2007   9.3612

          k =-0.0052-0.7892 0.0000 (  2738 PWs)   bands (ev):

   -15.2683 -13.0467 -10.0276  -2.4796  -2.4077  -1.7664   9.2117   9.4027

          k =-0.0052-0.7872 0.0000 (  2736 PWs)   bands (ev):

   -15.2599 -13.0559 -10.0289  -2.4518  -2.4091  -1.7942   9.2220   9.4441

          k =-0.0052-0.7852 0.0000 (  2738 PWs)   bands (ev):

   -15.2521 -13.0644 -10.0300  -2.4240  -2.4104  -1.8221   9.2314   9.4853

          k =-0.0052-0.7832 0.0000 (  2738 PWs)   bands (ev):

   -15.2450 -13.0722 -10.0311  -2.4116  -2.3962  -1.8499   9.2400   9.5262

          k =-0.0052-0.7812 0.0000 (  2738 PWs)   bands (ev):

   -15.2385 -13.0793 -10.0321  -2.4126  -2.3684  -1.8777   9.2478   9.5667

          k =-0.0052-0.7792 0.0000 (  2738 PWs)   bands (ev):

   -15.2327 -13.0856 -10.0329  -2.4136  -2.3406  -1.9054   9.2547   9.6067

          k =-0.0052-0.7772 0.0000 (  2736 PWs)   bands (ev):

   -15.2276 -13.0912 -10.0337  -2.4144  -2.3129  -1.9332   9.2608   9.6460

          k =-0.0052-0.7752 0.0000 (  2734 PWs)   bands (ev):

   -15.2231 -13.0961 -10.0343  -2.4151  -2.2852  -1.9608   9.2661   9.6843

          k =-0.0052-0.7732 0.0000 (  2734 PWs)   bands (ev):

   -15.2194 -13.1002 -10.0348  -2.4157  -2.2576  -1.9884   9.2705   9.7211

          k =-0.0052-0.7712 0.0000 (  2734 PWs)   bands (ev):

   -15.2163 -13.1035 -10.0353  -2.4162  -2.2303  -2.0158   9.2741   9.7555

          k =-0.0052-0.7692 0.0000 (  2734 PWs)   bands (ev):

   -15.2140 -13.1061 -10.0356  -2.4166  -2.2033  -2.0427   9.2768   9.7862

          k =-0.0052-0.7672 0.0000 (  2738 PWs)   bands (ev):

   -15.2124 -13.1079 -10.0359  -2.4169  -2.1773  -2.0687   9.2787   9.8109

          k =-0.0052-0.7652 0.0000 (  2736 PWs)   bands (ev):

   -15.2115 -13.1088 -10.0360  -2.4170  -2.1548  -2.0913   9.2797   9.8265

          k =-0.0052-0.7632 0.0000 (  2736 PWs)   bands (ev):

   -15.2113 -13.1090 -10.0360  -2.4170  -2.1482  -2.0978   9.2799   9.8297

          k =-0.0052-0.7612 0.0000 (  2738 PWs)   bands (ev):

   -15.2118 -13.1084 -10.0359  -2.4170  -2.1657  -2.0804   9.2793   9.8198

          k =-0.0052-0.7592 0.0000 (  2736 PWs)   bands (ev):

   -15.2131 -13.1070 -10.0357  -2.4167  -2.1906  -2.0554   9.2778   9.7990

          k =-0.0052-0.7572 0.0000 (  2734 PWs)   bands (ev):

   -15.2151 -13.1049 -10.0354  -2.4164  -2.2172  -2.0288   9.2755   9.7708

          k =-0.0052-0.7552 0.0000 (  2734 PWs)   bands (ev):

   -15.2178 -13.1019 -10.0351  -2.4160  -2.2445  -2.0016   9.2723   9.7379

          k =-0.0052-0.7532 0.0000 (  2734 PWs)   bands (ev):

   -15.2212 -13.0982 -10.0346  -2.4154  -2.2719  -1.9741   9.2683   9.7022

          k =-0.0052-0.7512 0.0000 (  2736 PWs)   bands (ev):

   -15.2253 -13.0937 -10.0340  -2.4148  -2.2996  -1.9465   9.2634   9.6645

          k =-0.0052-0.7492 0.0000 (  2738 PWs)   bands (ev):

   -15.2302 -13.0884 -10.0333  -2.4140  -2.3273  -1.9188   9.2578   9.6257

          k =-0.0052-0.7472 0.0000 (  2738 PWs)   bands (ev):

   -15.2357 -13.0824 -10.0325  -2.4131  -2.3550  -1.8910   9.2512   9.5860

          k =-0.0052-0.7452 0.0000 (  2738 PWs)   bands (ev):

   -15.2418 -13.0757 -10.0316  -2.4121  -2.3828  -1.8632   9.2439   9.5456

          k =-0.0052-0.7432 0.0000 (  2738 PWs)   bands (ev):

   -15.2486 -13.0682 -10.0305  -2.4110  -2.4106  -1.8354   9.2357   9.5049

          k =-0.0052-0.7412 0.0000 (  2738 PWs)   bands (ev):

   -15.2561 -13.0601 -10.0294  -2.4384  -2.4097  -1.8076   9.2266   9.4639

          k =-0.0052-0.7392 0.0000 (  2736 PWs)   bands (ev):

   -15.2642 -13.0512 -10.0282  -2.4662  -2.4084  -1.7798   9.2168   9.4226

          k =-0.0052-0.7372 0.0000 (  2738 PWs)   bands (ev):

   -15.2729 -13.0417 -10.0269  -2.4941  -2.4069  -1.7520   9.2061   9.3812

          k =-0.0052-0.7352 0.0000 (  2738 PWs)   bands (ev):

   -15.2822 -13.0315 -10.0255  -2.5219  -2.4053  -1.7241   9.1946   9.3396

          k =-0.0052-0.7332 0.0000 (  2740 PWs)   bands (ev):

   -15.2921 -13.0206 -10.0239  -2.5498  -2.4036  -1.6963   9.1823   9.2979

          k =-0.0052-0.7312 0.0000 (  2742 PWs)   bands (ev):

   -15.3025 -13.0092 -10.0223  -2.5777  -2.4018  -1.6685   9.1691   9.2562

          k =-0.0052-0.7292 0.0000 (  2742 PWs)   bands (ev):

   -15.3135 -12.9971 -10.0206  -2.6055  -2.3999  -1.6407   9.1552   9.2145

          k =-0.0052-0.7272 0.0000 (  2740 PWs)   bands (ev):

   -15.3250 -12.9844 -10.0187  -2.6333  -2.3978  -1.6128   9.1405   9.1727

          k =-0.0052-0.7252 0.0000 (  2740 PWs)   bands (ev):

   -15.3371 -12.9712 -10.0168  -2.6611  -2.3957  -1.5850   9.1250   9.1310

          k =-0.0052-0.7232 0.0000 (  2736 PWs)   bands (ev):

   -15.3496 -12.9574 -10.0147  -2.6889  -2.3934  -1.5572   9.0892   9.1088

          k =-0.0052-0.7212 0.0000 (  2734 PWs)   bands (ev):

   -15.3626 -12.9430 -10.0125  -2.7167  -2.3910  -1.5294   9.0475   9.0917

          k =-0.0052-0.7192 0.0000 (  2732 PWs)   bands (ev):

   -15.3760 -12.9281 -10.0103  -2.7445  -2.3885  -1.5016   9.0058   9.0740

          k =-0.0052-0.7172 0.0000 (  2732 PWs)   bands (ev):

   -15.3899 -12.9128 -10.0079  -2.7723  -2.3858  -1.4738   8.9641   9.0555

          k =-0.0052-0.7152 0.0000 (  2734 PWs)   bands (ev):

   -15.4042 -12.8969 -10.0055  -2.8000  -2.3831  -1.4460   8.9224   9.0362

          k =-0.0052-0.7132 0.0000 (  2733 PWs)   bands (ev):

   -15.4189 -12.8806 -10.0029  -2.8278  -2.3802  -1.4183   8.8808   9.0163

          k =-0.0052-0.7112 0.0000 (  2729 PWs)   bands (ev):

   -15.4340 -12.8638 -10.0002  -2.8555  -2.3773  -1.3905   8.8393   8.9957

          k =-0.0032-0.7912 0.0000 (  2738 PWs)   bands (ev):

   -15.2772 -13.0370 -10.0256  -2.5074  -2.4074  -1.7385   9.2013   9.3610

          k =-0.0032-0.7892 0.0000 (  2740 PWs)   bands (ev):

   -15.2683 -13.0469 -10.0269  -2.4796  -2.4089  -1.7664   9.2124   9.4025

          k =-0.0032-0.7872 0.0000 (  2740 PWs)   bands (ev):

   -15.2599 -13.0561 -10.0282  -2.4517  -2.4103  -1.7942   9.2227   9.4439

          k =-0.0032-0.7852 0.0000 (  2738 PWs)   bands (ev):

   -15.2521 -13.0646 -10.0294  -2.4239  -2.4116  -1.8220   9.2322   9.4850

          k =-0.0032-0.7832 0.0000 (  2738 PWs)   bands (ev):

   -15.2450 -13.0724 -10.0304  -2.4128  -2.3961  -1.8498   9.2408   9.5259

          k =-0.0032-0.7812 0.0000 (  2738 PWs)   bands (ev):

   -15.2385 -13.0794 -10.0314  -2.4138  -2.3683  -1.8776   9.2486   9.5665

          k =-0.0032-0.7792 0.0000 (  2736 PWs)   bands (ev):

   -15.2327 -13.0858 -10.0322  -2.4148  -2.3405  -1.9054   9.2555   9.6065

          k =-0.0032-0.7772 0.0000 (  2736 PWs)   bands (ev):

   -15.2275 -13.0914 -10.0330  -2.4156  -2.3128  -1.9331   9.2616   9.6458

          k =-0.0032-0.7752 0.0000 (  2736 PWs)   bands (ev):

   -15.2231 -13.0963 -10.0336  -2.4163  -2.2851  -1.9608   9.2669   9.6841

          k =-0.0032-0.7732 0.0000 (  2736 PWs)   bands (ev):

   -15.2193 -13.1004 -10.0342  -2.4169  -2.2575  -1.9884   9.2713   9.7209

          k =-0.0032-0.7712 0.0000 (  2734 PWs)   bands (ev):

   -15.2163 -13.1037 -10.0346  -2.4174  -2.2302  -2.0158   9.2749   9.7553

          k =-0.0032-0.7692 0.0000 (  2734 PWs)   bands (ev):

   -15.2139 -13.1063 -10.0349  -2.4178  -2.2032  -2.0428   9.2776   9.7860

          k =-0.0032-0.7672 0.0000 (  2736 PWs)   bands (ev):

   -15.2123 -13.1080 -10.0352  -2.4181  -2.1771  -2.0688   9.2795   9.8107

          k =-0.0032-0.7652 0.0000 (  2736 PWs)   bands (ev):

   -15.2114 -13.1090 -10.0353  -2.4182  -2.1545  -2.0914   9.2805   9.8263

          k =-0.0032-0.7632 0.0000 (  2738 PWs)   bands (ev):

   -15.2112 -13.1092 -10.0353  -2.4183  -2.1479  -2.0981   9.2807   9.8295

          k =-0.0032-0.7612 0.0000 (  2736 PWs)   bands (ev):

   -15.2118 -13.1086 -10.0352  -2.4182  -2.1655  -2.0804   9.2801   9.8196

          k =-0.0032-0.7592 0.0000 (  2734 PWs)   bands (ev):

   -15.2130 -13.1072 -10.0351  -2.4179  -2.1905  -2.0555   9.2786   9.7988

          k =-0.0032-0.7572 0.0000 (  2734 PWs)   bands (ev):

   -15.2150 -13.1050 -10.0348  -2.4176  -2.2171  -2.0288   9.2763   9.7706

          k =-0.0032-0.7552 0.0000 (  2734 PWs)   bands (ev):

   -15.2177 -13.1021 -10.0344  -2.4172  -2.2444  -2.0016   9.2731   9.7377

          k =-0.0032-0.7532 0.0000 (  2736 PWs)   bands (ev):

   -15.2212 -13.0983 -10.0339  -2.4166  -2.2719  -1.9741   9.2691   9.7019

          k =-0.0032-0.7512 0.0000 (  2736 PWs)   bands (ev):

   -15.2253 -13.0938 -10.0333  -2.4160  -2.2995  -1.9464   9.2642   9.6643

          k =-0.0032-0.7492 0.0000 (  2736 PWs)   bands (ev):

   -15.2301 -13.0886 -10.0326  -2.4152  -2.3272  -1.9187   9.2585   9.6254

          k =-0.0032-0.7472 0.0000 (  2738 PWs)   bands (ev):

   -15.2356 -13.0826 -10.0318  -2.4143  -2.3550  -1.8910   9.2520   9.5857

          k =-0.0032-0.7452 0.0000 (  2738 PWs)   bands (ev):

   -15.2418 -13.0759 -10.0309  -2.4133  -2.3827  -1.8632   9.2446   9.5454

          k =-0.0032-0.7432 0.0000 (  2738 PWs)   bands (ev):

   -15.2486 -13.0684 -10.0299  -2.4122  -2.4105  -1.8354   9.2364   9.5047

          k =-0.0032-0.7412 0.0000 (  2738 PWs)   bands (ev):

   -15.2561 -13.0602 -10.0288  -2.4384  -2.4109  -1.8076   9.2274   9.4636

          k =-0.0032-0.7392 0.0000 (  2740 PWs)   bands (ev):

   -15.2642 -13.0514 -10.0275  -2.4662  -2.4096  -1.7797   9.2175   9.4224

          k =-0.0032-0.7372 0.0000 (  2738 PWs)   bands (ev):

   -15.2729 -13.0418 -10.0262  -2.4940  -2.4081  -1.7519   9.2068   9.3809

          k =-0.0032-0.7352 0.0000 (  2738 PWs)   bands (ev):

   -15.2822 -13.0316 -10.0248  -2.5219  -2.4065  -1.7241   9.1953   9.3394

          k =-0.0032-0.7332 0.0000 (  2740 PWs)   bands (ev):

   -15.2921 -13.0208 -10.0233  -2.5498  -2.4048  -1.6962   9.1829   9.2977

          k =-0.0032-0.7312 0.0000 (  2742 PWs)   bands (ev):

   -15.3025 -13.0093 -10.0216  -2.5777  -2.4030  -1.6684   9.1698   9.2560

          k =-0.0032-0.7292 0.0000 (  2742 PWs)   bands (ev):

   -15.3135 -12.9972 -10.0199  -2.6055  -2.4011  -1.6406   9.1558   9.2143

          k =-0.0032-0.7272 0.0000 (  2742 PWs)   bands (ev):

   -15.3250 -12.9846 -10.0181  -2.6333  -2.3990  -1.6127   9.1411   9.1725

          k =-0.0032-0.7252 0.0000 (  2740 PWs)   bands (ev):

   -15.3370 -12.9713 -10.0161  -2.6611  -2.3969  -1.5849   9.1255   9.1307

          k =-0.0032-0.7232 0.0000 (  2740 PWs)   bands (ev):

   -15.3496 -12.9575 -10.0141  -2.6889  -2.3946  -1.5571   9.0890   9.1093

          k =-0.0032-0.7212 0.0000 (  2734 PWs)   bands (ev):

   -15.3626 -12.9431 -10.0119  -2.7167  -2.3922  -1.5293   9.0472   9.0922

          k =-0.0032-0.7192 0.0000 (  2734 PWs)   bands (ev):

   -15.3760 -12.9283 -10.0096  -2.7445  -2.3897  -1.5015   9.0055   9.0744

          k =-0.0032-0.7172 0.0000 (  2732 PWs)   bands (ev):

   -15.3899 -12.9129 -10.0073  -2.7723  -2.3870  -1.4737   8.9638   9.0559

          k =-0.0032-0.7152 0.0000 (  2734 PWs)   bands (ev):

   -15.4042 -12.8970 -10.0048  -2.8000  -2.3843  -1.4459   8.9222   9.0367

          k =-0.0032-0.7132 0.0000 (  2732 PWs)   bands (ev):

   -15.4189 -12.8807 -10.0022  -2.8278  -2.3814  -1.4182   8.8806   9.0167

          k =-0.0032-0.7112 0.0000 (  2732 PWs)   bands (ev):

   -15.4340 -12.8639  -9.9996  -2.8555  -2.3785  -1.3904   8.8390   8.9961

          k =-0.0012-0.7912 0.0000 (  2740 PWs)   bands (ev):

   -15.2772 -13.0371 -10.0252  -2.5074  -2.4080  -1.7385   9.2017   9.3609

          k =-0.0012-0.7892 0.0000 (  2740 PWs)   bands (ev):

   -15.2682 -13.0470 -10.0266  -2.4795  -2.4095  -1.7663   9.2128   9.4024

          k =-0.0012-0.7872 0.0000 (  2740 PWs)   bands (ev):

   -15.2598 -13.0561 -10.0278  -2.4517  -2.4109  -1.7942   9.2231   9.4438

          k =-0.0012-0.7852 0.0000 (  2740 PWs)   bands (ev):

   -15.2521 -13.0646 -10.0290  -2.4239  -2.4122  -1.8220   9.2326   9.4849

          k =-0.0012-0.7832 0.0000 (  2738 PWs)   bands (ev):

   -15.2449 -13.0724 -10.0301  -2.4134  -2.3961  -1.8498   9.2412   9.5258

          k =-0.0012-0.7812 0.0000 (  2736 PWs)   bands (ev):

   -15.2385 -13.0795 -10.0310  -2.4145  -2.3683  -1.8776   9.2490   9.5663

          k =-0.0012-0.7792 0.0000 (  2736 PWs)   bands (ev):

   -15.2326 -13.0859 -10.0319  -2.4154  -2.3405  -1.9054   9.2559   9.6064

          k =-0.0012-0.7772 0.0000 (  2736 PWs)   bands (ev):

   -15.2275 -13.0915 -10.0326  -2.4162  -2.3127  -1.9331   9.2620   9.6457

          k =-0.0012-0.7752 0.0000 (  2736 PWs)   bands (ev):

   -15.2230 -13.0964 -10.0333  -2.4170  -2.2851  -1.9608   9.2673   9.6840

          k =-0.0012-0.7732 0.0000 (  2736 PWs)   bands (ev):

   -15.2193 -13.1005 -10.0338  -2.4176  -2.2575  -1.9884   9.2717   9.7207

          k =-0.0012-0.7712 0.0000 (  2736 PWs)   bands (ev):

   -15.2162 -13.1038 -10.0342  -2.4181  -2.2301  -2.0158   9.2753   9.7552

          k =-0.0012-0.7692 0.0000 (  2736 PWs)   bands (ev):

   -15.2139 -13.1063 -10.0346  -2.4184  -2.2031  -2.0428   9.2780   9.7859

          k =-0.0012-0.7672 0.0000 (  2734 PWs)   bands (ev):

   -15.2123 -13.1081 -10.0348  -2.4187  -2.1770  -2.0688   9.2799   9.8106

          k =-0.0012-0.7652 0.0000 (  2736 PWs)   bands (ev):

   -15.2114 -13.1091 -10.0349  -2.4189  -2.1544  -2.0915   9.2810   9.8262

          k =-0.0012-0.7632 0.0000 (  2734 PWs)   bands (ev):

   -15.2112 -13.1093 -10.0350  -2.4189  -2.1477  -2.0982   9.2812   9.8294

          k =-0.0012-0.7612 0.0000 (  2736 PWs)   bands (ev):

   -15.2118 -13.1087 -10.0349  -2.4188  -2.1654  -2.0805   9.2805   9.8194

          k =-0.0012-0.7592 0.0000 (  2734 PWs)   bands (ev):

   -15.2130 -13.1073 -10.0347  -2.4186  -2.1904  -2.0555   9.2791   9.7986

          k =-0.0012-0.7572 0.0000 (  2736 PWs)   bands (ev):

   -15.2150 -13.1051 -10.0344  -2.4183  -2.2171  -2.0288   9.2767   9.7704

          k =-0.0012-0.7552 0.0000 (  2736 PWs)   bands (ev):

   -15.2177 -13.1022 -10.0340  -2.4178  -2.2443  -2.0015   9.2735   9.7376

          k =-0.0012-0.7532 0.0000 (  2736 PWs)   bands (ev):

   -15.2212 -13.0984 -10.0335  -2.4173  -2.2718  -1.9740   9.2695   9.7018

          k =-0.0012-0.7512 0.0000 (  2736 PWs)   bands (ev):

   -15.2253 -13.0939 -10.0329  -2.4166  -2.2995  -1.9464   9.2647   9.6642

          k =-0.0012-0.7492 0.0000 (  2736 PWs)   bands (ev):

   -15.2301 -13.0887 -10.0322  -2.4158  -2.3272  -1.9187   9.2590   9.6253

          k =-0.0012-0.7472 0.0000 (  2736 PWs)   bands (ev):

   -15.2356 -13.0827 -10.0314  -2.4149  -2.3549  -1.8909   9.2524   9.5856

          k =-0.0012-0.7452 0.0000 (  2738 PWs)   bands (ev):

   -15.2417 -13.0759 -10.0305  -2.4139  -2.3827  -1.8632   9.2450   9.5453

          k =-0.0012-0.7432 0.0000 (  2738 PWs)   bands (ev):

   -15.2486 -13.0685 -10.0295  -2.4128  -2.4105  -1.8353   9.2368   9.5046

          k =-0.0012-0.7412 0.0000 (  2740 PWs)   bands (ev):

   -15.2560 -13.0603 -10.0284  -2.4384  -2.4116  -1.8075   9.2277   9.4635

          k =-0.0012-0.7392 0.0000 (  2740 PWs)   bands (ev):

   -15.2641 -13.0514 -10.0272  -2.4662  -2.4102  -1.7797   9.2179   9.4222

          k =-0.0012-0.7372 0.0000 (  2740 PWs)   bands (ev):

   -15.2728 -13.0419 -10.0259  -2.4940  -2.4087  -1.7518   9.2071   9.3808

          k =-0.0012-0.7352 0.0000 (  2740 PWs)   bands (ev):

   -15.2821 -13.0317 -10.0245  -2.5219  -2.4072  -1.7240   9.1956   9.3392

          k =-0.0012-0.7332 0.0000 (  2740 PWs)   bands (ev):

   -15.2920 -13.0209 -10.0229  -2.5498  -2.4055  -1.6962   9.1833   9.2976

          k =-0.0012-0.7312 0.0000 (  2742 PWs)   bands (ev):

   -15.3025 -13.0094 -10.0213  -2.5777  -2.4036  -1.6683   9.1701   9.2559

          k =-0.0012-0.7292 0.0000 (  2740 PWs)   bands (ev):

   -15.3135 -12.9973 -10.0195  -2.6055  -2.4017  -1.6405   9.1561   9.2141

          k =-0.0012-0.7272 0.0000 (  2740 PWs)   bands (ev):

   -15.3250 -12.9846 -10.0177  -2.6333  -2.3997  -1.6127   9.1414   9.1724

          k =-0.0012-0.7252 0.0000 (  2740 PWs)   bands (ev):

   -15.3370 -12.9714 -10.0158  -2.6611  -2.3975  -1.5849   9.1258   9.1306

          k =-0.0012-0.7232 0.0000 (  2740 PWs)   bands (ev):

   -15.3496 -12.9576 -10.0137  -2.6889  -2.3952  -1.5571   9.0888   9.1095

          k =-0.0012-0.7212 0.0000 (  2736 PWs)   bands (ev):

   -15.3625 -12.9432 -10.0116  -2.7167  -2.3928  -1.5292   9.0471   9.0925

          k =-0.0012-0.7192 0.0000 (  2736 PWs)   bands (ev):

   -15.3760 -12.9283 -10.0093  -2.7445  -2.3903  -1.5014   9.0054   9.0747

          k =-0.0012-0.7172 0.0000 (  2734 PWs)   bands (ev):

   -15.3899 -12.9130 -10.0069  -2.7723  -2.3877  -1.4736   8.9637   9.0561

          k =-0.0012-0.7152 0.0000 (  2730 PWs)   bands (ev):

   -15.4042 -12.8971 -10.0045  -2.8000  -2.3849  -1.4459   8.9221   9.0369

          k =-0.0012-0.7132 0.0000 (  2730 PWs)   bands (ev):

   -15.4189 -12.8808 -10.0019  -2.8278  -2.3821  -1.4181   8.8805   9.0169

          k =-0.0012-0.7112 0.0000 (  2734 PWs)   bands (ev):

   -15.4340 -12.8640  -9.9993  -2.8555  -2.3791  -1.3904   8.8389   8.9963

          k = 0.0008-0.7912 0.0000 (  2740 PWs)   bands (ev):

   -15.2772 -13.0371 -10.0252  -2.5074  -2.4081  -1.7385   9.2017   9.3609

          k = 0.0008-0.7892 0.0000 (  2740 PWs)   bands (ev):

   -15.2682 -13.0470 -10.0265  -2.4795  -2.4096  -1.7663   9.2129   9.4024

          k = 0.0008-0.7872 0.0000 (  2740 PWs)   bands (ev):

   -15.2598 -13.0562 -10.0278  -2.4517  -2.4110  -1.7942   9.2231   9.4437

          k = 0.0008-0.7852 0.0000 (  2740 PWs)   bands (ev):

   -15.2521 -13.0647 -10.0290  -2.4239  -2.4123  -1.8220   9.2326   9.4849

          k = 0.0008-0.7832 0.0000 (  2738 PWs)   bands (ev):

   -15.2449 -13.0725 -10.0300  -2.4135  -2.3961  -1.8498   9.2412   9.5258

          k = 0.0008-0.7812 0.0000 (  2736 PWs)   bands (ev):

   -15.2384 -13.0795 -10.0310  -2.4145  -2.3682  -1.8776   9.2490   9.5663

          k = 0.0008-0.7792 0.0000 (  2736 PWs)   bands (ev):

   -15.2326 -13.0859 -10.0318  -2.4155  -2.3405  -1.9054   9.2560   9.6064

          k = 0.0008-0.7772 0.0000 (  2736 PWs)   bands (ev):

   -15.2275 -13.0915 -10.0326  -2.4163  -2.3127  -1.9331   9.2621   9.6457

          k = 0.0008-0.7752 0.0000 (  2736 PWs)   bands (ev):

   -15.2230 -13.0964 -10.0332  -2.4170  -2.2851  -1.9608   9.2673   9.6840

          k = 0.0008-0.7732 0.0000 (  2736 PWs)   bands (ev):

   -15.2193 -13.1005 -10.0338  -2.4176  -2.2575  -1.9884   9.2718   9.7207

          k = 0.0008-0.7712 0.0000 (  2736 PWs)   bands (ev):

   -15.2162 -13.1038 -10.0342  -2.4181  -2.2301  -2.0158   9.2753   9.7551

          k = 0.0008-0.7692 0.0000 (  2736 PWs)   bands (ev):

   -15.2139 -13.1064 -10.0346  -2.4185  -2.2031  -2.0428   9.2781   9.7858

          k = 0.0008-0.7672 0.0000 (  2734 PWs)   bands (ev):

   -15.2123 -13.1081 -10.0348  -2.4188  -2.1770  -2.0689   9.2800   9.8106

          k = 0.0008-0.7652 0.0000 (  2734 PWs)   bands (ev):

   -15.2114 -13.1091 -10.0349  -2.4189  -2.1543  -2.0915   9.2810   9.8262

          k = 0.0008-0.7632 0.0000 (  2734 PWs)   bands (ev):

   -15.2112 -13.1093 -10.0349  -2.4189  -2.1477  -2.0982   9.2812   9.8294

          k = 0.0008-0.7612 0.0000 (  2736 PWs)   bands (ev):

   -15.2118 -13.1087 -10.0349  -2.4189  -2.1654  -2.0805   9.2806   9.8194

          k = 0.0008-0.7592 0.0000 (  2734 PWs)   bands (ev):

   -15.2130 -13.1073 -10.0347  -2.4186  -2.1904  -2.0555   9.2791   9.7986

          k = 0.0008-0.7572 0.0000 (  2736 PWs)   bands (ev):

   -15.2150 -13.1051 -10.0344  -2.4183  -2.2171  -2.0288   9.2768   9.7704

          k = 0.0008-0.7552 0.0000 (  2736 PWs)   bands (ev):

   -15.2177 -13.1022 -10.0340  -2.4179  -2.2443  -2.0015   9.2736   9.7376

          k = 0.0008-0.7532 0.0000 (  2736 PWs)   bands (ev):

   -15.2211 -13.0984 -10.0335  -2.4173  -2.2718  -1.9740   9.2696   9.7018

          k = 0.0008-0.7512 0.0000 (  2736 PWs)   bands (ev):

   -15.2253 -13.0939 -10.0329  -2.4167  -2.2995  -1.9464   9.2647   9.6642

          k = 0.0008-0.7492 0.0000 (  2736 PWs)   bands (ev):

   -15.2301 -13.0887 -10.0322  -2.4159  -2.3272  -1.9187   9.2590   9.6253

          k = 0.0008-0.7472 0.0000 (  2736 PWs)   bands (ev):

   -15.2356 -13.0827 -10.0314  -2.4150  -2.3549  -1.8909   9.2524   9.5856

          k = 0.0008-0.7452 0.0000 (  2736 PWs)   bands (ev):

   -15.2417 -13.0759 -10.0305  -2.4140  -2.3827  -1.8631   9.2451   9.5453

          k = 0.0008-0.7432 0.0000 (  2740 PWs)   bands (ev):

   -15.2486 -13.0685 -10.0295  -2.4129  -2.4105  -1.8353   9.2368   9.5045

          k = 0.0008-0.7412 0.0000 (  2740 PWs)   bands (ev):

   -15.2560 -13.0603 -10.0284  -2.4384  -2.4116  -1.8075   9.2278   9.4635

          k = 0.0008-0.7392 0.0000 (  2740 PWs)   bands (ev):

   -15.2641 -13.0515 -10.0272  -2.4662  -2.4103  -1.7797   9.2179   9.4222

          k = 0.0008-0.7372 0.0000 (  2740 PWs)   bands (ev):

   -15.2728 -13.0419 -10.0258  -2.4940  -2.4088  -1.7518   9.2072   9.3808

          k = 0.0008-0.7352 0.0000 (  2740 PWs)   bands (ev):

   -15.2821 -13.0317 -10.0244  -2.5219  -2.4072  -1.7240   9.1956   9.3392

          k = 0.0008-0.7332 0.0000 (  2740 PWs)   bands (ev):

   -15.2920 -13.0209 -10.0229  -2.5498  -2.4055  -1.6962   9.1833   9.2976

          k = 0.0008-0.7312 0.0000 (  2742 PWs)   bands (ev):

   -15.3025 -13.0094 -10.0213  -2.5777  -2.4037  -1.6683   9.1701   9.2559

          k = 0.0008-0.7292 0.0000 (  2740 PWs)   bands (ev):

   -15.3135 -12.9973 -10.0195  -2.6055  -2.4018  -1.6405   9.1562   9.2141

          k = 0.0008-0.7272 0.0000 (  2740 PWs)   bands (ev):

   -15.3250 -12.9846 -10.0177  -2.6333  -2.3997  -1.6127   9.1414   9.1724

          k = 0.0008-0.7252 0.0000 (  2740 PWs)   bands (ev):

   -15.3370 -12.9714 -10.0157  -2.6611  -2.3975  -1.5849   9.1259   9.1306

          k = 0.0008-0.7232 0.0000 (  2740 PWs)   bands (ev):

   -15.3496 -12.9576 -10.0137  -2.6889  -2.3953  -1.5570   9.0888   9.1096

          k = 0.0008-0.7212 0.0000 (  2736 PWs)   bands (ev):

   -15.3625 -12.9432 -10.0115  -2.7167  -2.3929  -1.5292   9.0471   9.0925

          k = 0.0008-0.7192 0.0000 (  2736 PWs)   bands (ev):

   -15.3760 -12.9283 -10.0093  -2.7445  -2.3904  -1.5014   9.0054   9.0747

          k = 0.0008-0.7172 0.0000 (  2736 PWs)   bands (ev):

   -15.3899 -12.9130 -10.0069  -2.7723  -2.3877  -1.4736   8.9637   9.0562

          k = 0.0008-0.7152 0.0000 (  2732 PWs)   bands (ev):

   -15.4042 -12.8971 -10.0044  -2.8000  -2.3850  -1.4458   8.9220   9.0369

          k = 0.0008-0.7132 0.0000 (  2732 PWs)   bands (ev):

   -15.4189 -12.8808 -10.0019  -2.8278  -2.3821  -1.4181   8.8804   9.0169

          k = 0.0008-0.7112 0.0000 (  2734 PWs)   bands (ev):

   -15.4340 -12.8640  -9.9992  -2.8555  -2.3792  -1.3903   8.8389   8.9963

          k = 0.0028-0.7912 0.0000 (  2738 PWs)   bands (ev):

   -15.2772 -13.0370 -10.0254  -2.5074  -2.4075  -1.7385   9.2015   9.3610

          k = 0.0028-0.7892 0.0000 (  2740 PWs)   bands (ev):

   -15.2682 -13.0469 -10.0268  -2.4795  -2.4091  -1.7664   9.2126   9.4025

          k = 0.0028-0.7872 0.0000 (  2740 PWs)   bands (ev):

   -15.2599 -13.0561 -10.0281  -2.4517  -2.4105  -1.7942   9.2228   9.4438

          k = 0.0028-0.7852 0.0000 (  2738 PWs)   bands (ev):

   -15.2521 -13.0646 -10.0293  -2.4239  -2.4118  -1.8220   9.2323   9.4850

          k = 0.0028-0.7832 0.0000 (  2738 PWs)   bands (ev):

   -15.2450 -13.0724 -10.0303  -2.4130  -2.3961  -1.8498   9.2409   9.5259

          k = 0.0028-0.7812 0.0000 (  2738 PWs)   bands (ev):

   -15.2385 -13.0795 -10.0313  -2.4140  -2.3683  -1.8776   9.2487   9.5664

          k = 0.0028-0.7792 0.0000 (  2736 PWs)   bands (ev):

   -15.2327 -13.0858 -10.0321  -2.4150  -2.3405  -1.9054   9.2556   9.6065

          k = 0.0028-0.7772 0.0000 (  2736 PWs)   bands (ev):

   -15.2275 -13.0914 -10.0329  -2.4158  -2.3128  -1.9332   9.2617   9.6458

          k = 0.0028-0.7752 0.0000 (  2736 PWs)   bands (ev):

   -15.2231 -13.0963 -10.0335  -2.4165  -2.2851  -1.9608   9.2670   9.6841

          k = 0.0028-0.7732 0.0000 (  2736 PWs)   bands (ev):

   -15.2193 -13.1004 -10.0341  -2.4171  -2.2575  -1.9884   9.2714   9.7208

          k = 0.0028-0.7712 0.0000 (  2734 PWs)   bands (ev):

   -15.2162 -13.1037 -10.0345  -2.4176  -2.2301  -2.0158   9.2750   9.7552

          k = 0.0028-0.7692 0.0000 (  2734 PWs)   bands (ev):

   -15.2139 -13.1063 -10.0348  -2.4180  -2.2031  -2.0428   9.2777   9.7859

          k = 0.0028-0.7672 0.0000 (  2734 PWs)   bands (ev):

   -15.2123 -13.1080 -10.0351  -2.4182  -2.1771  -2.0688   9.2796   9.8107

          k = 0.0028-0.7652 0.0000 (  2734 PWs)   bands (ev):

   -15.2114 -13.1090 -10.0352  -2.4184  -2.1545  -2.0914   9.2807   9.8263

          k = 0.0028-0.7632 0.0000 (  2738 PWs)   bands (ev):

   -15.2112 -13.1092 -10.0352  -2.4184  -2.1478  -2.0981   9.2809   9.8295

          k = 0.0028-0.7612 0.0000 (  2736 PWs)   bands (ev):

   -15.2118 -13.1086 -10.0351  -2.4183  -2.1655  -2.0804   9.2802   9.8195

          k = 0.0028-0.7592 0.0000 (  2734 PWs)   bands (ev):

   -15.2130 -13.1072 -10.0350  -2.4181  -2.1905  -2.0554   9.2787   9.7987

          k = 0.0028-0.7572 0.0000 (  2734 PWs)   bands (ev):

   -15.2150 -13.1051 -10.0347  -2.4178  -2.2171  -2.0288   9.2764   9.7705

          k = 0.0028-0.7552 0.0000 (  2736 PWs)   bands (ev):

   -15.2178 -13.1021 -10.0343  -2.4174  -2.2444  -2.0015   9.2732   9.7377

          k = 0.0028-0.7532 0.0000 (  2736 PWs)   bands (ev):

   -15.2212 -13.0984 -10.0338  -2.4168  -2.2719  -1.9740   9.2692   9.7019

          k = 0.0028-0.7512 0.0000 (  2736 PWs)   bands (ev):

   -15.2253 -13.0939 -10.0332  -2.4162  -2.2995  -1.9464   9.2644   9.6643

          k = 0.0028-0.7492 0.0000 (  2736 PWs)   bands (ev):

   -15.2301 -13.0886 -10.0325  -2.4154  -2.3272  -1.9187   9.2587   9.6254

          k = 0.0028-0.7472 0.0000 (  2736 PWs)   bands (ev):

   -15.2356 -13.0826 -10.0317  -2.4145  -2.3550  -1.8909   9.2521   9.5857

          k = 0.0028-0.7452 0.0000 (  2738 PWs)   bands (ev):

   -15.2418 -13.0759 -10.0308  -2.4135  -2.3828  -1.8632   9.2447   9.5454

          k = 0.0028-0.7432 0.0000 (  2738 PWs)   bands (ev):

   -15.2486 -13.0684 -10.0298  -2.4124  -2.4106  -1.8353   9.2365   9.5046

          k = 0.0028-0.7412 0.0000 (  2740 PWs)   bands (ev):

   -15.2561 -13.0602 -10.0287  -2.4384  -2.4111  -1.8075   9.2275   9.4636

          k = 0.0028-0.7392 0.0000 (  2740 PWs)   bands (ev):

   -15.2642 -13.0514 -10.0275  -2.4662  -2.4098  -1.7797   9.2176   9.4223

          k = 0.0028-0.7372 0.0000 (  2740 PWs)   bands (ev):

   -15.2729 -13.0418 -10.0261  -2.4941  -2.4083  -1.7519   9.2069   9.3809

          k = 0.0028-0.7352 0.0000 (  2738 PWs)   bands (ev):

   -15.2822 -13.0316 -10.0247  -2.5219  -2.4067  -1.7240   9.1953   9.3393

          k = 0.0028-0.7332 0.0000 (  2740 PWs)   bands (ev):

   -15.2921 -13.0208 -10.0232  -2.5498  -2.4050  -1.6962   9.1830   9.2977

          k = 0.0028-0.7312 0.0000 (  2742 PWs)   bands (ev):

   -15.3025 -13.0093 -10.0215  -2.5777  -2.4032  -1.6684   9.1699   9.2560

          k = 0.0028-0.7292 0.0000 (  2742 PWs)   bands (ev):

   -15.3135 -12.9972 -10.0198  -2.6055  -2.4013  -1.6405   9.1559   9.2142

          k = 0.0028-0.7272 0.0000 (  2740 PWs)   bands (ev):

   -15.3250 -12.9845 -10.0180  -2.6333  -2.3992  -1.6127   9.1412   9.1725

          k = 0.0028-0.7252 0.0000 (  2740 PWs)   bands (ev):

   -15.3370 -12.9713 -10.0160  -2.6611  -2.3970  -1.5849   9.1256   9.1307

          k = 0.0028-0.7232 0.0000 (  2740 PWs)   bands (ev):

   -15.3496 -12.9575 -10.0140  -2.6890  -2.3948  -1.5571   9.0889   9.1093

          k = 0.0028-0.7212 0.0000 (  2736 PWs)   bands (ev):

   -15.3626 -12.9431 -10.0118  -2.7167  -2.3924  -1.5292   9.0472   9.0923

          k = 0.0028-0.7192 0.0000 (  2734 PWs)   bands (ev):

   -15.3760 -12.9283 -10.0096  -2.7445  -2.3898  -1.5014   9.0055   9.0745

          k = 0.0028-0.7172 0.0000 (  2732 PWs)   bands (ev):

   -15.3899 -12.9129 -10.0072  -2.7723  -2.3872  -1.4737   8.9638   9.0560

          k = 0.0028-0.7152 0.0000 (  2732 PWs)   bands (ev):

   -15.4042 -12.8970 -10.0047  -2.8000  -2.3845  -1.4459   8.9221   9.0367

          k = 0.0028-0.7132 0.0000 (  2732 PWs)   bands (ev):

   -15.4189 -12.8807 -10.0022  -2.8278  -2.3816  -1.4181   8.8805   9.0168

          k = 0.0028-0.7112 0.0000 (  2734 PWs)   bands (ev):

   -15.4340 -12.8639  -9.9995  -2.8555  -2.3786  -1.3904   8.8390   8.9961

          k = 0.0048-0.7912 0.0000 (  2738 PWs)   bands (ev):

   -15.2773 -13.0369 -10.0260  -2.5074  -2.4065  -1.7386   9.2009   9.3612

          k = 0.0048-0.7892 0.0000 (  2738 PWs)   bands (ev):

   -15.2683 -13.0468 -10.0274  -2.4796  -2.4080  -1.7664   9.2119   9.4027

          k = 0.0048-0.7872 0.0000 (  2738 PWs)   bands (ev):

   -15.2599 -13.0559 -10.0287  -2.4517  -2.4094  -1.7943   9.2222   9.4440

          k = 0.0048-0.7852 0.0000 (  2738 PWs)   bands (ev):

   -15.2521 -13.0644 -10.0299  -2.4239  -2.4107  -1.8221   9.2316   9.4852

          k = 0.0048-0.7832 0.0000 (  2738 PWs)   bands (ev):

   -15.2450 -13.0722 -10.0309  -2.4119  -2.3961  -1.8499   9.2402   9.5261

          k = 0.0048-0.7812 0.0000 (  2738 PWs)   bands (ev):

   -15.2385 -13.0793 -10.0319  -2.4129  -2.3683  -1.8777   9.2480   9.5666

          k = 0.0048-0.7792 0.0000 (  2738 PWs)   bands (ev):

   -15.2327 -13.0857 -10.0327  -2.4139  -2.3405  -1.9055   9.2549   9.6067

          k = 0.0048-0.7772 0.0000 (  2736 PWs)   bands (ev):

   -15.2276 -13.0913 -10.0335  -2.4147  -2.3128  -1.9332   9.2610   9.6460

          k = 0.0048-0.7752 0.0000 (  2736 PWs)   bands (ev):

   -15.2231 -13.0962 -10.0341  -2.4154  -2.2851  -1.9609   9.2663   9.6843

          k = 0.0048-0.7732 0.0000 (  2734 PWs)   bands (ev):

   -15.2193 -13.1003 -10.0347  -2.4160  -2.2576  -1.9884   9.2707   9.7210

          k = 0.0048-0.7712 0.0000 (  2734 PWs)   bands (ev):

   -15.2163 -13.1036 -10.0351  -2.4165  -2.2302  -2.0158   9.2743   9.7554

          k = 0.0048-0.7692 0.0000 (  2734 PWs)   bands (ev):

   -15.2140 -13.1061 -10.0354  -2.4169  -2.2032  -2.0428   9.2770   9.7861

          k = 0.0048-0.7672 0.0000 (  2738 PWs)   bands (ev):

   -15.2124 -13.1079 -10.0357  -2.4172  -2.1772  -2.0688   9.2789   9.8109

          k = 0.0048-0.7652 0.0000 (  2736 PWs)   bands (ev):

   -15.2114 -13.1089 -10.0358  -2.4173  -2.1547  -2.0913   9.2799   9.8265

          k = 0.0048-0.7632 0.0000 (  2738 PWs)   bands (ev):

   -15.2113 -13.1091 -10.0358  -2.4174  -2.1481  -2.0979   9.2801   9.8297

          k = 0.0048-0.7612 0.0000 (  2738 PWs)   bands (ev):

   -15.2118 -13.1085 -10.0358  -2.4173  -2.1657  -2.0804   9.2795   9.8197

          k = 0.0048-0.7592 0.0000 (  2734 PWs)   bands (ev):

   -15.2131 -13.1071 -10.0356  -2.4170  -2.1906  -2.0554   9.2780   9.7989

          k = 0.0048-0.7572 0.0000 (  2734 PWs)   bands (ev):

   -15.2151 -13.1049 -10.0353  -2.4167  -2.2172  -2.0288   9.2757   9.7707

          k = 0.0048-0.7552 0.0000 (  2734 PWs)   bands (ev):

   -15.2178 -13.1019 -10.0349  -2.4163  -2.2445  -2.0015   9.2725   9.7379

          k = 0.0048-0.7532 0.0000 (  2734 PWs)   bands (ev):

   -15.2212 -13.0982 -10.0344  -2.4157  -2.2720  -1.9741   9.2685   9.7021

          k = 0.0048-0.7512 0.0000 (  2736 PWs)   bands (ev):

   -15.2253 -13.0937 -10.0338  -2.4151  -2.2996  -1.9464   9.2636   9.6645

          k = 0.0048-0.7492 0.0000 (  2738 PWs)   bands (ev):

   -15.2302 -13.0885 -10.0331  -2.4143  -2.3273  -1.9187   9.2579   9.6256

          k = 0.0048-0.7472 0.0000 (  2738 PWs)   bands (ev):

   -15.2356 -13.0825 -10.0323  -2.4134  -2.3550  -1.8910   9.2514   9.5859

          k = 0.0048-0.7452 0.0000 (  2738 PWs)   bands (ev):

   -15.2418 -13.0757 -10.0314  -2.4124  -2.3828  -1.8632   9.2440   9.5456

          k = 0.0048-0.7432 0.0000 (  2738 PWs)   bands (ev):

   -15.2486 -13.0683 -10.0304  -2.4113  -2.4106  -1.8354   9.2358   9.5049

          k = 0.0048-0.7412 0.0000 (  2738 PWs)   bands (ev):

   -15.2561 -13.0601 -10.0293  -2.4384  -2.4100  -1.8076   9.2268   9.4638

          k = 0.0048-0.7392 0.0000 (  2738 PWs)   bands (ev):

   -15.2642 -13.0512 -10.0281  -2.4663  -2.4087  -1.7797   9.2169   9.4225

          k = 0.0048-0.7372 0.0000 (  2738 PWs)   bands (ev):

   -15.2729 -13.0417 -10.0267  -2.4941  -2.4072  -1.7519   9.2063   9.3811

          k = 0.0048-0.7352 0.0000 (  2738 PWs)   bands (ev):

   -15.2822 -13.0315 -10.0253  -2.5219  -2.4056  -1.7241   9.1947   9.3395

          k = 0.0048-0.7332 0.0000 (  2740 PWs)   bands (ev):

   -15.2921 -13.0206 -10.0238  -2.5498  -2.4039  -1.6962   9.1824   9.2979

          k = 0.0048-0.7312 0.0000 (  2742 PWs)   bands (ev):

   -15.3025 -13.0092 -10.0221  -2.5777  -2.4021  -1.6684   9.1693   9.2562

          k = 0.0048-0.7292 0.0000 (  2742 PWs)   bands (ev):

   -15.3135 -12.9971 -10.0204  -2.6055  -2.4002  -1.6406   9.1554   9.2144

          k = 0.0048-0.7272 0.0000 (  2740 PWs)   bands (ev):

   -15.3251 -12.9844 -10.0186  -2.6334  -2.3981  -1.6128   9.1406   9.1727

          k = 0.0048-0.7252 0.0000 (  2740 PWs)   bands (ev):

   -15.3371 -12.9712 -10.0166  -2.6612  -2.3960  -1.5850   9.1251   9.1309

          k = 0.0048-0.7232 0.0000 (  2736 PWs)   bands (ev):

   -15.3496 -12.9574 -10.0146  -2.6890  -2.3937  -1.5571   9.0891   9.1089

          k = 0.0048-0.7212 0.0000 (  2734 PWs)   bands (ev):

   -15.3626 -12.9430 -10.0124  -2.7168  -2.3913  -1.5293   9.0474   9.0918

          k = 0.0048-0.7192 0.0000 (  2730 PWs)   bands (ev):

   -15.3760 -12.9281 -10.0101  -2.7445  -2.3888  -1.5015   9.0057   9.0741

          k = 0.0048-0.7172 0.0000 (  2732 PWs)   bands (ev):

   -15.3899 -12.9128 -10.0078  -2.7723  -2.3861  -1.4737   8.9640   9.0555

          k = 0.0048-0.7152 0.0000 (  2734 PWs)   bands (ev):

   -15.4042 -12.8969 -10.0053  -2.8001  -2.3834  -1.4460   8.9224   9.0363

          k = 0.0048-0.7132 0.0000 (  2732 PWs)   bands (ev):

   -15.4189 -12.8806 -10.0028  -2.8278  -2.3805  -1.4182   8.8808   9.0164

          k = 0.0048-0.7112 0.0000 (  2729 PWs)   bands (ev):

   -15.4340 -12.8638 -10.0001  -2.8555  -2.3776  -1.3905   8.8392   8.9958

          k = 0.0068-0.7912 0.0000 (  2738 PWs)   bands (ev):

   -15.2773 -13.0367 -10.0270  -2.5075  -2.4048  -1.7387   9.1999   9.3615

          k = 0.0068-0.7892 0.0000 (  2736 PWs)   bands (ev):

   -15.2683 -13.0465 -10.0283  -2.4796  -2.4063  -1.7665   9.2110   9.4030

          k = 0.0068-0.7872 0.0000 (  2736 PWs)   bands (ev):

   -15.2599 -13.0557 -10.0296  -2.4518  -2.4078  -1.7944   9.2212   9.4444

          k = 0.0068-0.7852 0.0000 (  2736 PWs)   bands (ev):

   -15.2522 -13.0642 -10.0308  -2.4240  -2.4091  -1.8222   9.2306   9.4855

          k = 0.0068-0.7832 0.0000 (  2738 PWs)   bands (ev):

   -15.2451 -13.0720 -10.0318  -2.4102  -2.3962  -1.8500   9.2392   9.5264

          k = 0.0068-0.7812 0.0000 (  2738 PWs)   bands (ev):

   -15.2386 -13.0791 -10.0328  -2.4113  -2.3684  -1.8778   9.2470   9.5669

          k = 0.0068-0.7792 0.0000 (  2738 PWs)   bands (ev):

   -15.2328 -13.0855 -10.0337  -2.4123  -2.3406  -1.9055   9.2539   9.6070

          k = 0.0068-0.7772 0.0000 (  2736 PWs)   bands (ev):

   -15.2276 -13.0911 -10.0344  -2.4131  -2.3129  -1.9333   9.2599   9.6463

          k = 0.0068-0.7752 0.0000 (  2734 PWs)   bands (ev):

   -15.2232 -13.0959 -10.0350  -2.4138  -2.2852  -1.9609   9.2652   9.6846

          k = 0.0068-0.7732 0.0000 (  2734 PWs)   bands (ev):

   -15.2194 -13.1000 -10.0356  -2.4144  -2.2577  -1.9885   9.2696   9.7213

          k = 0.0068-0.7712 0.0000 (  2736 PWs)   bands (ev):

   -15.2164 -13.1033 -10.0360  -2.4149  -2.2303  -2.0158   9.2731   9.7557

          k = 0.0068-0.7692 0.0000 (  2736 PWs)   bands (ev):

   -15.2140 -13.1059 -10.0364  -2.4153  -2.2034  -2.0428   9.2759   9.7864

          k = 0.0068-0.7672 0.0000 (  2738 PWs)   bands (ev):

   -15.2124 -13.1077 -10.0366  -2.4155  -2.1774  -2.0687   9.2777   9.8112

          k = 0.0068-0.7652 0.0000 (  2736 PWs)   bands (ev):

   -15.2115 -13.1086 -10.0367  -2.4157  -2.1550  -2.0911   9.2788   9.8267

          k = 0.0068-0.7632 0.0000 (  2736 PWs)   bands (ev):

   -15.2113 -13.1088 -10.0368  -2.4157  -2.1485  -2.0976   9.2790   9.8300

          k = 0.0068-0.7612 0.0000 (  2738 PWs)   bands (ev):

   -15.2119 -13.1082 -10.0367  -2.4156  -2.1659  -2.0802   9.2783   9.8200

          k = 0.0068-0.7592 0.0000 (  2738 PWs)   bands (ev):

   -15.2132 -13.1068 -10.0365  -2.4154  -2.1908  -2.0553   9.2769   9.7992

          k = 0.0068-0.7572 0.0000 (  2736 PWs)   bands (ev):

   -15.2152 -13.1046 -10.0362  -2.4151  -2.2174  -2.0287   9.2745   9.7710

          k = 0.0068-0.7552 0.0000 (  2734 PWs)   bands (ev):

   -15.2179 -13.1017 -10.0358  -2.4146  -2.2446  -2.0015   9.2714   9.7382

          k = 0.0068-0.7532 0.0000 (  2734 PWs)   bands (ev):

   -15.2213 -13.0980 -10.0353  -2.4141  -2.2721  -1.9741   9.2674   9.7024

          k = 0.0068-0.7512 0.0000 (  2736 PWs)   bands (ev):

   -15.2254 -13.0935 -10.0347  -2.4134  -2.2997  -1.9465   9.2625   9.6648

          k = 0.0068-0.7492 0.0000 (  2738 PWs)   bands (ev):

   -15.2302 -13.0882 -10.0340  -2.4127  -2.3274  -1.9188   9.2569   9.6259

          k = 0.0068-0.7472 0.0000 (  2738 PWs)   bands (ev):

   -15.2357 -13.0822 -10.0332  -2.4118  -2.3551  -1.8910   9.2504   9.5862

          k = 0.0068-0.7452 0.0000 (  2738 PWs)   bands (ev):

   -15.2419 -13.0755 -10.0323  -2.4108  -2.3829  -1.8632   9.2430   9.5459

          k = 0.0068-0.7432 0.0000 (  2736 PWs)   bands (ev):

   -15.2487 -13.0680 -10.0313  -2.4107  -2.4096  -1.8354   9.2348   9.5052

          k = 0.0068-0.7412 0.0000 (  2736 PWs)   bands (ev):

   -15.2561 -13.0599 -10.0302  -2.4385  -2.4084  -1.8076   9.2258   9.4641

          k = 0.0068-0.7392 0.0000 (  2736 PWs)   bands (ev):

   -15.2642 -13.0510 -10.0290  -2.4663  -2.4070  -1.7798   9.2160   9.4229

          k = 0.0068-0.7372 0.0000 (  2736 PWs)   bands (ev):

   -15.2729 -13.0415 -10.0277  -2.4942  -2.4056  -1.7520   9.2053   9.3814

          k = 0.0068-0.7352 0.0000 (  2740 PWs)   bands (ev):

   -15.2823 -13.0313 -10.0262  -2.5221  -2.4040  -1.7242   9.1938   9.3399

          k = 0.0068-0.7332 0.0000 (  2738 PWs)   bands (ev):

   -15.2921 -13.0204 -10.0247  -2.5499  -2.4023  -1.6963   9.1815   9.2982

          k = 0.0068-0.7312 0.0000 (  2738 PWs)   bands (ev):

   -15.3026 -13.0090 -10.0231  -2.5777  -2.4005  -1.6685   9.1684   9.2565

          k = 0.0068-0.7292 0.0000 (  2740 PWs)   bands (ev):

   -15.3136 -12.9969 -10.0213  -2.6056  -2.3985  -1.6407   9.1545   9.2148

          k = 0.0068-0.7272 0.0000 (  2740 PWs)   bands (ev):

   -15.3251 -12.9842 -10.0195  -2.6334  -2.3965  -1.6129   9.1398   9.1730

          k = 0.0068-0.7252 0.0000 (  2740 PWs)   bands (ev):

   -15.3371 -12.9710 -10.0175  -2.6612  -2.3943  -1.5851   9.1244   9.1312

          k = 0.0068-0.7232 0.0000 (  2738 PWs)   bands (ev):

   -15.3496 -12.9572 -10.0155  -2.6890  -2.3920  -1.5572   9.0895   9.1081

          k = 0.0068-0.7212 0.0000 (  2736 PWs)   bands (ev):

   -15.3626 -12.9428 -10.0133  -2.7168  -2.3896  -1.5295   9.0477   9.0911

          k = 0.0068-0.7192 0.0000 (  2732 PWs)   bands (ev):

   -15.3761 -12.9280 -10.0111  -2.7446  -2.3871  -1.5016   9.0060   9.0734

          k = 0.0068-0.7172 0.0000 (  2734 PWs)   bands (ev):

   -15.3899 -12.9126 -10.0087  -2.7723  -2.3845  -1.4739   8.9643   9.0549

          k = 0.0068-0.7152 0.0000 (  2733 PWs)   bands (ev):

   -15.4042 -12.8968 -10.0062  -2.8001  -2.3818  -1.4461   8.9227   9.0357

          k = 0.0068-0.7132 0.0000 (  2733 PWs)   bands (ev):

   -15.4190 -12.8804 -10.0037  -2.8278  -2.3789  -1.4184   8.8811   9.0158

          k = 0.0068-0.7112 0.0000 (  2729 PWs)   bands (ev):

   -15.4340 -12.8637 -10.0010  -2.8556  -2.3759  -1.3906   8.8395   8.9953

          k = 0.0088-0.7912 0.0000 (  2736 PWs)   bands (ev):

   -15.2774 -13.0364 -10.0282  -2.5076  -2.4026  -1.7388   9.1987   9.3619

          k = 0.0088-0.7892 0.0000 (  2734 PWs)   bands (ev):

   -15.2684 -13.0463 -10.0296  -2.4797  -2.4041  -1.7667   9.2097   9.4034

          k = 0.0088-0.7872 0.0000 (  2736 PWs)   bands (ev):

   -15.2600 -13.0554 -10.0308  -2.4519  -2.4055  -1.7945   9.2199   9.4448

          k = 0.0088-0.7852 0.0000 (  2736 PWs)   bands (ev):

   -15.2523 -13.0639 -10.0320  -2.4241  -2.4068  -1.8223   9.2293   9.4859

          k = 0.0088-0.7832 0.0000 (  2736 PWs)   bands (ev):

   -15.2451 -13.0717 -10.0331  -2.4080  -2.3963  -1.8501   9.2378   9.5268

          k = 0.0088-0.7812 0.0000 (  2734 PWs)   bands (ev):

   -15.2386 -13.0788 -10.0340  -2.4091  -2.3685  -1.8779   9.2455   9.5674

          k = 0.0088-0.7792 0.0000 (  2736 PWs)   bands (ev):

   -15.2328 -13.0851 -10.0349  -2.4100  -2.3407  -1.9056   9.2524   9.6074

          k = 0.0088-0.7772 0.0000 (  2736 PWs)   bands (ev):

   -15.2277 -13.0907 -10.0356  -2.4109  -2.3130  -1.9333   9.2585   9.6467

          k = 0.0088-0.7752 0.0000 (  2736 PWs)   bands (ev):

   -15.2233 -13.0956 -10.0363  -2.4116  -2.2854  -1.9610   9.2637   9.6850

          k = 0.0088-0.7732 0.0000 (  2736 PWs)   bands (ev):

   -15.2195 -13.0997 -10.0368  -2.4122  -2.2579  -1.9885   9.2681   9.7217

          k = 0.0088-0.7712 0.0000 (  2736 PWs)   bands (ev):

   -15.2165 -13.1030 -10.0373  -2.4127  -2.2305  -2.0158   9.2716   9.7561

          k = 0.0088-0.7692 0.0000 (  2738 PWs)   bands (ev):

   -15.2141 -13.1056 -10.0376  -2.4131  -2.2036  -2.0427   9.2743   9.7868

          k = 0.0088-0.7672 0.0000 (  2738 PWs)   bands (ev):

   -15.2125 -13.1073 -10.0379  -2.4133  -2.1777  -2.0686   9.2762   9.8116

          k = 0.0088-0.7652 0.0000 (  2736 PWs)   bands (ev):

   -15.2116 -13.1083 -10.0380  -2.4135  -2.1555  -2.0908   9.2772   9.8271

          k = 0.0088-0.7632 0.0000 (  2734 PWs)   bands (ev):

   -15.2114 -13.1085 -10.0380  -2.4135  -2.1491  -2.0972   9.2774   9.8304

          k = 0.0088-0.7612 0.0000 (  2738 PWs)   bands (ev):

   -15.2120 -13.1079 -10.0379  -2.4134  -2.1663  -2.0800   9.2768   9.8204

          k = 0.0088-0.7592 0.0000 (  2738 PWs)   bands (ev):

   -15.2133 -13.1065 -10.0378  -2.4132  -2.1911  -2.0553   9.2753   9.7996

          k = 0.0088-0.7572 0.0000 (  2736 PWs)   bands (ev):

   -15.2153 -13.1043 -10.0375  -2.4129  -2.2176  -2.0287   9.2730   9.7714

          k = 0.0088-0.7552 0.0000 (  2736 PWs)   bands (ev):

   -15.2180 -13.1014 -10.0371  -2.4124  -2.2448  -2.0015   9.2699   9.7386

          k = 0.0088-0.7532 0.0000 (  2738 PWs)   bands (ev):

   -15.2214 -13.0976 -10.0366  -2.4119  -2.2722  -1.9741   9.2659   9.7028

          k = 0.0088-0.7512 0.0000 (  2736 PWs)   bands (ev):

   -15.2255 -13.0931 -10.0360  -2.4112  -2.2998  -1.9465   9.2611   9.6652

          k = 0.0088-0.7492 0.0000 (  2736 PWs)   bands (ev):

   -15.2303 -13.0879 -10.0353  -2.4104  -2.3275  -1.9188   9.2554   9.6263

          k = 0.0088-0.7472 0.0000 (  2736 PWs)   bands (ev):

   -15.2358 -13.0819 -10.0345  -2.4096  -2.3552  -1.8911   9.2489   9.5866

          k = 0.0088-0.7452 0.0000 (  2736 PWs)   bands (ev):

   -15.2420 -13.0752 -10.0336  -2.4085  -2.3830  -1.8633   9.2416   9.5463

          k = 0.0088-0.7432 0.0000 (  2736 PWs)   bands (ev):

   -15.2488 -13.0677 -10.0326  -2.4108  -2.4074  -1.8355   9.2335   9.5056

          k = 0.0088-0.7412 0.0000 (  2736 PWs)   bands (ev):

   -15.2562 -13.0596 -10.0314  -2.4386  -2.4062  -1.8077   9.2245   9.4645

          k = 0.0088-0.7392 0.0000 (  2734 PWs)   bands (ev):

   -15.2643 -13.0507 -10.0302  -2.4664  -2.4048  -1.7799   9.2147   9.4233

          k = 0.0088-0.7372 0.0000 (  2734 PWs)   bands (ev):

   -15.2730 -13.0412 -10.0289  -2.4942  -2.4033  -1.7521   9.2040   9.3818

          k = 0.0088-0.7352 0.0000 (  2736 PWs)   bands (ev):

   -15.2823 -13.0310 -10.0275  -2.5221  -2.4018  -1.7243   9.1926   9.3403

          k = 0.0088-0.7332 0.0000 (  2738 PWs)   bands (ev):

   -15.2922 -13.0201 -10.0259  -2.5499  -2.4001  -1.6965   9.1803   9.2986

          k = 0.0088-0.7312 0.0000 (  2738 PWs)   bands (ev):

   -15.3026 -13.0087 -10.0243  -2.5778  -2.3982  -1.6686   9.1673   9.2569

          k = 0.0088-0.7292 0.0000 (  2740 PWs)   bands (ev):

   -15.3136 -12.9966 -10.0226  -2.6056  -2.3963  -1.6408   9.1534   9.2152

          k = 0.0088-0.7272 0.0000 (  2740 PWs)   bands (ev):

   -15.3251 -12.9840 -10.0207  -2.6335  -2.3943  -1.6130   9.1388   9.1734

          k = 0.0088-0.7252 0.0000 (  2740 PWs)   bands (ev):

   -15.3372 -12.9707 -10.0188  -2.6613  -2.3921  -1.5852   9.1233   9.1317

          k = 0.0088-0.7232 0.0000 (  2738 PWs)   bands (ev):

   -15.3497 -12.9569 -10.0167  -2.6890  -2.3898  -1.5574   9.0899   9.1072

          k = 0.0088-0.7212 0.0000 (  2736 PWs)   bands (ev):

   -15.3627 -12.9426 -10.0145  -2.7168  -2.3874  -1.5296   9.0482   9.0902

          k = 0.0088-0.7192 0.0000 (  2734 PWs)   bands (ev):

   -15.3761 -12.9277 -10.0123  -2.7446  -2.3849  -1.5018   9.0065   9.0725

          k = 0.0088-0.7172 0.0000 (  2733 PWs)   bands (ev):

   -15.3900 -12.9124 -10.0099  -2.7724  -2.3823  -1.4740   8.9648   9.0541

          k = 0.0088-0.7152 0.0000 (  2733 PWs)   bands (ev):

   -15.4043 -12.8965 -10.0074  -2.8001  -2.3795  -1.4463   8.9231   9.0349

          k = 0.0088-0.7132 0.0000 (  2733 PWs)   bands (ev):

   -15.4190 -12.8802 -10.0049  -2.8279  -2.3767  -1.4185   8.8815   9.0151

          k = 0.0088-0.7112 0.0000 (  2731 PWs)   bands (ev):

   -15.4341 -12.8635 -10.0022  -2.8556  -2.3737  -1.3908   8.8400   8.9946

          k = 0.0108-0.7912 0.0000 (  2734 PWs)   bands (ev):

   -15.2775 -13.0361 -10.0297  -2.5076  -2.3998  -1.7390   9.1971   9.3625

          k = 0.0108-0.7892 0.0000 (  2732 PWs)   bands (ev):

   -15.2685 -13.0459 -10.0311  -2.4798  -2.4013  -1.7668   9.2081   9.4040

          k = 0.0108-0.7872 0.0000 (  2732 PWs)   bands (ev):

   -15.2601 -13.0551 -10.0323  -2.4520  -2.4027  -1.7946   9.2182   9.4453

          k = 0.0108-0.7852 0.0000 (  2732 PWs)   bands (ev):

   -15.2524 -13.0635 -10.0335  -2.4242  -2.4040  -1.8224   9.2276   9.4865

          k = 0.0108-0.7832 0.0000 (  2730 PWs)   bands (ev):

   -15.2452 -13.0713 -10.0346  -2.4052  -2.3964  -1.8502   9.2361   9.5274

          k = 0.0108-0.7812 0.0000 (  2730 PWs)   bands (ev):

   -15.2388 -13.0784 -10.0355  -2.4063  -2.3686  -1.8780   9.2438   9.5679

          k = 0.0108-0.7792 0.0000 (  2732 PWs)   bands (ev):

   -15.2329 -13.0847 -10.0364  -2.4072  -2.3409  -1.9057   9.2506   9.6079

          k = 0.0108-0.7772 0.0000 (  2736 PWs)   bands (ev):

   -15.2278 -13.0903 -10.0372  -2.4081  -2.3132  -1.9334   9.2566   9.6472

          k = 0.0108-0.7752 0.0000 (  2736 PWs)   bands (ev):

   -15.2234 -13.0952 -10.0378  -2.4088  -2.2856  -1.9610   9.2618   9.6855

          k = 0.0108-0.7732 0.0000 (  2736 PWs)   bands (ev):

   -15.2196 -13.0993 -10.0384  -2.4094  -2.2580  -1.9885   9.2662   9.7222

          k = 0.0108-0.7712 0.0000 (  2734 PWs)   bands (ev):

   -15.2166 -13.1026 -10.0388  -2.4099  -2.2308  -2.0158   9.2697   9.7566

          k = 0.0108-0.7692 0.0000 (  2736 PWs)   bands (ev):

   -15.2143 -13.1052 -10.0392  -2.4103  -2.2039  -2.0427   9.2724   9.7873

          k = 0.0108-0.7672 0.0000 (  2736 PWs)   bands (ev):

   -15.2126 -13.1069 -10.0394  -2.4105  -2.1781  -2.0684   9.2743   9.8121

          k = 0.0108-0.7652 0.0000 (  2732 PWs)   bands (ev):

   -15.2117 -13.1079 -10.0395  -2.4106  -2.1561  -2.0905   9.2753   9.8276

          k = 0.0108-0.7632 0.0000 (  2732 PWs)   bands (ev):

   -15.2116 -13.1081 -10.0396  -2.4107  -2.1498  -2.0967   9.2755   9.8309

          k = 0.0108-0.7612 0.0000 (  2736 PWs)   bands (ev):

   -15.2121 -13.1075 -10.0395  -2.4106  -2.1668  -2.0798   9.2749   9.8209

          k = 0.0108-0.7592 0.0000 (  2736 PWs)   bands (ev):

   -15.2134 -13.1061 -10.0393  -2.4104  -2.1914  -2.0552   9.2734   9.8001

          k = 0.0108-0.7572 0.0000 (  2734 PWs)   bands (ev):

   -15.2154 -13.1039 -10.0390  -2.4101  -2.2179  -2.0287   9.2711   9.7719

          k = 0.0108-0.7552 0.0000 (  2736 PWs)   bands (ev):

   -15.2181 -13.1010 -10.0386  -2.4097  -2.2450  -2.0016   9.2680   9.7391

          k = 0.0108-0.7532 0.0000 (  2736 PWs)   bands (ev):

   -15.2215 -13.0972 -10.0381  -2.4091  -2.2724  -1.9741   9.2640   9.7033

          k = 0.0108-0.7512 0.0000 (  2736 PWs)   bands (ev):

   -15.2256 -13.0927 -10.0375  -2.4084  -2.3000  -1.9466   9.2592   9.6657

          k = 0.0108-0.7492 0.0000 (  2732 PWs)   bands (ev):

   -15.2304 -13.0875 -10.0368  -2.4077  -2.3277  -1.9189   9.2536   9.6269

          k = 0.0108-0.7472 0.0000 (  2732 PWs)   bands (ev):

   -15.2359 -13.0815 -10.0360  -2.4068  -2.3554  -1.8912   9.2471   9.5872

          k = 0.0108-0.7452 0.0000 (  2730 PWs)   bands (ev):

   -15.2421 -13.0748 -10.0351  -2.4057  -2.3831  -1.8634   9.2398   9.5469

          k = 0.0108-0.7432 0.0000 (  2730 PWs)   bands (ev):

   -15.2489 -13.0673 -10.0341  -2.4109  -2.4046  -1.8356   9.2317   9.5061

          k = 0.0108-0.7412 0.0000 (  2732 PWs)   bands (ev):

   -15.2563 -13.0592 -10.0330  -2.4387  -2.4034  -1.8079   9.2228   9.4651

          k = 0.0108-0.7392 0.0000 (  2732 PWs)   bands (ev):

   -15.2644 -13.0503 -10.0317  -2.4665  -2.4020  -1.7800   9.2130   9.4238

          k = 0.0108-0.7372 0.0000 (  2732 PWs)   bands (ev):

   -15.2731 -13.0408 -10.0304  -2.4943  -2.4005  -1.7522   9.2024   9.3824

          k = 0.0108-0.7352 0.0000 (  2734 PWs)   bands (ev):

   -15.2824 -13.0306 -10.0290  -2.5222  -2.3990  -1.7244   9.1910   9.3408

          k = 0.0108-0.7332 0.0000 (  2734 PWs)   bands (ev):

   -15.2923 -13.0198 -10.0274  -2.5500  -2.3973  -1.6966   9.1788   9.2992

          k = 0.0108-0.7312 0.0000 (  2736 PWs)   bands (ev):

   -15.3027 -13.0083 -10.0258  -2.5778  -2.3955  -1.6688   9.1658   9.2575

          k = 0.0108-0.7292 0.0000 (  2738 PWs)   bands (ev):

   -15.3137 -12.9963 -10.0241  -2.6057  -2.3935  -1.6410   9.1520   9.2157

          k = 0.0108-0.7272 0.0000 (  2738 PWs)   bands (ev):

   -15.3252 -12.9836 -10.0222  -2.6335  -2.3915  -1.6132   9.1374   9.1740

          k = 0.0108-0.7252 0.0000 (  2738 PWs)   bands (ev):

   -15.3372 -12.9704 -10.0203  -2.6613  -2.3893  -1.5854   9.1221   9.1322

          k = 0.0108-0.7232 0.0000 (  2734 PWs)   bands (ev):

   -15.3497 -12.9566 -10.0182  -2.6891  -2.3870  -1.5576   9.0905   9.1059

          k = 0.0108-0.7212 0.0000 (  2733 PWs)   bands (ev):

   -15.3627 -12.9423 -10.0160  -2.7169  -2.3846  -1.5298   9.0487   9.0890

          k = 0.0108-0.7192 0.0000 (  2733 PWs)   bands (ev):

   -15.3761 -12.9274 -10.0138  -2.7446  -2.3821  -1.5020   9.0070   9.0714

          k = 0.0108-0.7172 0.0000 (  2733 PWs)   bands (ev):

   -15.3900 -12.9121 -10.0114  -2.7724  -2.3795  -1.4743   8.9653   9.0530

          k = 0.0108-0.7152 0.0000 (  2733 PWs)   bands (ev):

   -15.4043 -12.8963 -10.0089  -2.8001  -2.3768  -1.4465   8.9237   9.0339

          k = 0.0108-0.7132 0.0000 (  2729 PWs)   bands (ev):

   -15.4190 -12.8799 -10.0063  -2.8279  -2.3739  -1.4188   8.8821   9.0142

          k = 0.0108-0.7112 0.0000 (  2729 PWs)   bands (ev):

   -15.4341 -12.8632 -10.0037  -2.8556  -2.3709  -1.3910   8.8405   8.9937

          k = 0.0128-0.7912 0.0000 (  2734 PWs)   bands (ev):

   -15.2776 -13.0356 -10.0316  -2.5077  -2.3965  -1.7392   9.1952   9.3631

          k = 0.0128-0.7892 0.0000 (  2732 PWs)   bands (ev):

   -15.2686 -13.0455 -10.0329  -2.4799  -2.3980  -1.7670   9.2062   9.4046

          k = 0.0128-0.7872 0.0000 (  2730 PWs)   bands (ev):

   -15.2602 -13.0546 -10.0342  -2.4521  -2.3994  -1.7948   9.2163   9.4460

          k = 0.0128-0.7852 0.0000 (  2730 PWs)   bands (ev):

   -15.2525 -13.0631 -10.0354  -2.4243  -2.4007  -1.8226   9.2255   9.4871

          k = 0.0128-0.7832 0.0000 (  2730 PWs)   bands (ev):

   -15.2454 -13.0709 -10.0365  -2.4019  -2.3965  -1.8504   9.2340   9.5280

          k = 0.0128-0.7812 0.0000 (  2732 PWs)   bands (ev):

   -15.2389 -13.0779 -10.0374  -2.4029  -2.3688  -1.8781   9.2416   9.5685

          k = 0.0128-0.7792 0.0000 (  2732 PWs)   bands (ev):

   -15.2331 -13.0843 -10.0383  -2.4039  -2.3410  -1.9058   9.2485   9.6085

          k = 0.0128-0.7772 0.0000 (  2732 PWs)   bands (ev):

   -15.2280 -13.0899 -10.0391  -2.4047  -2.3134  -1.9335   9.2544   9.6478

          k = 0.0128-0.7752 0.0000 (  2732 PWs)   bands (ev):

   -15.2235 -13.0947 -10.0397  -2.4054  -2.2858  -1.9611   9.2596   9.6861

          k = 0.0128-0.7732 0.0000 (  2736 PWs)   bands (ev):

   -15.2198 -13.0988 -10.0403  -2.4061  -2.2583  -1.9886   9.2639   9.7229

          k = 0.0128-0.7712 0.0000 (  2736 PWs)   bands (ev):

   -15.2167 -13.1021 -10.0407  -2.4065  -2.2311  -2.0158   9.2675   9.7572

          k = 0.0128-0.7692 0.0000 (  2736 PWs)   bands (ev):

   -15.2144 -13.1047 -10.0410  -2.4069  -2.2043  -2.0426   9.2701   9.7879

          k = 0.0128-0.7672 0.0000 (  2736 PWs)   bands (ev):

   -15.2128 -13.1064 -10.0413  -2.4072  -2.1786  -2.0683   9.2720   9.8127

          k = 0.0128-0.7652 0.0000 (  2732 PWs)   bands (ev):

   -15.2119 -13.1074 -10.0414  -2.4073  -2.1568  -2.0901   9.2730   9.8282

          k = 0.0128-0.7632 0.0000 (  2732 PWs)   bands (ev):

   -15.2117 -13.1076 -10.0414  -2.4073  -2.1507  -2.0962   9.2732   9.8314

          k = 0.0128-0.7612 0.0000 (  2736 PWs)   bands (ev):

   -15.2123 -13.1070 -10.0414  -2.4073  -2.1674  -2.0795   9.2726   9.8215

          k = 0.0128-0.7592 0.0000 (  2736 PWs)   bands (ev):

   -15.2136 -13.1056 -10.0412  -2.4071  -2.1918  -2.0550   9.2711   9.8007

          k = 0.0128-0.7572 0.0000 (  2738 PWs)   bands (ev):

   -15.2156 -13.1034 -10.0409  -2.4068  -2.2182  -2.0286   9.2688   9.7725

          k = 0.0128-0.7552 0.0000 (  2736 PWs)   bands (ev):

   -15.2182 -13.1005 -10.0405  -2.4063  -2.2453  -2.0016   9.2657   9.7397

          k = 0.0128-0.7532 0.0000 (  2736 PWs)   bands (ev):

   -15.2217 -13.0967 -10.0400  -2.4058  -2.2727  -1.9742   9.2618   9.7040

          k = 0.0128-0.7512 0.0000 (  2732 PWs)   bands (ev):

   -15.2258 -13.0923 -10.0394  -2.4051  -2.3002  -1.9466   9.2570   9.6664

          k = 0.0128-0.7492 0.0000 (  2732 PWs)   bands (ev):

   -15.2306 -13.0870 -10.0387  -2.4043  -2.3279  -1.9190   9.2514   9.6275

          k = 0.0128-0.7472 0.0000 (  2732 PWs)   bands (ev):

   -15.2360 -13.0810 -10.0379  -2.4034  -2.3556  -1.8913   9.2450   9.5878

          k = 0.0128-0.7452 0.0000 (  2730 PWs)   bands (ev):

   -15.2422 -13.0743 -10.0370  -2.4024  -2.3833  -1.8636   9.2377   9.5475

          k = 0.0128-0.7432 0.0000 (  2730 PWs)   bands (ev):

   -15.2490 -13.0669 -10.0360  -2.4111  -2.4013  -1.8358   9.2297   9.5068

          k = 0.0128-0.7412 0.0000 (  2730 PWs)   bands (ev):

   -15.2564 -13.0587 -10.0348  -2.4389  -2.4000  -1.8080   9.2208   9.4657

          k = 0.0128-0.7392 0.0000 (  2732 PWs)   bands (ev):

   -15.2645 -13.0499 -10.0336  -2.4666  -2.3987  -1.7802   9.2111   9.4245

          k = 0.0128-0.7372 0.0000 (  2734 PWs)   bands (ev):

   -15.2732 -13.0404 -10.0323  -2.4945  -2.3972  -1.7524   9.2005   9.3830

          k = 0.0128-0.7352 0.0000 (  2734 PWs)   bands (ev):

   -15.2825 -13.0302 -10.0308  -2.5223  -2.3956  -1.7246   9.1892   9.3415

          k = 0.0128-0.7332 0.0000 (  2734 PWs)   bands (ev):

   -15.2924 -13.0194 -10.0293  -2.5501  -2.3939  -1.6968   9.1770   9.2998

          k = 0.0128-0.7312 0.0000 (  2734 PWs)   bands (ev):

   -15.3028 -13.0079 -10.0277  -2.5779  -2.3921  -1.6690   9.1641   9.2581

          k = 0.0128-0.7292 0.0000 (  2736 PWs)   bands (ev):

   -15.3138 -12.9959 -10.0259  -2.6057  -2.3902  -1.6412   9.1503   9.2164

          k = 0.0128-0.7272 0.0000 (  2738 PWs)   bands (ev):

   -15.3253 -12.9832 -10.0241  -2.6336  -2.3881  -1.6134   9.1358   9.1746

          k = 0.0128-0.7252 0.0000 (  2737 PWs)   bands (ev):

   -15.3373 -12.9700 -10.0221  -2.6614  -2.3860  -1.5856   9.1205   9.1329

          k = 0.0128-0.7232 0.0000 (  2733 PWs)   bands (ev):

   -15.3498 -12.9562 -10.0200  -2.6891  -2.3837  -1.5578   9.0911   9.1045

          k = 0.0128-0.7212 0.0000 (  2735 PWs)   bands (ev):

   -15.3628 -12.9419 -10.0179  -2.7169  -2.3813  -1.5301   9.0494   9.0876

          k = 0.0128-0.7192 0.0000 (  2733 PWs)   bands (ev):

   -15.3762 -12.9271 -10.0156  -2.7447  -2.3788  -1.5023   9.0077   9.0701

          k = 0.0128-0.7172 0.0000 (  2733 PWs)   bands (ev):

   -15.3901 -12.9117 -10.0132  -2.7724  -2.3762  -1.4745   8.9660   9.0518

          k = 0.0128-0.7152 0.0000 (  2733 PWs)   bands (ev):

   -15.4044 -12.8959 -10.0108  -2.8002  -2.3734  -1.4468   8.9244   9.0327

          k = 0.0128-0.7132 0.0000 (  2731 PWs)   bands (ev):

   -15.4190 -12.8796 -10.0082  -2.8279  -2.3706  -1.4191   8.8828   9.0130

          k = 0.0128-0.7112 0.0000 (  2729 PWs)   bands (ev):

   -15.4341 -12.8629 -10.0055  -2.8556  -2.3676  -1.3913   8.8412   8.9926

          k = 0.0148-0.7912 0.0000 (  2732 PWs)   bands (ev):

   -15.2777 -13.0351 -10.0337  -2.5079  -2.3926  -1.7394   9.1930   9.3639

          k = 0.0148-0.7892 0.0000 (  2732 PWs)   bands (ev):

   -15.2687 -13.0449 -10.0351  -2.4801  -2.3941  -1.7672   9.2039   9.4054

          k = 0.0148-0.7872 0.0000 (  2730 PWs)   bands (ev):

   -15.2604 -13.0541 -10.0364  -2.4522  -2.3955  -1.7950   9.2139   9.4467

          k = 0.0148-0.7852 0.0000 (  2730 PWs)   bands (ev):

   -15.2526 -13.0626 -10.0376  -2.4245  -2.3968  -1.8228   9.2231   9.4879

          k = 0.0148-0.7832 0.0000 (  2732 PWs)   bands (ev):

   -15.2455 -13.0703 -10.0387  -2.3980  -2.3967  -1.8505   9.2316   9.5287

          k = 0.0148-0.7812 0.0000 (  2732 PWs)   bands (ev):

   -15.2391 -13.0774 -10.0396  -2.3990  -2.3690  -1.8783   9.2391   9.5693

          k = 0.0148-0.7792 0.0000 (  2732 PWs)   bands (ev):

   -15.2333 -13.0837 -10.0405  -2.4000  -2.3413  -1.9060   9.2459   9.6093

          k = 0.0148-0.7772 0.0000 (  2732 PWs)   bands (ev):

   -15.2281 -13.0893 -10.0413  -2.4008  -2.3136  -1.9336   9.2519   9.6486

          k = 0.0148-0.7752 0.0000 (  2732 PWs)   bands (ev):

   -15.2237 -13.0941 -10.0419  -2.4015  -2.2860  -1.9612   9.2570   9.6868

          k = 0.0148-0.7732 0.0000 (  2732 PWs)   bands (ev):

   -15.2199 -13.0982 -10.0425  -2.4021  -2.2586  -1.9886   9.2613   9.7236

          k = 0.0148-0.7712 0.0000 (  2734 PWs)   bands (ev):

   -15.2169 -13.1015 -10.0429  -2.4026  -2.2314  -2.0158   9.2648   9.7580

          k = 0.0148-0.7692 0.0000 (  2736 PWs)   bands (ev):

   -15.2146 -13.1041 -10.0433  -2.4030  -2.2047  -2.0425   9.2675   9.7886

          k = 0.0148-0.7672 0.0000 (  2736 PWs)   bands (ev):

   -15.2130 -13.1058 -10.0435  -2.4033  -2.1792  -2.0680   9.2693   9.8134

          k = 0.0148-0.7652 0.0000 (  2732 PWs)   bands (ev):

   -15.2121 -13.1068 -10.0436  -2.4034  -2.1576  -2.0895   9.2703   9.8289

          k = 0.0148-0.7632 0.0000 (  2732 PWs)   bands (ev):

   -15.2119 -13.1070 -10.0437  -2.4034  -2.1517  -2.0955   9.2705   9.8321

          k = 0.0148-0.7612 0.0000 (  2734 PWs)   bands (ev):

   -15.2124 -13.1064 -10.0436  -2.4033  -2.1681  -2.0791   9.2699   9.8222

          k = 0.0148-0.7592 0.0000 (  2736 PWs)   bands (ev):

   -15.2137 -13.1050 -10.0434  -2.4031  -2.1923  -2.0549   9.2684   9.8014

          k = 0.0148-0.7572 0.0000 (  2736 PWs)   bands (ev):

   -15.2157 -13.1028 -10.0431  -2.4028  -2.2186  -2.0286   9.2662   9.7733

          k = 0.0148-0.7552 0.0000 (  2732 PWs)   bands (ev):

   -15.2184 -13.0999 -10.0427  -2.4024  -2.2456  -2.0016   9.2631   9.7404

          k = 0.0148-0.7532 0.0000 (  2732 PWs)   bands (ev):

   -15.2218 -13.0962 -10.0422  -2.4018  -2.2730  -1.9742   9.2591   9.7047

          k = 0.0148-0.7512 0.0000 (  2732 PWs)   bands (ev):

   -15.2259 -13.0917 -10.0416  -2.4012  -2.3005  -1.9467   9.2544   9.6671

          k = 0.0148-0.7492 0.0000 (  2732 PWs)   bands (ev):

   -15.2307 -13.0864 -10.0409  -2.4004  -2.3281  -1.9191   9.2488   9.6282

          k = 0.0148-0.7472 0.0000 (  2732 PWs)   bands (ev):

   -15.2362 -13.0805 -10.0401  -2.3995  -2.3558  -1.8914   9.2425   9.5885

          k = 0.0148-0.7452 0.0000 (  2732 PWs)   bands (ev):

   -15.2424 -13.0738 -10.0392  -2.3985  -2.3835  -1.8637   9.2353   9.5482

          k = 0.0148-0.7432 0.0000 (  2732 PWs)   bands (ev):

   -15.2492 -13.0663 -10.0382  -2.4113  -2.3974  -1.8360   9.2272   9.5075

          k = 0.0148-0.7412 0.0000 (  2730 PWs)   bands (ev):

   -15.2566 -13.0582 -10.0370  -2.4390  -2.3961  -1.8082   9.2184   9.4665

          k = 0.0148-0.7392 0.0000 (  2730 PWs)   bands (ev):

   -15.2647 -13.0493 -10.0358  -2.4668  -2.3948  -1.7804   9.2087   9.4252

          k = 0.0148-0.7372 0.0000 (  2732 PWs)   bands (ev):

   -15.2734 -13.0398 -10.0345  -2.4947  -2.3933  -1.7526   9.1983   9.3838

          k = 0.0148-0.7352 0.0000 (  2734 PWs)   bands (ev):

   -15.2827 -13.0297 -10.0330  -2.5225  -2.3917  -1.7248   9.1870   9.3422

          k = 0.0148-0.7332 0.0000 (  2734 PWs)   bands (ev):

   -15.2925 -13.0189 -10.0315  -2.5502  -2.3900  -1.6970   9.1749   9.3006

          k = 0.0148-0.7312 0.0000 (  2734 PWs)   bands (ev):

   -15.3029 -13.0074 -10.0298  -2.5780  -2.3882  -1.6693   9.1621   9.2589

          k = 0.0148-0.7292 0.0000 (  2734 PWs)   bands (ev):

   -15.3139 -12.9954 -10.0281  -2.6058  -2.3862  -1.6415   9.1484   9.2172

          k = 0.0148-0.7272 0.0000 (  2737 PWs)   bands (ev):

   -15.3254 -12.9828 -10.0262  -2.6337  -2.3842  -1.6137   9.1339   9.1754

          k = 0.0148-0.7252 0.0000 (  2733 PWs)   bands (ev):

   -15.3374 -12.9695 -10.0243  -2.6615  -2.3821  -1.5859   9.1187   9.1337

          k = 0.0148-0.7232 0.0000 (  2733 PWs)   bands (ev):

   -15.3499 -12.9558 -10.0222  -2.6892  -2.3798  -1.5581   9.0919   9.1027

          k = 0.0148-0.7212 0.0000 (  2735 PWs)   bands (ev):

   -15.3629 -12.9415 -10.0200  -2.7170  -2.3774  -1.5304   9.0502   9.0860

          k = 0.0148-0.7192 0.0000 (  2735 PWs)   bands (ev):

   -15.3763 -12.9267 -10.0178  -2.7447  -2.3749  -1.5026   9.0085   9.0685

          k = 0.0148-0.7172 0.0000 (  2733 PWs)   bands (ev):

   -15.3901 -12.9113 -10.0154  -2.7725  -2.3723  -1.4749   8.9668   9.0503

          k = 0.0148-0.7152 0.0000 (  2731 PWs)   bands (ev):

   -15.4044 -12.8955 -10.0129  -2.8002  -2.3695  -1.4471   8.9251   9.0313

          k = 0.0148-0.7132 0.0000 (  2731 PWs)   bands (ev):

   -15.4191 -12.8793 -10.0103  -2.8279  -2.3667  -1.4194   8.8835   9.0117

          k = 0.0148-0.7112 0.0000 (  2733 PWs)   bands (ev):

   -15.4342 -12.8626 -10.0076  -2.8556  -2.3637  -1.3917   8.8420   8.9914

          k = 0.0168-0.7912 0.0000 (  2732 PWs)   bands (ev):

   -15.2779 -13.0345 -10.0362  -2.5080  -2.3881  -1.7397   9.1905   9.3647

          k = 0.0168-0.7892 0.0000 (  2732 PWs)   bands (ev):

   -15.2689 -13.0443 -10.0376  -2.4802  -2.3896  -1.7675   9.2013   9.4062

          k = 0.0168-0.7872 0.0000 (  2732 PWs)   bands (ev):

   -15.2605 -13.0535 -10.0389  -2.4524  -2.3910  -1.7952   9.2113   9.4476

          k = 0.0168-0.7852 0.0000 (  2732 PWs)   bands (ev):

   -15.2528 -13.0619 -10.0401  -2.4246  -2.3923  -1.8230   9.2204   9.4887

          k = 0.0168-0.7832 0.0000 (  2732 PWs)   bands (ev):

   -15.2457 -13.0697 -10.0412  -2.3969  -2.3935  -1.8507   9.2288   9.5296

          k = 0.0168-0.7812 0.0000 (  2732 PWs)   bands (ev):

   -15.2392 -13.0768 -10.0421  -2.3945  -2.3692  -1.8784   9.2363   9.5701

          k = 0.0168-0.7792 0.0000 (  2732 PWs)   bands (ev):

   -15.2334 -13.0831 -10.0430  -2.3955  -2.3415  -1.9061   9.2430   9.6101

          k = 0.0168-0.7772 0.0000 (  2732 PWs)   bands (ev):

   -15.2283 -13.0887 -10.0438  -2.3963  -2.3139  -1.9337   9.2489   9.6494

          k = 0.0168-0.7752 0.0000 (  2732 PWs)   bands (ev):

   -15.2239 -13.0935 -10.0444  -2.3971  -2.2863  -1.9613   9.2540   9.6877

          k = 0.0168-0.7732 0.0000 (  2732 PWs)   bands (ev):

   -15.2201 -13.0976 -10.0450  -2.3977  -2.2590  -1.9886   9.2583   9.7244

          k = 0.0168-0.7712 0.0000 (  2734 PWs)   bands (ev):

   -15.2171 -13.1009 -10.0454  -2.3982  -2.2318  -2.0158   9.2617   9.7588

          k = 0.0168-0.7692 0.0000 (  2734 PWs)   bands (ev):

   -15.2148 -13.1034 -10.0458  -2.3985  -2.2052  -2.0424   9.2644   9.7894

          k = 0.0168-0.7672 0.0000 (  2734 PWs)   bands (ev):

   -15.2132 -13.1052 -10.0460  -2.3988  -2.1798  -2.0677   9.2662   9.8142

          k = 0.0168-0.7652 0.0000 (  2728 PWs)   bands (ev):

   -15.2123 -13.1061 -10.0461  -2.3989  -2.1586  -2.0889   9.2672   9.8297

          k = 0.0168-0.7632 0.0000 (  2728 PWs)   bands (ev):

   -15.2121 -13.1063 -10.0462  -2.3989  -2.1528  -2.0947   9.2674   9.8329

          k = 0.0168-0.7612 0.0000 (  2732 PWs)   bands (ev):

   -15.2127 -13.1057 -10.0461  -2.3988  -2.1689  -2.0787   9.2668   9.8230

          k = 0.0168-0.7592 0.0000 (  2734 PWs)   bands (ev):

   -15.2139 -13.1043 -10.0459  -2.3987  -2.1929  -2.0547   9.2654   9.8022

          k = 0.0168-0.7572 0.0000 (  2734 PWs)   bands (ev):

   -15.2159 -13.1022 -10.0456  -2.3983  -2.2191  -2.0285   9.2631   9.7741

          k = 0.0168-0.7552 0.0000 (  2734 PWs)   bands (ev):

   -15.2186 -13.0992 -10.0452  -2.3979  -2.2460  -2.0016   9.2600   9.7413

          k = 0.0168-0.7532 0.0000 (  2732 PWs)   bands (ev):

   -15.2220 -13.0955 -10.0447  -2.3973  -2.2733  -1.9743   9.2561   9.7055

          k = 0.0168-0.7512 0.0000 (  2732 PWs)   bands (ev):

   -15.2261 -13.0910 -10.0441  -2.3967  -2.3008  -1.9468   9.2514   9.6679

          k = 0.0168-0.7492 0.0000 (  2732 PWs)   bands (ev):

   -15.2309 -13.0858 -10.0434  -2.3959  -2.3284  -1.9192   9.2459   9.6291

          k = 0.0168-0.7472 0.0000 (  2732 PWs)   bands (ev):

   -15.2364 -13.0798 -10.0426  -2.3950  -2.3560  -1.8916   9.2396   9.5894

          k = 0.0168-0.7452 0.0000 (  2732 PWs)   bands (ev):

   -15.2425 -13.0731 -10.0417  -2.3940  -2.3837  -1.8639   9.2324   9.5491

          k = 0.0168-0.7432 0.0000 (  2732 PWs)   bands (ev):

   -15.2493 -13.0657 -10.0407  -2.4115  -2.3929  -1.8361   9.2245   9.5084

          k = 0.0168-0.7412 0.0000 (  2732 PWs)   bands (ev):

   -15.2568 -13.0576 -10.0395  -2.4392  -2.3916  -1.8084   9.2157   9.4673

          k = 0.0168-0.7392 0.0000 (  2730 PWs)   bands (ev):

   -15.2648 -13.0487 -10.0383  -2.4670  -2.3903  -1.7806   9.2061   9.4261

          k = 0.0168-0.7372 0.0000 (  2732 PWs)   bands (ev):

   -15.2735 -13.0392 -10.0370  -2.4948  -2.3888  -1.7529   9.1957   9.3847

          k = 0.0168-0.7352 0.0000 (  2732 PWs)   bands (ev):

   -15.2828 -13.0291 -10.0355  -2.5226  -2.3872  -1.7251   9.1845   9.3431

          k = 0.0168-0.7332 0.0000 (  2732 PWs)   bands (ev):

   -15.2926 -13.0183 -10.0340  -2.5504  -2.3855  -1.6973   9.1725   9.3015

          k = 0.0168-0.7312 0.0000 (  2733 PWs)   bands (ev):

   -15.3031 -13.0069 -10.0323  -2.5782  -2.3837  -1.6695   9.1597   9.2598

          k = 0.0168-0.7292 0.0000 (  2733 PWs)   bands (ev):

   -15.3140 -12.9948 -10.0306  -2.6059  -2.3818  -1.6418   9.1461   9.2181

          k = 0.0168-0.7272 0.0000 (  2733 PWs)   bands (ev):

   -15.3255 -12.9822 -10.0287  -2.6338  -2.3797  -1.6140   9.1318   9.1763

          k = 0.0168-0.7252 0.0000 (  2733 PWs)   bands (ev):

   -15.3375 -12.9690 -10.0267  -2.6615  -2.3776  -1.5862   9.1166   9.1346

          k = 0.0168-0.7232 0.0000 (  2735 PWs)   bands (ev):

   -15.3500 -12.9553 -10.0247  -2.6893  -2.3753  -1.5585   9.0928   9.1007

          k = 0.0168-0.7212 0.0000 (  2735 PWs)   bands (ev):

   -15.3629 -12.9410 -10.0225  -2.7171  -2.3729  -1.5307   9.0511   9.0841

          k = 0.0168-0.7192 0.0000 (  2735 PWs)   bands (ev):

   -15.3764 -12.9262 -10.0202  -2.7448  -2.3704  -1.5030   9.0094   9.0667

          k = 0.0168-0.7172 0.0000 (  2733 PWs)   bands (ev):

   -15.3902 -12.9109 -10.0178  -2.7725  -2.3678  -1.4752   8.9677   9.0486

          k = 0.0168-0.7152 0.0000 (  2731 PWs)   bands (ev):

   -15.4045 -12.8951 -10.0153  -2.8003  -2.3650  -1.4475   8.9260   9.0297

          k = 0.0168-0.7132 0.0000 (  2733 PWs)   bands (ev):

   -15.4191 -12.8788 -10.0127  -2.8280  -2.3622  -1.4198   8.8844   9.0102

          k = 0.0168-0.7112 0.0000 (  2735 PWs)   bands (ev):

   -15.4342 -12.8621 -10.0100  -2.8557  -2.3592  -1.3921   8.8429   8.9899

          k = 0.0188-0.7912 0.0000 (  2732 PWs)   bands (ev):

   -15.2780 -13.0339 -10.0390  -2.5082  -2.3830  -1.7400   9.1877   9.3657

          k = 0.0188-0.7892 0.0000 (  2734 PWs)   bands (ev):

   -15.2691 -13.0437 -10.0404  -2.4804  -2.3846  -1.7677   9.1984   9.4072

          k = 0.0188-0.7872 0.0000 (  2732 PWs)   bands (ev):

   -15.2607 -13.0528 -10.0417  -2.4526  -2.3860  -1.7955   9.2083   9.4485

          k = 0.0188-0.7852 0.0000 (  2732 PWs)   bands (ev):

   -15.2530 -13.0613 -10.0429  -2.4249  -2.3873  -1.8232   9.2173   9.4897

          k = 0.0188-0.7832 0.0000 (  2732 PWs)   bands (ev):

   -15.2459 -13.0690 -10.0440  -2.3971  -2.3884  -1.8509   9.2256   9.5306

          k = 0.0188-0.7812 0.0000 (  2732 PWs)   bands (ev):

   -15.2394 -13.0760 -10.0450  -2.3895  -2.3694  -1.8786   9.2331   9.5711

          k = 0.0188-0.7792 0.0000 (  2732 PWs)   bands (ev):

   -15.2336 -13.0824 -10.0458  -2.3905  -2.3418  -1.9063   9.2398   9.6111

          k = 0.0188-0.7772 0.0000 (  2732 PWs)   bands (ev):

   -15.2285 -13.0879 -10.0466  -2.3913  -2.3142  -1.9339   9.2456   9.6504

          k = 0.0188-0.7752 0.0000 (  2732 PWs)   bands (ev):

   -15.2241 -13.0928 -10.0473  -2.3920  -2.2867  -1.9613   9.2507   9.6886

          k = 0.0188-0.7732 0.0000 (  2732 PWs)   bands (ev):

   -15.2204 -13.0968 -10.0478  -2.3926  -2.2594  -1.9887   9.2549   9.7253

          k = 0.0188-0.7712 0.0000 (  2732 PWs)   bands (ev):

   -15.2173 -13.1001 -10.0483  -2.3931  -2.2323  -2.0157   9.2583   9.7597

          k = 0.0188-0.7692 0.0000 (  2732 PWs)   bands (ev):

   -15.2150 -13.1027 -10.0486  -2.3935  -2.2058  -2.0422   9.2609   9.7904

          k = 0.0188-0.7672 0.0000 (  2730 PWs)   bands (ev):

   -15.2134 -13.1044 -10.0488  -2.3937  -2.1806  -2.0674   9.2627   9.8151

          k = 0.0188-0.7652 0.0000 (  2728 PWs)   bands (ev):

   -15.2125 -13.1054 -10.0490  -2.3938  -2.1598  -2.0882   9.2638   9.8306

          k = 0.0188-0.7632 0.0000 (  2730 PWs)   bands (ev):

   -15.2123 -13.1056 -10.0490  -2.3939  -2.1542  -2.0938   9.2639   9.8338

          k = 0.0188-0.7612 0.0000 (  2730 PWs)   bands (ev):

   -15.2129 -13.1050 -10.0489  -2.3938  -2.1698  -2.0782   9.2633   9.8239

          k = 0.0188-0.7592 0.0000 (  2730 PWs)   bands (ev):

   -15.2141 -13.1036 -10.0487  -2.3936  -2.1936  -2.0544   9.2619   9.8031

          k = 0.0188-0.7572 0.0000 (  2732 PWs)   bands (ev):

   -15.2161 -13.1014 -10.0485  -2.3933  -2.2196  -2.0284   9.2597   9.7750

          k = 0.0188-0.7552 0.0000 (  2732 PWs)   bands (ev):

   -15.2188 -13.0985 -10.0481  -2.3929  -2.2465  -2.0016   9.2566   9.7422

          k = 0.0188-0.7532 0.0000 (  2732 PWs)   bands (ev):

   -15.2222 -13.0948 -10.0476  -2.3923  -2.2737  -1.9743   9.2528   9.7065

          k = 0.0188-0.7512 0.0000 (  2732 PWs)   bands (ev):

   -15.2263 -13.0903 -10.0470  -2.3916  -2.3011  -1.9469   9.2481   9.6689

          k = 0.0188-0.7492 0.0000 (  2732 PWs)   bands (ev):

   -15.2311 -13.0851 -10.0463  -2.3909  -2.3287  -1.9193   9.2426   9.6300

          k = 0.0188-0.7472 0.0000 (  2732 PWs)   bands (ev):

   -15.2366 -13.0791 -10.0454  -2.3900  -2.3563  -1.8917   9.2363   9.5903

          k = 0.0188-0.7452 0.0000 (  2732 PWs)   bands (ev):

   -15.2427 -13.0724 -10.0445  -2.3890  -2.3840  -1.8640   9.2293   9.5500

          k = 0.0188-0.7432 0.0000 (  2732 PWs)   bands (ev):

   -15.2495 -13.0650 -10.0435  -2.4117  -2.3878  -1.8363   9.2214   9.5093

          k = 0.0188-0.7412 0.0000 (  2732 PWs)   bands (ev):

   -15.2570 -13.0569 -10.0424  -2.4394  -2.3866  -1.8086   9.2127   9.4683

          k = 0.0188-0.7392 0.0000 (  2734 PWs)   bands (ev):

   -15.2650 -13.0481 -10.0411  -2.4673  -2.3852  -1.7809   9.2031   9.4271

          k = 0.0188-0.7372 0.0000 (  2734 PWs)   bands (ev):

   -15.2737 -13.0386 -10.0398  -2.4950  -2.3838  -1.7531   9.1928   9.3856

          k = 0.0188-0.7352 0.0000 (  2731 PWs)   bands (ev):

   -15.2830 -13.0284 -10.0383  -2.5228  -2.3822  -1.7254   9.1817   9.3441

          k = 0.0188-0.7332 0.0000 (  2731 PWs)   bands (ev):

   -15.2928 -13.0176 -10.0368  -2.5505  -2.3805  -1.6976   9.1698   9.3025

          k = 0.0188-0.7312 0.0000 (  2731 PWs)   bands (ev):

   -15.3032 -13.0062 -10.0351  -2.5783  -2.3787  -1.6698   9.1571   9.2608

          k = 0.0188-0.7292 0.0000 (  2733 PWs)   bands (ev):

   -15.3142 -12.9942 -10.0334  -2.6061  -2.3767  -1.6421   9.1436   9.2190

          k = 0.0188-0.7272 0.0000 (  2731 PWs)   bands (ev):

   -15.3256 -12.9816 -10.0315  -2.6338  -2.3747  -1.6143   9.1293   9.1773

          k = 0.0188-0.7252 0.0000 (  2733 PWs)   bands (ev):

   -15.3376 -12.9684 -10.0295  -2.6617  -2.3725  -1.5866   9.1143   9.1355

          k = 0.0188-0.7232 0.0000 (  2735 PWs)   bands (ev):

   -15.3501 -12.9547 -10.0274  -2.6894  -2.3703  -1.5588   9.0938   9.0985

          k = 0.0188-0.7212 0.0000 (  2735 PWs)   bands (ev):

   -15.3630 -12.9405 -10.0252  -2.7172  -2.3679  -1.5311   9.0521   9.0820

          k = 0.0188-0.7192 0.0000 (  2735 PWs)   bands (ev):

   -15.3764 -12.9257 -10.0230  -2.7449  -2.3654  -1.5034   9.0104   9.0647

          k = 0.0188-0.7172 0.0000 (  2733 PWs)   bands (ev):

   -15.3903 -12.9104 -10.0206  -2.7726  -2.3628  -1.4756   8.9687   9.0466

          k = 0.0188-0.7152 0.0000 (  2733 PWs)   bands (ev):

   -15.4045 -12.8946 -10.0181  -2.8003  -2.3600  -1.4479   8.9270   9.0279

          k = 0.0188-0.7132 0.0000 (  2733 PWs)   bands (ev):

   -15.4192 -12.8784 -10.0155  -2.8280  -2.3572  -1.4202   8.8855   9.0085

          k = 0.0188-0.7112 0.0000 (  2735 PWs)   bands (ev):

   -15.4343 -12.8617 -10.0128  -2.8557  -2.3542  -1.3926   8.8439   8.9883

          k = 0.0208-0.7912 0.0000 (  2733 PWs)   bands (ev):

   -15.2782 -13.0332 -10.0421  -2.5084  -2.3775  -1.7403   9.1845   9.3668

          k = 0.0208-0.7892 0.0000 (  2733 PWs)   bands (ev):

   -15.2693 -13.0429 -10.0435  -2.4806  -2.3790  -1.7680   9.1951   9.4083

          k = 0.0208-0.7872 0.0000 (  2732 PWs)   bands (ev):

   -15.2609 -13.0521 -10.0448  -2.4528  -2.3804  -1.7958   9.2049   9.4496

          k = 0.0208-0.7852 0.0000 (  2732 PWs)   bands (ev):

   -15.2532 -13.0605 -10.0460  -2.4251  -2.3817  -1.8235   9.2139   9.4908

          k = 0.0208-0.7832 0.0000 (  2732 PWs)   bands (ev):

   -15.2461 -13.0682 -10.0471  -2.3974  -2.3828  -1.8512   9.2221   9.5316

          k = 0.0208-0.7812 0.0000 (  2732 PWs)   bands (ev):

   -15.2397 -13.0753 -10.0481  -2.3839  -2.3697  -1.8788   9.2295   9.5721

          k = 0.0208-0.7792 0.0000 (  2730 PWs)   bands (ev):

   -15.2339 -13.0816 -10.0490  -2.3848  -2.3421  -1.9064   9.2361   9.6121

          k = 0.0208-0.7772 0.0000 (  2730 PWs)   bands (ev):

   -15.2288 -13.0871 -10.0497  -2.3857  -2.3146  -1.9340   9.2419   9.6514

          k = 0.0208-0.7752 0.0000 (  2730 PWs)   bands (ev):

   -15.2243 -13.0919 -10.0504  -2.3864  -2.2871  -1.9614   9.2469   9.6897

          k = 0.0208-0.7732 0.0000 (  2732 PWs)   bands (ev):

   -15.2206 -13.0960 -10.0510  -2.3870  -2.2598  -1.9887   9.2511   9.7264

          k = 0.0208-0.7712 0.0000 (  2732 PWs)   bands (ev):

   -15.2176 -13.0993 -10.0514  -2.3875  -2.2328  -2.0157   9.2545   9.7607

          k = 0.0208-0.7692 0.0000 (  2732 PWs)   bands (ev):

   -15.2153 -13.1018 -10.0518  -2.3879  -2.2065  -2.0421   9.2571   9.7914

          k = 0.0208-0.7672 0.0000 (  2730 PWs)   bands (ev):

   -15.2137 -13.1036 -10.0520  -2.3881  -2.1815  -2.0670   9.2589   9.8161

          k = 0.0208-0.7652 0.0000 (  2728 PWs)   bands (ev):

   -15.2127 -13.1045 -10.0521  -2.3883  -2.1610  -2.0875   9.2599   9.8316

          k = 0.0208-0.7632 0.0000 (  2728 PWs)   bands (ev):

   -15.2126 -13.1047 -10.0522  -2.3883  -2.1556  -2.0929   9.2601   9.8348

          k = 0.0208-0.7612 0.0000 (  2728 PWs)   bands (ev):

   -15.2131 -13.1041 -10.0521  -2.3882  -2.1709  -2.0776   9.2595   9.8249

          k = 0.0208-0.7592 0.0000 (  2730 PWs)   bands (ev):

   -15.2144 -13.1027 -10.0519  -2.3880  -2.1944  -2.0542   9.2581   9.8041

          k = 0.0208-0.7572 0.0000 (  2732 PWs)   bands (ev):

   -15.2164 -13.1006 -10.0516  -2.3877  -2.2202  -2.0283   9.2558   9.7760

          k = 0.0208-0.7552 0.0000 (  2732 PWs)   bands (ev):

   -15.2191 -13.0977 -10.0512  -2.3873  -2.2470  -2.0015   9.2528   9.7432

          k = 0.0208-0.7532 0.0000 (  2730 PWs)   bands (ev):

   -15.2225 -13.0939 -10.0507  -2.3867  -2.2742  -1.9744   9.2490   9.7075

          k = 0.0208-0.7512 0.0000 (  2730 PWs)   bands (ev):

   -15.2266 -13.0895 -10.0501  -2.3860  -2.3015  -1.9470   9.2444   9.6699

          k = 0.0208-0.7492 0.0000 (  2730 PWs)   bands (ev):

   -15.2314 -13.0843 -10.0494  -2.3853  -2.3291  -1.9195   9.2390   9.6311

          k = 0.0208-0.7472 0.0000 (  2732 PWs)   bands (ev):

   -15.2368 -13.0783 -10.0486  -2.3844  -2.3567  -1.8919   9.2328   9.5914

          k = 0.0208-0.7452 0.0000 (  2732 PWs)   bands (ev):

   -15.2430 -13.0716 -10.0477  -2.3843  -2.3833  -1.8642   9.2257   9.5511

          k = 0.0208-0.7432 0.0000 (  2732 PWs)   bands (ev):

   -15.2497 -13.0642 -10.0466  -2.4120  -2.3822  -1.8366   9.2179   9.5104

          k = 0.0208-0.7412 0.0000 (  2732 PWs)   bands (ev):

   -15.2572 -13.0561 -10.0455  -2.4397  -2.3810  -1.8089   9.2093   9.4694

          k = 0.0208-0.7392 0.0000 (  2734 PWs)   bands (ev):

   -15.2652 -13.0473 -10.0442  -2.4675  -2.3796  -1.7811   9.1998   9.4281

          k = 0.0208-0.7372 0.0000 (  2733 PWs)   bands (ev):

   -15.2739 -13.0378 -10.0429  -2.4952  -2.3782  -1.7534   9.1896   9.3867

          k = 0.0208-0.7352 0.0000 (  2733 PWs)   bands (ev):

   -15.2831 -13.0277 -10.0414  -2.5230  -2.3766  -1.7257   9.1786   9.3452

          k = 0.0208-0.7332 0.0000 (  2731 PWs)   bands (ev):

   -15.2930 -13.0169 -10.0399  -2.5507  -2.3749  -1.6979   9.1668   9.3036

          k = 0.0208-0.7312 0.0000 (  2731 PWs)   bands (ev):

   -15.3034 -13.0055 -10.0382  -2.5785  -2.3731  -1.6702   9.1542   9.2619

          k = 0.0208-0.7292 0.0000 (  2729 PWs)   bands (ev):

   -15.3143 -12.9935 -10.0364  -2.6062  -2.3711  -1.6424   9.1408   9.2202

          k = 0.0208-0.7272 0.0000 (  2729 PWs)   bands (ev):

   -15.3258 -12.9810 -10.0346  -2.6340  -2.3691  -1.6147   9.1266   9.1784

          k = 0.0208-0.7252 0.0000 (  2733 PWs)   bands (ev):

   -15.3378 -12.9678 -10.0326  -2.6618  -2.3670  -1.5870   9.1117   9.1367

          k = 0.0208-0.7232 0.0000 (  2733 PWs)   bands (ev):

   -15.3502 -12.9541 -10.0305  -2.6895  -2.3647  -1.5592   9.0948   9.0961

          k = 0.0208-0.7212 0.0000 (  2735 PWs)   bands (ev):

   -15.3632 -12.9398 -10.0283  -2.7173  -2.3623  -1.5315   9.0532   9.0796

          k = 0.0208-0.7192 0.0000 (  2737 PWs)   bands (ev):

   -15.3765 -12.9251 -10.0260  -2.7450  -2.3598  -1.5038   9.0115   9.0624

          k = 0.0208-0.7172 0.0000 (  2733 PWs)   bands (ev):

   -15.3904 -12.9098 -10.0236  -2.7727  -2.3572  -1.4761   8.9698   9.0445

          k = 0.0208-0.7152 0.0000 (  2733 PWs)   bands (ev):

   -15.4046 -12.8941 -10.0211  -2.8004  -2.3544  -1.4484   8.9282   9.0259

          k = 0.0208-0.7132 0.0000 (  2735 PWs)   bands (ev):

   -15.4193 -12.8778 -10.0185  -2.8281  -2.3516  -1.4207   8.8866   9.0065

          k = 0.0208-0.7112 0.0000 (  2735 PWs)   bands (ev):

   -15.4343 -12.8612 -10.0158  -2.8558  -2.3486  -1.3931   8.8450   8.9865

          k = 0.0228-0.7912 0.0000 (  2733 PWs)   bands (ev):

   -15.2784 -13.0324 -10.0455  -2.5086  -2.3713  -1.7406   9.1810   9.3680

          k = 0.0228-0.7892 0.0000 (  2733 PWs)   bands (ev):

   -15.2695 -13.0421 -10.0470  -2.4809  -2.3728  -1.7683   9.1915   9.4095

          k = 0.0228-0.7872 0.0000 (  2733 PWs)   bands (ev):

   -15.2612 -13.0512 -10.0483  -2.4532  -2.3742  -1.7961   9.2013   9.4508

          k = 0.0228-0.7852 0.0000 (  2730 PWs)   bands (ev):

   -15.2534 -13.0596 -10.0495  -2.4254  -2.3755  -1.8237   9.2102   9.4919

          k = 0.0228-0.7832 0.0000 (  2730 PWs)   bands (ev):

   -15.2464 -13.0674 -10.0505  -2.3977  -2.3767  -1.8514   9.2183   9.5328

          k = 0.0228-0.7812 0.0000 (  2730 PWs)   bands (ev):

   -15.2399 -13.0744 -10.0515  -2.3777  -2.3701  -1.8790   9.2256   9.5733

          k = 0.0228-0.7792 0.0000 (  2730 PWs)   bands (ev):

   -15.2341 -13.0807 -10.0524  -2.3787  -2.3425  -1.9066   9.2322   9.6133

          k = 0.0228-0.7772 0.0000 (  2730 PWs)   bands (ev):

   -15.2290 -13.0862 -10.0532  -2.3795  -2.3150  -1.9341   9.2379   9.6526

          k = 0.0228-0.7752 0.0000 (  2730 PWs)   bands (ev):

   -15.2246 -13.0910 -10.0539  -2.3802  -2.2876  -1.9615   9.2429   9.6908

          k = 0.0228-0.7732 0.0000 (  2732 PWs)   bands (ev):

   -15.2209 -13.0951 -10.0544  -2.3809  -2.2604  -1.9887   9.2470   9.7275

          k = 0.0228-0.7712 0.0000 (  2732 PWs)   bands (ev):

   -15.2179 -13.0984 -10.0549  -2.3813  -2.2335  -2.0156   9.2504   9.7619

          k = 0.0228-0.7692 0.0000 (  2728 PWs)   bands (ev):

   -15.2155 -13.1009 -10.0552  -2.3817  -2.2072  -2.0419   9.2529   9.7925

          k = 0.0228-0.7672 0.0000 (  2730 PWs)   bands (ev):

   -15.2139 -13.1027 -10.0555  -2.3820  -2.1825  -2.0666   9.2547   9.8172

          k = 0.0228-0.7652 0.0000 (  2728 PWs)   bands (ev):

   -15.2130 -13.1036 -10.0556  -2.3821  -2.1625  -2.0866   9.2557   9.8327

          k = 0.0228-0.7632 0.0000 (  2728 PWs)   bands (ev):

   -15.2129 -13.1038 -10.0556  -2.3821  -2.1573  -2.0918   9.2559   9.8359

          k = 0.0228-0.7612 0.0000 (  2730 PWs)   bands (ev):

   -15.2134 -13.1032 -10.0555  -2.3820  -2.1721  -2.0770   9.2553   9.8260

          k = 0.0228-0.7592 0.0000 (  2728 PWs)   bands (ev):

   -15.2147 -13.1018 -10.0554  -2.3818  -2.1952  -2.0538   9.2539   9.8053

          k = 0.0228-0.7572 0.0000 (  2732 PWs)   bands (ev):

   -15.2167 -13.0997 -10.0551  -2.3815  -2.2209  -2.0281   9.2517   9.7771

          k = 0.0228-0.7552 0.0000 (  2732 PWs)   bands (ev):

   -15.2194 -13.0968 -10.0547  -2.3811  -2.2476  -2.0015   9.2487   9.7444

          k = 0.0228-0.7532 0.0000 (  2732 PWs)   bands (ev):

   -15.2228 -13.0931 -10.0542  -2.3806  -2.2747  -1.9744   9.2449   9.7086

          k = 0.0228-0.7512 0.0000 (  2730 PWs)   bands (ev):

   -15.2269 -13.0886 -10.0536  -2.3799  -2.3020  -1.9471   9.2403   9.6711

          k = 0.0228-0.7492 0.0000 (  2730 PWs)   bands (ev):

   -15.2316 -13.0834 -10.0528  -2.3791  -2.3295  -1.9196   9.2350   9.6322

          k = 0.0228-0.7472 0.0000 (  2730 PWs)   bands (ev):

   -15.2371 -13.0774 -10.0520  -2.3782  -2.3570  -1.8921   9.2288   9.5926

          k = 0.0228-0.7452 0.0000 (  2730 PWs)   bands (ev):

   -15.2432 -13.0707 -10.0511  -2.3846  -2.3772  -1.8645   9.2219   9.5523

          k = 0.0228-0.7432 0.0000 (  2730 PWs)   bands (ev):

   -15.2500 -13.0634 -10.0501  -2.4123  -2.3761  -1.8368   9.2141   9.5116

          k = 0.0228-0.7412 0.0000 (  2731 PWs)   bands (ev):

   -15.2574 -13.0553 -10.0489  -2.4400  -2.3748  -1.8091   9.2056   9.4706

          k = 0.0228-0.7392 0.0000 (  2733 PWs)   bands (ev):

   -15.2655 -13.0465 -10.0477  -2.4678  -2.3735  -1.7814   9.1962   9.4293

          k = 0.0228-0.7372 0.0000 (  2733 PWs)   bands (ev):

   -15.2741 -13.0370 -10.0463  -2.4955  -2.3720  -1.7537   9.1861   9.3879

          k = 0.0228-0.7352 0.0000 (  2733 PWs)   bands (ev):

   -15.2834 -13.0269 -10.0449  -2.5232  -2.3704  -1.7260   9.1752   9.3464

          k = 0.0228-0.7332 0.0000 (  2733 PWs)   bands (ev):

   -15.2932 -13.0162 -10.0433  -2.5509  -2.3687  -1.6983   9.1635   9.3048

          k = 0.0228-0.7312 0.0000 (  2731 PWs)   bands (ev):

   -15.3036 -13.0048 -10.0416  -2.5787  -2.3669  -1.6706   9.1510   9.2631

          k = 0.0228-0.7292 0.0000 (  2729 PWs)   bands (ev):

   -15.3145 -12.9928 -10.0398  -2.6064  -2.3650  -1.6428   9.1377   9.2214

          k = 0.0228-0.7272 0.0000 (  2729 PWs)   bands (ev):

   -15.3259 -12.9802 -10.0380  -2.6341  -2.3630  -1.6151   9.1237   9.1796

          k = 0.0228-0.7252 0.0000 (  2731 PWs)   bands (ev):

   -15.3379 -12.9671 -10.0360  -2.6619  -2.3608  -1.5874   9.1089   9.1379

          k = 0.0228-0.7232 0.0000 (  2733 PWs)   bands (ev):

   -15.3503 -12.9534 -10.0339  -2.6897  -2.3585  -1.5597   9.0933   9.0962

          k = 0.0228-0.7212 0.0000 (  2735 PWs)   bands (ev):

   -15.3633 -12.9392 -10.0317  -2.7174  -2.3561  -1.5320   9.0544   9.0770

          k = 0.0228-0.7192 0.0000 (  2737 PWs)   bands (ev):

   -15.3767 -12.9244 -10.0294  -2.7451  -2.3537  -1.5043   9.0127   9.0599

          k = 0.0228-0.7172 0.0000 (  2733 PWs)   bands (ev):

   -15.3905 -12.9092 -10.0270  -2.7728  -2.3510  -1.4766   8.9710   9.0421

          k = 0.0228-0.7152 0.0000 (  2733 PWs)   bands (ev):

   -15.4047 -12.8935 -10.0244  -2.8005  -2.3483  -1.4489   8.9294   9.0236

          k = 0.0228-0.7132 0.0000 (  2735 PWs)   bands (ev):

   -15.4193 -12.8773 -10.0218  -2.8281  -2.3455  -1.4213   8.8878   9.0044

          k = 0.0228-0.7112 0.0000 (  2735 PWs)   bands (ev):

   -15.4344 -12.8606 -10.0191  -2.8558  -2.3425  -1.3936   8.8463   8.9845

          k = 0.0248-0.7912 0.0000 (  2731 PWs)   bands (ev):

   -15.2787 -13.0315 -10.0493  -2.5088  -2.3646  -1.7410   9.1773   9.3693

          k = 0.0248-0.7892 0.0000 (  2731 PWs)   bands (ev):

   -15.2697 -13.0412 -10.0507  -2.4811  -2.3661  -1.7687   9.1877   9.4108

          k = 0.0248-0.7872 0.0000 (  2731 PWs)   bands (ev):

   -15.2614 -13.0503 -10.0520  -2.4535  -2.3675  -1.7964   9.1973   9.4521

          k = 0.0248-0.7852 0.0000 (  2729 PWs)   bands (ev):

   -15.2537 -13.0587 -10.0532  -2.4257  -2.3688  -1.8240   9.2061   9.4932

          k = 0.0248-0.7832 0.0000 (  2729 PWs)   bands (ev):

   -15.2466 -13.0664 -10.0543  -2.3981  -2.3700  -1.8516   9.2141   9.5341

          k = 0.0248-0.7812 0.0000 (  2730 PWs)   bands (ev):

   -15.2402 -13.0734 -10.0553  -2.3710  -2.3704  -1.8792   9.2214   9.5746

          k = 0.0248-0.7792 0.0000 (  2730 PWs)   bands (ev):

   -15.2344 -13.0797 -10.0562  -2.3720  -2.3429  -1.9068   9.2278   9.6146

          k = 0.0248-0.7772 0.0000 (  2730 PWs)   bands (ev):

   -15.2293 -13.0853 -10.0569  -2.3728  -2.3154  -1.9342   9.2335   9.6538

          k = 0.0248-0.7752 0.0000 (  2732 PWs)   bands (ev):

   -15.2249 -13.0901 -10.0576  -2.3735  -2.2881  -1.9616   9.2384   9.6921

          k = 0.0248-0.7732 0.0000 (  2732 PWs)   bands (ev):

   -15.2212 -13.0941 -10.0582  -2.3741  -2.2609  -1.9887   9.2425   9.7288

          k = 0.0248-0.7712 0.0000 (  2730 PWs)   bands (ev):

   -15.2182 -13.0974 -10.0586  -2.3746  -2.2342  -2.0155   9.2458   9.7631

          k = 0.0248-0.7692 0.0000 (  2730 PWs)   bands (ev):

   -15.2158 -13.0999 -10.0590  -2.3750  -2.2081  -2.0416   9.2484   9.7937

          k = 0.0248-0.7672 0.0000 (  2730 PWs)   bands (ev):

   -15.2142 -13.1017 -10.0592  -2.3752  -2.1836  -2.0660   9.2501   9.8184

          k = 0.0248-0.7652 0.0000 (  2728 PWs)   bands (ev):

   -15.2133 -13.1026 -10.0594  -2.3754  -2.1640  -2.0856   9.2511   9.8339

          k = 0.0248-0.7632 0.0000 (  2728 PWs)   bands (ev):

   -15.2132 -13.1028 -10.0594  -2.3754  -2.1590  -2.0906   9.2513   9.8371

          k = 0.0248-0.7612 0.0000 (  2730 PWs)   bands (ev):

   -15.2137 -13.1022 -10.0593  -2.3753  -2.1734  -2.0763   9.2507   9.8272

          k = 0.0248-0.7592 0.0000 (  2730 PWs)   bands (ev):

   -15.2150 -13.1008 -10.0591  -2.3751  -2.1962  -2.0535   9.2493   9.8065

          k = 0.0248-0.7572 0.0000 (  2728 PWs)   bands (ev):

   -15.2170 -13.0987 -10.0588  -2.3748  -2.2217  -2.0280   9.2471   9.7784

          k = 0.0248-0.7552 0.0000 (  2730 PWs)   bands (ev):

   -15.2197 -13.0958 -10.0584  -2.3744  -2.2482  -2.0014   9.2442   9.7456

          k = 0.0248-0.7532 0.0000 (  2732 PWs)   bands (ev):

   -15.2231 -13.0921 -10.0579  -2.3738  -2.2752  -1.9744   9.2404   9.7099

          k = 0.0248-0.7512 0.0000 (  2730 PWs)   bands (ev):

   -15.2272 -13.0876 -10.0573  -2.3732  -2.3025  -1.9472   9.2359   9.6723

          k = 0.0248-0.7492 0.0000 (  2730 PWs)   bands (ev):

   -15.2319 -13.0824 -10.0566  -2.3724  -2.3299  -1.9198   9.2306   9.6335

          k = 0.0248-0.7472 0.0000 (  2730 PWs)   bands (ev):

   -15.2374 -13.0765 -10.0558  -2.3715  -2.3574  -1.8923   9.2245   9.5938

          k = 0.0248-0.7452 0.0000 (  2730 PWs)   bands (ev):

   -15.2435 -13.0698 -10.0548  -2.3850  -2.3705  -1.8647   9.2176   9.5536

          k = 0.0248-0.7432 0.0000 (  2729 PWs)   bands (ev):

   -15.2503 -13.0624 -10.0538  -2.4126  -2.3694  -1.8371   9.2100   9.5129

          k = 0.0248-0.7412 0.0000 (  2731 PWs)   bands (ev):

   -15.2577 -13.0543 -10.0527  -2.4404  -2.3681  -1.8094   9.2015   9.4719

          k = 0.0248-0.7392 0.0000 (  2731 PWs)   bands (ev):

   -15.2657 -13.0456 -10.0514  -2.4681  -2.3668  -1.7817   9.1923   9.4306

          k = 0.0248-0.7372 0.0000 (  2731 PWs)   bands (ev):

   -15.2743 -13.0361 -10.0500  -2.4957  -2.3653  -1.7541   9.1823   9.3892

          k = 0.0248-0.7352 0.0000 (  2731 PWs)   bands (ev):

   -15.2836 -13.0260 -10.0486  -2.5235  -2.3637  -1.7264   9.1714   9.3477

          k = 0.0248-0.7332 0.0000 (  2733 PWs)   bands (ev):

   -15.2934 -13.0153 -10.0470  -2.5512  -2.3620  -1.6987   9.1599   9.3061

          k = 0.0248-0.7312 0.0000 (  2731 PWs)   bands (ev):

   -15.3038 -13.0039 -10.0453  -2.5789  -2.3602  -1.6710   9.1475   9.2644

          k = 0.0248-0.7292 0.0000 (  2733 PWs)   bands (ev):

   -15.3147 -12.9920 -10.0435  -2.6066  -2.3583  -1.6433   9.1343   9.2227

          k = 0.0248-0.7272 0.0000 (  2733 PWs)   bands (ev):

   -15.3261 -12.9794 -10.0417  -2.6343  -2.3563  -1.6156   9.1204   9.1810

          k = 0.0248-0.7252 0.0000 (  2731 PWs)   bands (ev):

   -15.3380 -12.9663 -10.0397  -2.6620  -2.3541  -1.5879   9.1057   9.1392

          k = 0.0248-0.7232 0.0000 (  2733 PWs)   bands (ev):

   -15.3505 -12.9526 -10.0376  -2.6898  -2.3518  -1.5602   9.0903   9.0975

          k = 0.0248-0.7212 0.0000 (  2733 PWs)   bands (ev):

   -15.3634 -12.9384 -10.0353  -2.7175  -2.3494  -1.5325   9.0557   9.0741

          k = 0.0248-0.7192 0.0000 (  2735 PWs)   bands (ev):

   -15.3768 -12.9237 -10.0330  -2.7452  -2.3469  -1.5048   9.0141   9.0572

          k = 0.0248-0.7172 0.0000 (  2735 PWs)   bands (ev):

   -15.3906 -12.9085 -10.0306  -2.7729  -2.3443  -1.4772   8.9724   9.0396

          k = 0.0248-0.7152 0.0000 (  2735 PWs)   bands (ev):

   -15.4048 -12.8928 -10.0281  -2.8006  -2.3416  -1.4495   8.9308   9.0212

          k = 0.0248-0.7132 0.0000 (  2735 PWs)   bands (ev):

   -15.4194 -12.8766 -10.0254  -2.8282  -2.3388  -1.4218   8.8892   9.0021

          k = 0.0248-0.7112 0.0000 (  2735 PWs)   bands (ev):

   -15.4344 -12.8600 -10.0227  -2.8559  -2.3358  -1.3942   8.8476   8.9824

          k = 0.0268-0.7912 0.0000 (  2731 PWs)   bands (ev):

   -15.2789 -13.0305 -10.0533  -2.5091  -2.3573  -1.7414   9.1732   9.3707

          k = 0.0268-0.7892 0.0000 (  2731 PWs)   bands (ev):

   -15.2700 -13.0403 -10.0547  -2.4814  -2.3588  -1.7690   9.1834   9.4122

          k = 0.0268-0.7872 0.0000 (  2731 PWs)   bands (ev):

   -15.2617 -13.0493 -10.0560  -2.4538  -2.3602  -1.7967   9.1929   9.4535

          k = 0.0268-0.7852 0.0000 (  2729 PWs)   bands (ev):

   -15.2540 -13.0577 -10.0572  -2.4261  -2.3615  -1.8243   9.2017   9.4946

          k = 0.0268-0.7832 0.0000 (  2729 PWs)   bands (ev):

   -15.2469 -13.0654 -10.0583  -2.3985  -2.3627  -1.8519   9.2096   9.5355

          k = 0.0268-0.7812 0.0000 (  2729 PWs)   bands (ev):

   -15.2405 -13.0724 -10.0593  -2.3709  -2.3638  -1.8795   9.2168   9.5760

          k = 0.0268-0.7792 0.0000 (  2729 PWs)   bands (ev):

   -15.2347 -13.0787 -10.0602  -2.3647  -2.3434  -1.9070   9.2232   9.6159

          k = 0.0268-0.7772 0.0000 (  2730 PWs)   bands (ev):

   -15.2297 -13.0842 -10.0610  -2.3655  -2.3160  -1.9344   9.2288   9.6552

          k = 0.0268-0.7752 0.0000 (  2730 PWs)   bands (ev):

   -15.2252 -13.0890 -10.0617  -2.3663  -2.2887  -1.9617   9.2336   9.6934

          k = 0.0268-0.7732 0.0000 (  2730 PWs)   bands (ev):

   -15.2215 -13.0930 -10.0622  -2.3669  -2.2616  -1.9887   9.2376   9.7301

          k = 0.0268-0.7712 0.0000 (  2730 PWs)   bands (ev):

   -15.2185 -13.0963 -10.0627  -2.3673  -2.2349  -2.0154   9.2409   9.7644

          k = 0.0268-0.7692 0.0000 (  2730 PWs)   bands (ev):

   -15.2162 -13.0988 -10.0631  -2.3677  -2.2090  -2.0413   9.2434   9.7950

          k = 0.0268-0.7672 0.0000 (  2730 PWs)   bands (ev):

   -15.2146 -13.1006 -10.0633  -2.3680  -2.1849  -2.0654   9.2452   9.8197

          k = 0.0268-0.7652 0.0000 (  2728 PWs)   bands (ev):

   -15.2137 -13.1015 -10.0634  -2.3681  -2.1657  -2.0845   9.2461   9.8352

          k = 0.0268-0.7632 0.0000 (  2728 PWs)   bands (ev):

   -15.2135 -13.1017 -10.0635  -2.3681  -2.1610  -2.0893   9.2463   9.8384

          k = 0.0268-0.7612 0.0000 (  2730 PWs)   bands (ev):

   -15.2141 -13.1011 -10.0634  -2.3681  -2.1748  -2.0755   9.2457   9.8285

          k = 0.0268-0.7592 0.0000 (  2730 PWs)   bands (ev):

   -15.2153 -13.0997 -10.0632  -2.3679  -2.1973  -2.0530   9.2443   9.8078

          k = 0.0268-0.7572 0.0000 (  2730 PWs)   bands (ev):

   -15.2173 -13.0976 -10.0629  -2.3675  -2.2226  -2.0277   9.2422   9.7797

          k = 0.0268-0.7552 0.0000 (  2732 PWs)   bands (ev):

   -15.2200 -13.0947 -10.0625  -2.3671  -2.2490  -2.0014   9.2393   9.7469

          k = 0.0268-0.7532 0.0000 (  2730 PWs)   bands (ev):

   -15.2234 -13.0910 -10.0620  -2.3666  -2.2759  -1.9745   9.2356   9.7113

          k = 0.0268-0.7512 0.0000 (  2730 PWs)   bands (ev):

   -15.2275 -13.0865 -10.0614  -2.3659  -2.3031  -1.9473   9.2311   9.6737

          k = 0.0268-0.7492 0.0000 (  2730 PWs)   bands (ev):

   -15.2322 -13.0813 -10.0607  -2.3651  -2.3304  -1.9199   9.2259   9.6349

          k = 0.0268-0.7472 0.0000 (  2729 PWs)   bands (ev):

   -15.2377 -13.0754 -10.0598  -2.3642  -2.3579  -1.8924   9.2199   9.5952

          k = 0.0268-0.7452 0.0000 (  2729 PWs)   bands (ev):

   -15.2438 -13.0688 -10.0589  -2.3854  -2.3632  -1.8649   9.2131   9.5550

          k = 0.0268-0.7432 0.0000 (  2729 PWs)   bands (ev):

   -15.2505 -13.0614 -10.0579  -2.4130  -2.3621  -1.8373   9.2055   9.5143

          k = 0.0268-0.7412 0.0000 (  2731 PWs)   bands (ev):

   -15.2580 -13.0533 -10.0567  -2.4407  -2.3609  -1.8097   9.1971   9.4733

          k = 0.0268-0.7392 0.0000 (  2731 PWs)   bands (ev):

   -15.2660 -13.0446 -10.0554  -2.4684  -2.3595  -1.7821   9.1880   9.4320

          k = 0.0268-0.7372 0.0000 (  2731 PWs)   bands (ev):

   -15.2746 -13.0352 -10.0541  -2.4960  -2.3580  -1.7544   9.1781   9.3906

          k = 0.0268-0.7352 0.0000 (  2731 PWs)   bands (ev):

   -15.2838 -13.0251 -10.0526  -2.5237  -2.3565  -1.7268   9.1674   9.3491

          k = 0.0268-0.7332 0.0000 (  2729 PWs)   bands (ev):

   -15.2936 -13.0144 -10.0510  -2.5514  -2.3548  -1.6991   9.1559   9.3075

          k = 0.0268-0.7312 0.0000 (  2729 PWs)   bands (ev):

   -15.3040 -13.0030 -10.0493  -2.5791  -2.3529  -1.6714   9.1437   9.2658

          k = 0.0268-0.7292 0.0000 (  2733 PWs)   bands (ev):

   -15.3149 -12.9911 -10.0476  -2.6068  -2.3510  -1.6437   9.1307   9.2241

          k = 0.0268-0.7272 0.0000 (  2733 PWs)   bands (ev):

   -15.3263 -12.9786 -10.0457  -2.6345  -2.3490  -1.6160   9.1169   9.1824

          k = 0.0268-0.7252 0.0000 (  2733 PWs)   bands (ev):

   -15.3382 -12.9655 -10.0437  -2.6622  -2.3468  -1.5884   9.1024   9.1407

          k = 0.0268-0.7232 0.0000 (  2733 PWs)   bands (ev):

   -15.3507 -12.9518 -10.0415  -2.6900  -2.3446  -1.5607   9.0871   9.0989

          k = 0.0268-0.7212 0.0000 (  2733 PWs)   bands (ev):

   -15.3635 -12.9377 -10.0393  -2.7176  -2.3422  -1.5330   9.0572   9.0710

          k = 0.0268-0.7192 0.0000 (  2731 PWs)   bands (ev):

   -15.3769 -12.9230 -10.0370  -2.7453  -2.3397  -1.5054   9.0155   9.0543

          k = 0.0268-0.7172 0.0000 (  2731 PWs)   bands (ev):

   -15.3907 -12.9078 -10.0345  -2.7730  -2.3371  -1.4777   8.9738   9.0368

          k = 0.0268-0.7152 0.0000 (  2735 PWs)   bands (ev):

   -15.4049 -12.8921 -10.0320  -2.8006  -2.3344  -1.4501   8.9322   9.0185

          k = 0.0268-0.7132 0.0000 (  2735 PWs)   bands (ev):

   -15.4195 -12.8760 -10.0293  -2.8283  -2.3315  -1.4225   8.8906   8.9996

          k = 0.0268-0.7112 0.0000 (  2735 PWs)   bands (ev):

   -15.4345 -12.8594 -10.0266  -2.8559  -2.3286  -1.3948   8.8491   8.9800

          k = 0.0288-0.7912 0.0000 (  2731 PWs)   bands (ev):

   -15.2792 -13.0295 -10.0576  -2.5094  -2.3495  -1.7418   9.1688   9.3723

          k = 0.0288-0.7892 0.0000 (  2731 PWs)   bands (ev):

   -15.2703 -13.0392 -10.0590  -2.4818  -2.3510  -1.7694   9.1789   9.4137

          k = 0.0288-0.7872 0.0000 (  2731 PWs)   bands (ev):

   -15.2620 -13.0483 -10.0604  -2.4541  -2.3524  -1.7970   9.1883   9.4550

          k = 0.0288-0.7852 0.0000 (  2731 PWs)   bands (ev):

   -15.2543 -13.0566 -10.0616  -2.4265  -2.3537  -1.8246   9.1969   9.4961

          k = 0.0288-0.7832 0.0000 (  2729 PWs)   bands (ev):

   -15.2472 -13.0643 -10.0627  -2.3989  -2.3549  -1.8522   9.2048   9.5370

          k = 0.0288-0.7812 0.0000 (  2729 PWs)   bands (ev):

   -15.2408 -13.0713 -10.0637  -2.3713  -2.3559  -1.8797   9.2118   9.5775

          k = 0.0288-0.7792 0.0000 (  2727 PWs)   bands (ev):

   -15.2351 -13.0775 -10.0646  -2.3569  -2.3439  -1.9072   9.2181   9.6174

          k = 0.0288-0.7772 0.0000 (  2727 PWs)   bands (ev):

   -15.2300 -13.0831 -10.0654  -2.3577  -2.3165  -1.9345   9.2237   9.6567

          k = 0.0288-0.7752 0.0000 (  2730 PWs)   bands (ev):

   -15.2256 -13.0879 -10.0660  -2.3584  -2.2893  -1.9617   9.2284   9.6949

          k = 0.0288-0.7732 0.0000 (  2732 PWs)   bands (ev):

   -15.2219 -13.0919 -10.0666  -2.3591  -2.2623  -1.9887   9.2324   9.7315

          k = 0.0288-0.7712 0.0000 (  2730 PWs)   bands (ev):

   -15.2189 -13.0952 -10.0671  -2.3595  -2.2358  -2.0152   9.2357   9.7659

          k = 0.0288-0.7692 0.0000 (  2730 PWs)   bands (ev):

   -15.2166 -13.0977 -10.0674  -2.3599  -2.2101  -2.0409   9.2381   9.7965

          k = 0.0288-0.7672 0.0000 (  2730 PWs)   bands (ev):

   -15.2150 -13.0994 -10.0677  -2.3602  -2.1862  -2.0648   9.2398   9.8211

          k = 0.0288-0.7652 0.0000 (  2728 PWs)   bands (ev):

   -15.2141 -13.1003 -10.0678  -2.3603  -2.1676  -2.0834   9.2408   9.8366

          k = 0.0288-0.7632 0.0000 (  2728 PWs)   bands (ev):

   -15.2139 -13.1005 -10.0679  -2.3603  -2.1630  -2.0879   9.2410   9.8398

          k = 0.0288-0.7612 0.0000 (  2730 PWs)   bands (ev):

   -15.2144 -13.0999 -10.0678  -2.3602  -2.1764  -2.0746   9.2404   9.8299

          k = 0.0288-0.7592 0.0000 (  2730 PWs)   bands (ev):

   -15.2157 -13.0986 -10.0676  -2.3600  -2.1985  -2.0525   9.2390   9.8092

          k = 0.0288-0.7572 0.0000 (  2730 PWs)   bands (ev):

   -15.2177 -13.0964 -10.0673  -2.3597  -2.2235  -2.0275   9.2369   9.7811

          k = 0.0288-0.7552 0.0000 (  2732 PWs)   bands (ev):

   -15.2204 -13.0935 -10.0669  -2.3593  -2.2498  -2.0013   9.2340   9.7484

          k = 0.0288-0.7532 0.0000 (  2732 PWs)   bands (ev):

   -15.2238 -13.0898 -10.0664  -2.3587  -2.2766  -1.9745   9.2304   9.7127

          k = 0.0288-0.7512 0.0000 (  2729 PWs)   bands (ev):

   -15.2278 -13.0854 -10.0658  -2.3581  -2.3037  -1.9473   9.2260   9.6752

          k = 0.0288-0.7492 0.0000 (  2727 PWs)   bands (ev):

   -15.2326 -13.0802 -10.0650  -2.3573  -2.3310  -1.9201   9.2208   9.6364

          k = 0.0288-0.7472 0.0000 (  2729 PWs)   bands (ev):

   -15.2380 -13.0743 -10.0642  -2.3584  -2.3564  -1.8926   9.2149   9.5967

          k = 0.0288-0.7452 0.0000 (  2729 PWs)   bands (ev):

   -15.2441 -13.0677 -10.0633  -2.3859  -2.3554  -1.8652   9.2082   9.5565

          k = 0.0288-0.7432 0.0000 (  2729 PWs)   bands (ev):

   -15.2509 -13.0603 -10.0622  -2.4134  -2.3543  -1.8376   9.2007   9.5158

          k = 0.0288-0.7412 0.0000 (  2731 PWs)   bands (ev):

   -15.2583 -13.0523 -10.0611  -2.4411  -2.3530  -1.8100   9.1925   9.4748

          k = 0.0288-0.7392 0.0000 (  2731 PWs)   bands (ev):

   -15.2663 -13.0435 -10.0598  -2.4687  -2.3517  -1.7824   9.1834   9.4336

          k = 0.0288-0.7372 0.0000 (  2731 PWs)   bands (ev):

   -15.2749 -13.0341 -10.0584  -2.4964  -2.3502  -1.7548   9.1736   9.3922

          k = 0.0288-0.7352 0.0000 (  2729 PWs)   bands (ev):

   -15.2841 -13.0241 -10.0569  -2.5240  -2.3486  -1.7272   9.1631   9.3507

          k = 0.0288-0.7332 0.0000 (  2731 PWs)   bands (ev):

   -15.2939 -13.0134 -10.0554  -2.5517  -2.3469  -1.6995   9.1517   9.3090

          k = 0.0288-0.7312 0.0000 (  2733 PWs)   bands (ev):

   -15.3042 -13.0021 -10.0537  -2.5794  -2.3451  -1.6719   9.1396   9.2674

          k = 0.0288-0.7292 0.0000 (  2733 PWs)   bands (ev):

   -15.3151 -12.9901 -10.0519  -2.6071  -2.3432  -1.6442   9.1267   9.2257

          k = 0.0288-0.7272 0.0000 (  2731 PWs)   bands (ev):

   -15.3265 -12.9776 -10.0499  -2.6347  -2.3412  -1.6165   9.1131   9.1839

          k = 0.0288-0.7252 0.0000 (  2731 PWs)   bands (ev):

   -15.3384 -12.9646 -10.0479  -2.6624  -2.3390  -1.5889   9.0987   9.1422

          k = 0.0288-0.7232 0.0000 (  2733 PWs)   bands (ev):

   -15.3508 -12.9510 -10.0458  -2.6901  -2.3368  -1.5613   9.0836   9.1005

          k = 0.0288-0.7212 0.0000 (  2733 PWs)   bands (ev):

   -15.3637 -12.9368 -10.0436  -2.7178  -2.3344  -1.5336   9.0588   9.0677

          k = 0.0288-0.7192 0.0000 (  2731 PWs)   bands (ev):

   -15.3770 -12.9221 -10.0412  -2.7455  -2.3319  -1.5060   9.0171   9.0511

          k = 0.0288-0.7172 0.0000 (  2731 PWs)   bands (ev):

   -15.3908 -12.9070 -10.0388  -2.7731  -2.3293  -1.4784   8.9754   9.0337

          k = 0.0288-0.7152 0.0000 (  2731 PWs)   bands (ev):

   -15.4050 -12.8913 -10.0362  -2.8007  -2.3266  -1.4507   8.9338   9.0157

          k = 0.0288-0.7132 0.0000 (  2733 PWs)   bands (ev):

   -15.4196 -12.8752 -10.0335  -2.8284  -2.3237  -1.4231   8.8922   8.9969

          k = 0.0288-0.7112 0.0000 (  2735 PWs)   bands (ev):

   -15.4346 -12.8587 -10.0308  -2.8560  -2.3208  -1.3955   8.8507   8.9775

          k = 0.0308-0.7912 0.0000 (  2731 PWs)   bands (ev):

   -15.2795 -13.0284 -10.0622  -2.5098  -2.3411  -1.7422   9.1640   9.3739

          k = 0.0308-0.7892 0.0000 (  2731 PWs)   bands (ev):

   -15.2706 -13.0381 -10.0637  -2.4821  -2.3427  -1.7698   9.1741   9.4153

          k = 0.0308-0.7872 0.0000 (  2731 PWs)   bands (ev):

   -15.2623 -13.0471 -10.0650  -2.4545  -2.3441  -1.7974   9.1833   9.4567

          k = 0.0308-0.7852 0.0000 (  2731 PWs)   bands (ev):

   -15.2546 -13.0555 -10.0662  -2.4270  -2.3453  -1.8250   9.1919   9.4978

          k = 0.0308-0.7832 0.0000 (  2729 PWs)   bands (ev):

   -15.2476 -13.0631 -10.0673  -2.3993  -2.3465  -1.8525   9.1996   9.5386

          k = 0.0308-0.7812 0.0000 (  2727 PWs)   bands (ev):

   -15.2412 -13.0701 -10.0683  -2.3719  -2.3476  -1.8799   9.2066   9.5791

          k = 0.0308-0.7792 0.0000 (  2727 PWs)   bands (ev):

   -15.2354 -13.0763 -10.0692  -2.3485  -2.3445  -1.9073   9.2128   9.6190

          k = 0.0308-0.7772 0.0000 (  2729 PWs)   bands (ev):

   -15.2304 -13.0819 -10.0700  -2.3494  -2.3172  -1.9346   9.2182   9.6583

          k = 0.0308-0.7752 0.0000 (  2731 PWs)   bands (ev):

   -15.2260 -13.0866 -10.0707  -2.3501  -2.2900  -1.9618   9.2229   9.6964

          k = 0.0308-0.7732 0.0000 (  2731 PWs)   bands (ev):

   -15.2223 -13.0907 -10.0713  -2.3507  -2.2632  -1.9886   9.2269   9.7331

          k = 0.0308-0.7712 0.0000 (  2730 PWs)   bands (ev):

   -15.2193 -13.0939 -10.0718  -2.3512  -2.2367  -2.0150   9.2300   9.7674

          k = 0.0308-0.7692 0.0000 (  2730 PWs)   bands (ev):

   -15.2169 -13.0964 -10.0721  -2.3515  -2.2112  -2.0405   9.2325   9.7980

          k = 0.0308-0.7672 0.0000 (  2730 PWs)   bands (ev):

   -15.2153 -13.0981 -10.0724  -2.3518  -2.1877  -2.0640   9.2342   9.8226

          k = 0.0308-0.7652 0.0000 (  2728 PWs)   bands (ev):

   -15.2145 -13.0991 -10.0725  -2.3519  -2.1696  -2.0821   9.2351   9.8381

          k = 0.0308-0.7632 0.0000 (  2728 PWs)   bands (ev):

   -15.2143 -13.0993 -10.0725  -2.3519  -2.1653  -2.0865   9.2353   9.8413

          k = 0.0308-0.7612 0.0000 (  2730 PWs)   bands (ev):

   -15.2148 -13.0987 -10.0725  -2.3519  -2.1782  -2.0736   9.2347   9.8314

          k = 0.0308-0.7592 0.0000 (  2730 PWs)   bands (ev):

   -15.2161 -13.0973 -10.0723  -2.3517  -2.1998  -2.0519   9.2334   9.8107

          k = 0.0308-0.7572 0.0000 (  2730 PWs)   bands (ev):

   -15.2181 -13.0952 -10.0720  -2.3513  -2.2246  -2.0272   9.2313   9.7827

          k = 0.0308-0.7552 0.0000 (  2730 PWs)   bands (ev):

   -15.2207 -13.0923 -10.0716  -2.3509  -2.2506  -2.0011   9.2284   9.7499

          k = 0.0308-0.7532 0.0000 (  2731 PWs)   bands (ev):

   -15.2241 -13.0886 -10.0711  -2.3504  -2.2773  -1.9744   9.2249   9.7143

          k = 0.0308-0.7512 0.0000 (  2731 PWs)   bands (ev):

   -15.2282 -13.0842 -10.0704  -2.3497  -2.3044  -1.9474   9.2205   9.6767

          k = 0.0308-0.7492 0.0000 (  2727 PWs)   bands (ev):

   -15.2329 -13.0790 -10.0697  -2.3489  -2.3316  -1.9202   9.2154   9.6380

          k = 0.0308-0.7472 0.0000 (  2727 PWs)   bands (ev):

   -15.2384 -13.0731 -10.0689  -2.3589  -2.3480  -1.8928   9.2096   9.5983

          k = 0.0308-0.7452 0.0000 (  2727 PWs)   bands (ev):

   -15.2444 -13.0665 -10.0679  -2.3864  -2.3470  -1.8654   9.2030   9.5581

          k = 0.0308-0.7432 0.0000 (  2731 PWs)   bands (ev):

   -15.2512 -13.0591 -10.0669  -2.4140  -2.3459  -1.8379   9.1956   9.5174

          k = 0.0308-0.7412 0.0000 (  2731 PWs)   bands (ev):

   -15.2586 -13.0511 -10.0657  -2.4415  -2.3447  -1.8104   9.1874   9.4764

          k = 0.0308-0.7392 0.0000 (  2731 PWs)   bands (ev):

   -15.2666 -13.0424 -10.0644  -2.4691  -2.3433  -1.7828   9.1785   9.4352

          k = 0.0308-0.7372 0.0000 (  2733 PWs)   bands (ev):

   -15.2752 -13.0330 -10.0631  -2.4968  -2.3419  -1.7552   9.1688   9.3938

          k = 0.0308-0.7352 0.0000 (  2731 PWs)   bands (ev):

   -15.2844 -13.0230 -10.0616  -2.5244  -2.3403  -1.7276   9.1584   9.3523

          k = 0.0308-0.7332 0.0000 (  2733 PWs)   bands (ev):

   -15.2941 -13.0123 -10.0600  -2.5520  -2.3386  -1.7000   9.1472   9.3107

          k = 0.0308-0.7312 0.0000 (  2733 PWs)   bands (ev):

   -15.3045 -13.0010 -10.0583  -2.5797  -2.3368  -1.6724   9.1353   9.2690

          k = 0.0308-0.7292 0.0000 (  2733 PWs)   bands (ev):

   -15.3153 -12.9891 -10.0565  -2.6073  -2.3349  -1.6447   9.1225   9.2273

          k = 0.0308-0.7272 0.0000 (  2731 PWs)   bands (ev):

   -15.3267 -12.9766 -10.0545  -2.6350  -2.3328  -1.6171   9.1091   9.1856

          k = 0.0308-0.7252 0.0000 (  2731 PWs)   bands (ev):

   -15.3386 -12.9636 -10.0525  -2.6626  -2.3307  -1.5895   9.0948   9.1439

          k = 0.0308-0.7232 0.0000 (  2731 PWs)   bands (ev):

   -15.3510 -12.9500 -10.0504  -2.6903  -2.3284  -1.5618   9.0798   9.1022

          k = 0.0308-0.7212 0.0000 (  2731 PWs)   bands (ev):

   -15.3639 -12.9359 -10.0481  -2.7180  -2.3260  -1.5342   9.0604   9.0642

          k = 0.0308-0.7192 0.0000 (  2731 PWs)   bands (ev):

   -15.3772 -12.9213 -10.0457  -2.7456  -2.3235  -1.5066   9.0188   9.0477

          k = 0.0308-0.7172 0.0000 (  2733 PWs)   bands (ev):

   -15.3910 -12.9061 -10.0433  -2.7732  -2.3209  -1.4790   8.9771   9.0305

          k = 0.0308-0.7152 0.0000 (  2729 PWs)   bands (ev):

   -15.4051 -12.8905 -10.0407  -2.8009  -2.3182  -1.4514   8.9355   9.0126

          k = 0.0308-0.7132 0.0000 (  2731 PWs)   bands (ev):

   -15.4197 -12.8744 -10.0380  -2.8285  -2.3154  -1.4238   8.8939   8.9940

          k = 0.0308-0.7112 0.0000 (  2733 PWs)   bands (ev):

   -15.4346 -12.8579 -10.0352  -2.8561  -2.3124  -1.3963   8.8524   8.9747

          k = 0.0328-0.7912 0.0000 (  2731 PWs)   bands (ev):

   -15.2798 -13.0273 -10.0671  -2.5101  -2.3322  -1.7427   9.1590   9.3756

          k = 0.0328-0.7892 0.0000 (  2733 PWs)   bands (ev):

   -15.2709 -13.0369 -10.0686  -2.4825  -2.3337  -1.7703   9.1689   9.4171

          k = 0.0328-0.7872 0.0000 (  2733 PWs)   bands (ev):

   -15.2626 -13.0459 -10.0699  -2.4550  -2.3351  -1.7978   9.1781   9.4584

          k = 0.0328-0.7852 0.0000 (  2729 PWs)   bands (ev):

   -15.2550 -13.0543 -10.0711  -2.4274  -2.3364  -1.8253   9.1865   9.4995

          k = 0.0328-0.7832 0.0000 (  2727 PWs)   bands (ev):

   -15.2479 -13.0619 -10.0723  -2.3999  -2.3376  -1.8528   9.1941   9.5403

          k = 0.0328-0.7812 0.0000 (  2727 PWs)   bands (ev):

   -15.2415 -13.0688 -10.0733  -2.3724  -2.3387  -1.8802   9.2010   9.5808

          k = 0.0328-0.7792 0.0000 (  2727 PWs)   bands (ev):

   -15.2358 -13.0751 -10.0742  -2.3451  -2.3396  -1.9075   9.2071   9.6207

          k = 0.0328-0.7772 0.0000 (  2731 PWs)   bands (ev):

   -15.2308 -13.0806 -10.0750  -2.3405  -2.3178  -1.9347   9.2124   9.6599

          k = 0.0328-0.7752 0.0000 (  2731 PWs)   bands (ev):

   -15.2264 -13.0853 -10.0757  -2.3412  -2.2908  -1.9618   9.2171   9.6981

          k = 0.0328-0.7732 0.0000 (  2729 PWs)   bands (ev):

   -15.2227 -13.0893 -10.0763  -2.3417  -2.2640  -1.9885   9.2209   9.7348

          k = 0.0328-0.7712 0.0000 (  2729 PWs)   bands (ev):

   -15.2197 -13.0926 -10.0767  -2.3422  -2.2378  -2.0148   9.2241   9.7691

          k = 0.0328-0.7692 0.0000 (  2730 PWs)   bands (ev):

   -15.2174 -13.0951 -10.0771  -2.3426  -2.2125  -2.0400   9.2265   9.7996

          k = 0.0328-0.7672 0.0000 (  2730 PWs)   bands (ev):

   -15.2158 -13.0968 -10.0773  -2.3429  -2.1894  -2.0631   9.2281   9.8242

          k = 0.0328-0.7652 0.0000 (  2728 PWs)   bands (ev):

   -15.2149 -13.0977 -10.0775  -2.3430  -2.1718  -2.0807   9.2290   9.8397

          k = 0.0328-0.7632 0.0000 (  2728 PWs)   bands (ev):

   -15.2147 -13.0979 -10.0775  -2.3430  -2.1676  -2.0849   9.2292   9.8429

          k = 0.0328-0.7612 0.0000 (  2730 PWs)   bands (ev):

   -15.2153 -13.0973 -10.0774  -2.3429  -2.1801  -2.0725   9.2286   9.8330

          k = 0.0328-0.7592 0.0000 (  2730 PWs)   bands (ev):

   -15.2165 -13.0960 -10.0772  -2.3427  -2.2013  -2.0513   9.2273   9.8123

          k = 0.0328-0.7572 0.0000 (  2729 PWs)   bands (ev):

   -15.2185 -13.0938 -10.0769  -2.3424  -2.2257  -2.0268   9.2253   9.7843

          k = 0.0328-0.7552 0.0000 (  2729 PWs)   bands (ev):

   -15.2212 -13.0909 -10.0765  -2.3420  -2.2516  -2.0009   9.2225   9.7516

          k = 0.0328-0.7532 0.0000 (  2731 PWs)   bands (ev):

   -15.2245 -13.0873 -10.0760  -2.3415  -2.2782  -1.9744   9.2190   9.7159

          k = 0.0328-0.7512 0.0000 (  2731 PWs)   bands (ev):

   -15.2286 -13.0829 -10.0754  -2.3408  -2.3051  -1.9475   9.2147   9.6784

          k = 0.0328-0.7492 0.0000 (  2731 PWs)   bands (ev):

   -15.2333 -13.0777 -10.0747  -2.3400  -2.3323  -1.9203   9.2097   9.6396

          k = 0.0328-0.7472 0.0000 (  2727 PWs)   bands (ev):

   -15.2387 -13.0718 -10.0738  -2.3596  -2.3391  -1.8930   9.2039   9.6000

          k = 0.0328-0.7452 0.0000 (  2727 PWs)   bands (ev):

   -15.2448 -13.0652 -10.0729  -2.3870  -2.3381  -1.8656   9.1974   9.5598

          k = 0.0328-0.7432 0.0000 (  2729 PWs)   bands (ev):

   -15.2516 -13.0579 -10.0718  -2.4145  -2.3370  -1.8382   9.1901   9.5191

          k = 0.0328-0.7412 0.0000 (  2733 PWs)   bands (ev):

   -15.2589 -13.0499 -10.0707  -2.4420  -2.3358  -1.8107   9.1821   9.4781

          k = 0.0328-0.7392 0.0000 (  2733 PWs)   bands (ev):

   -15.2669 -13.0412 -10.0694  -2.4696  -2.3344  -1.7832   9.1733   9.4369

          k = 0.0328-0.7372 0.0000 (  2731 PWs)   bands (ev):

   -15.2755 -13.0318 -10.0680  -2.4972  -2.3329  -1.7556   9.1638   9.3955

          k = 0.0328-0.7352 0.0000 (  2731 PWs)   bands (ev):

   -15.2847 -13.0218 -10.0665  -2.5247  -2.3314  -1.7280   9.1535   9.3540

          k = 0.0328-0.7332 0.0000 (  2733 PWs)   bands (ev):

   -15.2944 -13.0112 -10.0649  -2.5524  -2.3297  -1.7005   9.1424   9.3125

          k = 0.0328-0.7312 0.0000 (  2733 PWs)   bands (ev):

   -15.3048 -12.9999 -10.0632  -2.5800  -2.3279  -1.6729   9.1306   9.2708

          k = 0.0328-0.7292 0.0000 (  2731 PWs)   bands (ev):

   -15.3156 -12.9880 -10.0613  -2.6076  -2.3259  -1.6453   9.1180   9.2291

          k = 0.0328-0.7272 0.0000 (  2731 PWs)   bands (ev):

   -15.3270 -12.9756 -10.0594  -2.6352  -2.3239  -1.6177   9.1047   9.1874

          k = 0.0328-0.7252 0.0000 (  2731 PWs)   bands (ev):

   -15.3389 -12.9626 -10.0573  -2.6628  -2.3218  -1.5901   9.0907   9.1457

          k = 0.0328-0.7232 0.0000 (  2731 PWs)   bands (ev):

   -15.3512 -12.9490 -10.0552  -2.6905  -2.3195  -1.5625   9.0759   9.1039

          k = 0.0328-0.7212 0.0000 (  2731 PWs)   bands (ev):

   -15.3641 -12.9349 -10.0529  -2.7182  -2.3171  -1.5349   9.0603   9.0623

          k = 0.0328-0.7192 0.0000 (  2731 PWs)   bands (ev):

   -15.3774 -12.9203 -10.0506  -2.7458  -2.3146  -1.5073   9.0206   9.0441

          k = 0.0328-0.7172 0.0000 (  2733 PWs)   bands (ev):

   -15.3911 -12.9052 -10.0481  -2.7734  -2.3120  -1.4797   8.9789   9.0271

          k = 0.0328-0.7152 0.0000 (  2731 PWs)   bands (ev):

   -15.4053 -12.8897 -10.0455  -2.8010  -2.3093  -1.4521   8.9373   9.0093

          k = 0.0328-0.7132 0.0000 (  2729 PWs)   bands (ev):

   -15.4198 -12.8736 -10.0428  -2.8286  -2.3065  -1.4246   8.8957   8.9909

          k = 0.0328-0.7112 0.0000 (  2727 PWs)   bands (ev):

   -15.4347 -12.8571 -10.0399  -2.8561  -2.3035  -1.3970   8.8542   8.9718

          k = 0.0348-0.7912 0.0000 (  2731 PWs)   bands (ev):

   -15.2801 -13.0260 -10.0723  -2.5105  -2.3228  -1.7431   9.1537   9.3775

          k = 0.0348-0.7892 0.0000 (  2729 PWs)   bands (ev):

   -15.2713 -13.0356 -10.0738  -2.4830  -2.3243  -1.7707   9.1635   9.4189

          k = 0.0348-0.7872 0.0000 (  2731 PWs)   bands (ev):

   -15.2630 -13.0446 -10.0752  -2.4555  -2.3257  -1.7982   9.1725   9.4602

          k = 0.0348-0.7852 0.0000 (  2731 PWs)   bands (ev):

   -15.2554 -13.0529 -10.0764  -2.4280  -2.3270  -1.8256   9.1807   9.5013

          k = 0.0348-0.7832 0.0000 (  2731 PWs)   bands (ev):

   -15.2483 -13.0606 -10.0775  -2.4005  -2.3281  -1.8531   9.1882   9.5421

          k = 0.0348-0.7812 0.0000 (  2727 PWs)   bands (ev):

   -15.2419 -13.0675 -10.0785  -2.3730  -2.3292  -1.8804   9.1950   9.5826

          k = 0.0348-0.7792 0.0000 (  2729 PWs)   bands (ev):

   -15.2362 -13.0737 -10.0794  -2.3458  -2.3301  -1.9077   9.2010   9.6225

          k = 0.0348-0.7772 0.0000 (  2731 PWs)   bands (ev):

   -15.2312 -13.0792 -10.0803  -2.3310  -2.3186  -1.9348   9.2063   9.6617

          k = 0.0348-0.7752 0.0000 (  2731 PWs)   bands (ev):

   -15.2268 -13.0839 -10.0809  -2.3317  -2.2917  -1.9618   9.2109   9.6999

          k = 0.0348-0.7732 0.0000 (  2729 PWs)   bands (ev):

   -15.2231 -13.0879 -10.0815  -2.3323  -2.2650  -1.9884   9.2147   9.7365

          k = 0.0348-0.7712 0.0000 (  2729 PWs)   bands (ev):

   -15.2201 -13.0912 -10.0820  -2.3328  -2.2389  -2.0145   9.2178   9.7708

          k = 0.0348-0.7692 0.0000 (  2729 PWs)   bands (ev):

   -15.2178 -13.0937 -10.0824  -2.3331  -2.2139  -2.0395   9.2201   9.8013

          k = 0.0348-0.7672 0.0000 (  2729 PWs)   bands (ev):

   -15.2162 -13.0954 -10.0826  -2.3334  -2.1912  -2.0622   9.2218   9.8259

          k = 0.0348-0.7652 0.0000 (  2728 PWs)   bands (ev):

   -15.2153 -13.0963 -10.0828  -2.3335  -2.1742  -2.0792   9.2227   9.8414

          k = 0.0348-0.7632 0.0000 (  2728 PWs)   bands (ev):

   -15.2152 -13.0965 -10.0828  -2.3335  -2.1702  -2.0832   9.2228   9.8446

          k = 0.0348-0.7612 0.0000 (  2729 PWs)   bands (ev):

   -15.2157 -13.0959 -10.0827  -2.3335  -2.1821  -2.0713   9.2223   9.8347

          k = 0.0348-0.7592 0.0000 (  2729 PWs)   bands (ev):

   -15.2170 -13.0945 -10.0825  -2.3333  -2.2028  -2.0505   9.2210   9.8141

          k = 0.0348-0.7572 0.0000 (  2729 PWs)   bands (ev):

   -15.2189 -13.0924 -10.0822  -2.3330  -2.2270  -2.0264   9.2190   9.7860

          k = 0.0348-0.7552 0.0000 (  2729 PWs)   bands (ev):

   -15.2216 -13.0895 -10.0818  -2.3325  -2.2527  -2.0007   9.2162   9.7534

          k = 0.0348-0.7532 0.0000 (  2729 PWs)   bands (ev):

   -15.2250 -13.0859 -10.0813  -2.3320  -2.2791  -1.9743   9.2127   9.7177

          k = 0.0348-0.7512 0.0000 (  2731 PWs)   bands (ev):

   -15.2290 -13.0815 -10.0807  -2.3313  -2.3059  -1.9475   9.2085   9.6802

          k = 0.0348-0.7492 0.0000 (  2731 PWs)   bands (ev):

   -15.2338 -13.0763 -10.0799  -2.3330  -2.3306  -1.9204   9.2036   9.6414

          k = 0.0348-0.7472 0.0000 (  2729 PWs)   bands (ev):

   -15.2392 -13.0704 -10.0791  -2.3602  -2.3296  -1.8932   9.1979   9.6018

          k = 0.0348-0.7452 0.0000 (  2727 PWs)   bands (ev):

   -15.2452 -13.0639 -10.0781  -2.3876  -2.3286  -1.8659   9.1915   9.5616

          k = 0.0348-0.7432 0.0000 (  2731 PWs)   bands (ev):

   -15.2520 -13.0566 -10.0771  -2.4151  -2.3275  -1.8385   9.1843   9.5209

          k = 0.0348-0.7412 0.0000 (  2731 PWs)   bands (ev):

   -15.2593 -13.0486 -10.0759  -2.4425  -2.3263  -1.8111   9.1764   9.4800

          k = 0.0348-0.7392 0.0000 (  2731 PWs)   bands (ev):

   -15.2673 -13.0399 -10.0746  -2.4700  -2.3249  -1.7836   9.1678   9.4388

          k = 0.0348-0.7372 0.0000 (  2731 PWs)   bands (ev):

   -15.2759 -13.0305 -10.0732  -2.4976  -2.3235  -1.7561   9.1584   9.3974

          k = 0.0348-0.7352 0.0000 (  2733 PWs)   bands (ev):

   -15.2850 -13.0206 -10.0717  -2.5252  -2.3219  -1.7285   9.1482   9.3559

          k = 0.0348-0.7332 0.0000 (  2733 PWs)   bands (ev):

   -15.2948 -13.0099 -10.0701  -2.5527  -2.3202  -1.7010   9.1373   9.3143

          k = 0.0348-0.7312 0.0000 (  2733 PWs)   bands (ev):

   -15.3050 -12.9987 -10.0683  -2.5803  -2.3184  -1.6734   9.1257   9.2727

          k = 0.0348-0.7292 0.0000 (  2731 PWs)   bands (ev):

   -15.3159 -12.9869 -10.0665  -2.6079  -2.3165  -1.6458   9.1133   9.2310

          k = 0.0348-0.7272 0.0000 (  2731 PWs)   bands (ev):

   -15.3272 -12.9745 -10.0646  -2.6355  -2.3145  -1.6183   9.1001   9.1893

          k = 0.0348-0.7252 0.0000 (  2731 PWs)   bands (ev):

   -15.3391 -12.9615 -10.0625  -2.6631  -2.3123  -1.5907   9.0863   9.1476

          k = 0.0348-0.7232 0.0000 (  2731 PWs)   bands (ev):

   -15.3514 -12.9480 -10.0603  -2.6907  -2.3101  -1.5631   9.0716   9.1058

          k = 0.0348-0.7212 0.0000 (  2731 PWs)   bands (ev):

   -15.3643 -12.9339 -10.0580  -2.7184  -2.3077  -1.5356   9.0563   9.0641

          k = 0.0348-0.7192 0.0000 (  2731 PWs)   bands (ev):

   -15.3775 -12.9193 -10.0556  -2.7460  -2.3052  -1.5080   9.0225   9.0402

          k = 0.0348-0.7172 0.0000 (  2733 PWs)   bands (ev):

   -15.3913 -12.9043 -10.0531  -2.7735  -2.3026  -1.4805   8.9808   9.0234

          k = 0.0348-0.7152 0.0000 (  2733 PWs)   bands (ev):

   -15.4054 -12.8887 -10.0505  -2.8011  -2.2999  -1.4529   8.9392   9.0059

          k = 0.0348-0.7132 0.0000 (  2729 PWs)   bands (ev):

   -15.4199 -12.8727 -10.0478  -2.8287  -2.2970  -1.4254   8.8976   8.9876

          k = 0.0348-0.7112 0.0000 (  2729 PWs)   bands (ev):

   -15.4348 -12.8563 -10.0450  -2.8562  -2.2941  -1.3979   8.8561   8.9687

          k = 0.0368-0.7912 0.0000 (  2731 PWs)   bands (ev):

   -15.2805 -13.0247 -10.0778  -2.5110  -2.3128  -1.7436   9.1481   9.3795

          k = 0.0368-0.7892 0.0000 (  2729 PWs)   bands (ev):

   -15.2716 -13.0343 -10.0793  -2.4835  -2.3143  -1.7711   9.1577   9.4209

          k = 0.0368-0.7872 0.0000 (  2729 PWs)   bands (ev):

   -15.2634 -13.0433 -10.0807  -2.4560  -2.3157  -1.7986   9.1666   9.4622

          k = 0.0368-0.7852 0.0000 (  2731 PWs)   bands (ev):

   -15.2558 -13.0516 -10.0819  -2.4285  -2.3170  -1.8260   9.1747   9.5033

          k = 0.0368-0.7832 0.0000 (  2731 PWs)   bands (ev):

   -15.2488 -13.0592 -10.0831  -2.4011  -2.3181  -1.8534   9.1821   9.5441

          k = 0.0368-0.7812 0.0000 (  2731 PWs)   bands (ev):

   -15.2424 -13.0661 -10.0841  -2.3738  -2.3192  -1.8807   9.1887   9.5845

          k = 0.0368-0.7792 0.0000 (  2733 PWs)   bands (ev):

   -15.2367 -13.0723 -10.0850  -2.3465  -2.3202  -1.9079   9.1947   9.6244

          k = 0.0368-0.7772 0.0000 (  2731 PWs)   bands (ev):

   -15.2316 -13.0777 -10.0858  -2.3210  -2.3194  -1.9349   9.1999   9.6636

          k = 0.0368-0.7752 0.0000 (  2729 PWs)   bands (ev):

   -15.2273 -13.0824 -10.0865  -2.3217  -2.2926  -1.9617   9.2043   9.7018

          k = 0.0368-0.7732 0.0000 (  2729 PWs)   bands (ev):

   -15.2236 -13.0864 -10.0871  -2.3223  -2.2661  -1.9882   9.2081   9.7384

          k = 0.0368-0.7712 0.0000 (  2729 PWs)   bands (ev):

   -15.2206 -13.0897 -10.0875  -2.3228  -2.2402  -2.0141   9.2111   9.7727

          k = 0.0368-0.7692 0.0000 (  2729 PWs)   bands (ev):

   -15.2183 -13.0921 -10.0879  -2.3231  -2.2155  -2.0388   9.2134   9.8032

          k = 0.0368-0.7672 0.0000 (  2729 PWs)   bands (ev):

   -15.2167 -13.0939 -10.0882  -2.3234  -2.1931  -2.0611   9.2150   9.8277

          k = 0.0368-0.7652 0.0000 (  2727 PWs)   bands (ev):

   -15.2158 -13.0948 -10.0883  -2.3235  -2.1767  -2.0776   9.2159   9.8432

          k = 0.0368-0.7632 0.0000 (  2726 PWs)   bands (ev):

   -15.2156 -13.0950 -10.0883  -2.3235  -2.1729  -2.0814   9.2161   9.8464

          k = 0.0368-0.7612 0.0000 (  2729 PWs)   bands (ev):

   -15.2162 -13.0944 -10.0883  -2.3235  -2.1843  -2.0699   9.2155   9.8365

          k = 0.0368-0.7592 0.0000 (  2729 PWs)   bands (ev):

   -15.2175 -13.0930 -10.0881  -2.3233  -2.2046  -2.0497   9.2143   9.8159

          k = 0.0368-0.7572 0.0000 (  2729 PWs)   bands (ev):

   -15.2194 -13.0909 -10.0878  -2.3230  -2.2284  -2.0259   9.2123   9.7879

          k = 0.0368-0.7552 0.0000 (  2729 PWs)   bands (ev):

   -15.2221 -13.0880 -10.0874  -2.3225  -2.2539  -2.0004   9.2096   9.7552

          k = 0.0368-0.7532 0.0000 (  2729 PWs)   bands (ev):

   -15.2254 -13.0844 -10.0868  -2.3220  -2.2801  -1.9742   9.2062   9.7196

          k = 0.0368-0.7512 0.0000 (  2731 PWs)   bands (ev):

   -15.2295 -13.0800 -10.0862  -2.3213  -2.3068  -1.9475   9.2020   9.6821

          k = 0.0368-0.7492 0.0000 (  2731 PWs)   bands (ev):

   -15.2342 -13.0749 -10.0855  -2.3338  -2.3206  -1.9205   9.1972   9.6434

          k = 0.0368-0.7472 0.0000 (  2731 PWs)   bands (ev):

   -15.2396 -13.0690 -10.0846  -2.3610  -2.3197  -1.8934   9.1916   9.6037

          k = 0.0368-0.7452 0.0000 (  2733 PWs)   bands (ev):

   -15.2457 -13.0624 -10.0837  -2.3883  -2.3187  -1.8662   9.1853   9.5635

          k = 0.0368-0.7432 0.0000 (  2731 PWs)   bands (ev):

   -15.2524 -13.0551 -10.0826  -2.4157  -2.3175  -1.8388   9.1782   9.5229

          k = 0.0368-0.7412 0.0000 (  2731 PWs)   bands (ev):

   -15.2597 -13.0472 -10.0814  -2.4431  -2.3163  -1.8114   9.1704   9.4819

          k = 0.0368-0.7392 0.0000 (  2729 PWs)   bands (ev):

   -15.2677 -13.0385 -10.0801  -2.4706  -2.3150  -1.7840   9.1619   9.4407

          k = 0.0368-0.7372 0.0000 (  2731 PWs)   bands (ev):

   -15.2762 -13.0292 -10.0787  -2.4981  -2.3135  -1.7565   9.1527   9.3994

          k = 0.0368-0.7352 0.0000 (  2731 PWs)   bands (ev):

   -15.2854 -13.0192 -10.0772  -2.5256  -2.3119  -1.7290   9.1427   9.3579

          k = 0.0368-0.7332 0.0000 (  2733 PWs)   bands (ev):

   -15.2951 -13.0087 -10.0755  -2.5531  -2.3102  -1.7015   9.1319   9.3163

          k = 0.0368-0.7312 0.0000 (  2733 PWs)   bands (ev):

   -15.3054 -12.9975 -10.0738  -2.5807  -2.3084  -1.6740   9.1205   9.2747

          k = 0.0368-0.7292 0.0000 (  2731 PWs)   bands (ev):

   -15.3162 -12.9856 -10.0720  -2.6082  -2.3065  -1.6464   9.1082   9.2330

          k = 0.0368-0.7272 0.0000 (  2731 PWs)   bands (ev):

   -15.3275 -12.9733 -10.0700  -2.6358  -2.3045  -1.6189   9.0953   9.1913

          k = 0.0368-0.7252 0.0000 (  2731 PWs)   bands (ev):

   -15.3394 -12.9603 -10.0679  -2.6634  -2.3023  -1.5914   9.0816   9.1496

          k = 0.0368-0.7232 0.0000 (  2729 PWs)   bands (ev):

   -15.3517 -12.9468 -10.0657  -2.6910  -2.3001  -1.5638   9.0671   9.1079

          k = 0.0368-0.7212 0.0000 (  2729 PWs)   bands (ev):

   -15.3645 -12.9328 -10.0634  -2.7185  -2.2977  -1.5363   9.0520   9.0662

          k = 0.0368-0.7192 0.0000 (  2733 PWs)   bands (ev):

   -15.3778 -12.9183 -10.0610  -2.7462  -2.2952  -1.5088   9.0245   9.0361

          k = 0.0368-0.7172 0.0000 (  2733 PWs)   bands (ev):

   -15.3914 -12.9033 -10.0585  -2.7737  -2.2926  -1.4813   8.9828   9.0195

          k = 0.0368-0.7152 0.0000 (  2731 PWs)   bands (ev):

   -15.4055 -12.8878 -10.0559  -2.8013  -2.2899  -1.4537   8.9412   9.0022

          k = 0.0368-0.7132 0.0000 (  2729 PWs)   bands (ev):

   -15.4200 -12.8718 -10.0531  -2.8288  -2.2871  -1.4262   8.8997   8.9841

          k = 0.0368-0.7112 0.0000 (  2729 PWs)   bands (ev):

   -15.4349 -12.8554 -10.0503  -2.8564  -2.2841  -1.3987   8.8582   8.9654

          k = 0.0388-0.7912 0.0000 (  2731 PWs)   bands (ev):

   -15.2809 -13.0233 -10.0836  -2.5115  -2.3023  -1.7441   9.1422   9.3815

          k = 0.0388-0.7892 0.0000 (  2731 PWs)   bands (ev):

   -15.2720 -13.0329 -10.0851  -2.4840  -2.3038  -1.7716   9.1516   9.4230

          k = 0.0388-0.7872 0.0000 (  2729 PWs)   bands (ev):

   -15.2638 -13.0418 -10.0864  -2.4565  -2.3052  -1.7990   9.1604   9.4642

          k = 0.0388-0.7852 0.0000 (  2731 PWs)   bands (ev):

   -15.2562 -13.0501 -10.0877  -2.4291  -2.3064  -1.8263   9.1683   9.5053

          k = 0.0388-0.7832 0.0000 (  2733 PWs)   bands (ev):

   -15.2492 -13.0577 -10.0889  -2.4018  -2.3076  -1.8536   9.1756   9.5461

          k = 0.0388-0.7812 0.0000 (  2731 PWs)   bands (ev):

   -15.2428 -13.0645 -10.0899  -2.3745  -2.3087  -1.8809   9.1821   9.5865

          k = 0.0388-0.7792 0.0000 (  2733 PWs)   bands (ev):

   -15.2372 -13.0707 -10.0908  -2.3473  -2.3096  -1.9080   9.1880   9.6264

          k = 0.0388-0.7772 0.0000 (  2733 PWs)   bands (ev):

   -15.2321 -13.0762 -10.0916  -2.3204  -2.3104  -1.9350   9.1931   9.6656

          k = 0.0388-0.7752 0.0000 (  2729 PWs)   bands (ev):

   -15.2278 -13.0809 -10.0923  -2.3111  -2.2936  -1.9617   9.1975   9.7038

          k = 0.0388-0.7732 0.0000 (  2729 PWs)   bands (ev):

   -15.2241 -13.0849 -10.0929  -2.3117  -2.2673  -1.9880   9.2012   9.7404

          k = 0.0388-0.7712 0.0000 (  2729 PWs)   bands (ev):

   -15.2211 -13.0881 -10.0934  -2.3122  -2.2416  -2.0137   9.2041   9.7746

          k = 0.0388-0.7692 0.0000 (  2729 PWs)   bands (ev):

   -15.2188 -13.0906 -10.0938  -2.3126  -2.2171  -2.0381   9.2064   9.8051

          k = 0.0388-0.7672 0.0000 (  2728 PWs)   bands (ev):

   -15.2172 -13.0923 -10.0940  -2.3128  -2.1952  -2.0600   9.2080   9.8297

          k = 0.0388-0.7652 0.0000 (  2726 PWs)   bands (ev):

   -15.2163 -13.0932 -10.0942  -2.3130  -2.1793  -2.0759   9.2088   9.8451

          k = 0.0388-0.7632 0.0000 (  2726 PWs)   bands (ev):

   -15.2162 -13.0934 -10.0942  -2.3130  -2.1757  -2.0795   9.2090   9.8483

          k = 0.0388-0.7612 0.0000 (  2728 PWs)   bands (ev):

   -15.2167 -13.0928 -10.0941  -2.3129  -2.1867  -2.0685   9.2085   9.8384

          k = 0.0388-0.7592 0.0000 (  2729 PWs)   bands (ev):

   -15.2180 -13.0914 -10.0939  -2.3127  -2.2064  -2.0488   9.2072   9.8178

          k = 0.0388-0.7572 0.0000 (  2729 PWs)   bands (ev):

   -15.2199 -13.0893 -10.0936  -2.3124  -2.2299  -2.0253   9.2053   9.7898

          k = 0.0388-0.7552 0.0000 (  2729 PWs)   bands (ev):

   -15.2226 -13.0864 -10.0932  -2.3120  -2.2551  -2.0001   9.2026   9.7572

          k = 0.0388-0.7532 0.0000 (  2729 PWs)   bands (ev):

   -15.2259 -13.0828 -10.0927  -2.3114  -2.2812  -1.9740   9.1993   9.7216

          k = 0.0388-0.7512 0.0000 (  2733 PWs)   bands (ev):

   -15.2300 -13.0784 -10.0921  -2.3108  -2.3078  -1.9475   9.1952   9.6841

          k = 0.0388-0.7492 0.0000 (  2733 PWs)   bands (ev):

   -15.2347 -13.0733 -10.0913  -2.3347  -2.3100  -1.9206   9.1904   9.6454

          k = 0.0388-0.7472 0.0000 (  2733 PWs)   bands (ev):

   -15.2401 -13.0675 -10.0905  -2.3618  -2.3091  -1.8936   9.1849   9.6058

          k = 0.0388-0.7452 0.0000 (  2733 PWs)   bands (ev):

   -15.2461 -13.0609 -10.0895  -2.3890  -2.3081  -1.8664   9.1787   9.5656

          k = 0.0388-0.7432 0.0000 (  2733 PWs)   bands (ev):

   -15.2528 -13.0537 -10.0884  -2.4163  -2.3070  -1.8391   9.1718   9.5249

          k = 0.0388-0.7412 0.0000 (  2729 PWs)   bands (ev):

   -15.2601 -13.0457 -10.0872  -2.4437  -2.3058  -1.8118   9.1642   9.4840

          k = 0.0388-0.7392 0.0000 (  2729 PWs)   bands (ev):

   -15.2681 -13.0371 -10.0859  -2.4711  -2.3044  -1.7844   9.1558   9.4428

          k = 0.0388-0.7372 0.0000 (  2731 PWs)   bands (ev):

   -15.2766 -13.0278 -10.0845  -2.4986  -2.3030  -1.7569   9.1467   9.4014

          k = 0.0388-0.7352 0.0000 (  2731 PWs)   bands (ev):

   -15.2857 -13.0179 -10.0829  -2.5261  -2.3014  -1.7295   9.1368   9.3600

          k = 0.0388-0.7332 0.0000 (  2731 PWs)   bands (ev):

   -15.2954 -13.0073 -10.0813  -2.5536  -2.2997  -1.7020   9.1263   9.3184

          k = 0.0388-0.7312 0.0000 (  2733 PWs)   bands (ev):

   -15.3057 -12.9961 -10.0796  -2.5811  -2.2979  -1.6745   9.1150   9.2768

          k = 0.0388-0.7292 0.0000 (  2731 PWs)   bands (ev):

   -15.3165 -12.9844 -10.0777  -2.6086  -2.2960  -1.6470   9.1029   9.2351

          k = 0.0388-0.7272 0.0000 (  2731 PWs)   bands (ev):

   -15.3278 -12.9720 -10.0757  -2.6361  -2.2940  -1.6195   9.0902   9.1934

          k = 0.0388-0.7252 0.0000 (  2731 PWs)   bands (ev):

   -15.3396 -12.9591 -10.0736  -2.6637  -2.2918  -1.5920   9.0767   9.1517

          k = 0.0388-0.7232 0.0000 (  2729 PWs)   bands (ev):

   -15.3519 -12.9456 -10.0714  -2.6912  -2.2895  -1.5645   9.0624   9.1100

          k = 0.0388-0.7212 0.0000 (  2729 PWs)   bands (ev):

   -15.3647 -12.9316 -10.0691  -2.7188  -2.2872  -1.5370   9.0474   9.0683

          k = 0.0388-0.7192 0.0000 (  2733 PWs)   bands (ev):

   -15.3780 -12.9172 -10.0667  -2.7464  -2.2847  -1.5096   9.0266   9.0318

          k = 0.0388-0.7172 0.0000 (  2731 PWs)   bands (ev):

   -15.3916 -12.9022 -10.0641  -2.7739  -2.2821  -1.4821   8.9850   9.0154

          k = 0.0388-0.7152 0.0000 (  2731 PWs)   bands (ev):

   -15.4057 -12.8867 -10.0615  -2.8014  -2.2794  -1.4546   8.9434   8.9982

          k = 0.0388-0.7132 0.0000 (  2729 PWs)   bands (ev):

   -15.4202 -12.8708 -10.0587  -2.8290  -2.2766  -1.4271   8.9018   8.9804

          k = 0.0388-0.7112 0.0000 (  2731 PWs)   bands (ev):

   -15.4351 -12.8545 -10.0558  -2.8565  -2.2736  -1.3997   8.8603   8.9619

          k = 0.0408-0.7912 0.0000 (  2731 PWs)   bands (ev):

   -15.2813 -13.0218 -10.0896  -2.5120  -2.2912  -1.7446   9.1360   9.3837

          k = 0.0408-0.7892 0.0000 (  2731 PWs)   bands (ev):

   -15.2725 -13.0314 -10.0911  -2.4845  -2.2927  -1.7720   9.1453   9.4251

          k = 0.0408-0.7872 0.0000 (  2729 PWs)   bands (ev):

   -15.2642 -13.0403 -10.0925  -2.4572  -2.2941  -1.7994   9.1538   9.4664

          k = 0.0408-0.7852 0.0000 (  2731 PWs)   bands (ev):

   -15.2567 -13.0485 -10.0938  -2.4298  -2.2954  -1.8267   9.1617   9.5075

          k = 0.0408-0.7832 0.0000 (  2733 PWs)   bands (ev):

   -15.2497 -13.0561 -10.0950  -2.4025  -2.2966  -1.8539   9.1688   9.5482

          k = 0.0408-0.7812 0.0000 (  2735 PWs)   bands (ev):

   -15.2434 -13.0630 -10.0960  -2.3754  -2.2976  -1.8811   9.1752   9.5887

          k = 0.0408-0.7792 0.0000 (  2733 PWs)   bands (ev):

   -15.2377 -13.0691 -10.0969  -2.3482  -2.2986  -1.9081   9.1810   9.6286

          k = 0.0408-0.7772 0.0000 (  2733 PWs)   bands (ev):

   -15.2326 -13.0746 -10.0978  -2.3214  -2.2994  -1.9350   9.1860   9.6677

          k = 0.0408-0.7752 0.0000 (  2731 PWs)   bands (ev):

   -15.2283 -13.0792 -10.0985  -2.3001  -2.2947  -1.9616   9.1903   9.7059

          k = 0.0408-0.7732 0.0000 (  2731 PWs)   bands (ev):

   -15.2246 -13.0832 -10.0991  -2.3007  -2.2686  -1.9877   9.1939   9.7425

          k = 0.0408-0.7712 0.0000 (  2728 PWs)   bands (ev):

   -15.2216 -13.0864 -10.0995  -2.3012  -2.2431  -2.0132   9.1968   9.7767

          k = 0.0408-0.7692 0.0000 (  2728 PWs)   bands (ev):

   -15.2193 -13.0889 -10.0999  -2.3015  -2.2189  -2.0373   9.1991   9.8071

          k = 0.0408-0.7672 0.0000 (  2728 PWs)   bands (ev):

   -15.2178 -13.0906 -10.1001  -2.3018  -2.1975  -2.0587   9.2006   9.8317

          k = 0.0408-0.7652 0.0000 (  2726 PWs)   bands (ev):

   -15.2169 -13.0915 -10.1003  -2.3019  -2.1821  -2.0741   9.2014   9.8471

          k = 0.0408-0.7632 0.0000 (  2726 PWs)   bands (ev):

   -15.2167 -13.0917 -10.1003  -2.3019  -2.1787  -2.0775   9.2016   9.8503

          k = 0.0408-0.7612 0.0000 (  2728 PWs)   bands (ev):

   -15.2173 -13.0911 -10.1002  -2.3019  -2.1892  -2.0670   9.2011   9.8404

          k = 0.0408-0.7592 0.0000 (  2728 PWs)   bands (ev):

   -15.2185 -13.0898 -10.1000  -2.3017  -2.2084  -2.0478   9.1999   9.8198

          k = 0.0408-0.7572 0.0000 (  2728 PWs)   bands (ev):

   -15.2205 -13.0876 -10.0997  -2.3013  -2.2316  -2.0247   9.1980   9.7919

          k = 0.0408-0.7552 0.0000 (  2731 PWs)   bands (ev):

   -15.2231 -13.0848 -10.0994  -2.3009  -2.2565  -1.9997   9.1953   9.7592

          k = 0.0408-0.7532 0.0000 (  2731 PWs)   bands (ev):

   -15.2265 -13.0812 -10.0988  -2.3004  -2.2824  -1.9738   9.1921   9.7237

          k = 0.0408-0.7512 0.0000 (  2731 PWs)   bands (ev):

   -15.2305 -13.0768 -10.0982  -2.3089  -2.2997  -1.9474   9.1881   9.6862

          k = 0.0408-0.7492 0.0000 (  2731 PWs)   bands (ev):

   -15.2352 -13.0717 -10.0974  -2.3356  -2.2989  -1.9207   9.1834   9.6475

          k = 0.0408-0.7472 0.0000 (  2733 PWs)   bands (ev):

   -15.2406 -13.0659 -10.0966  -2.3626  -2.2981  -1.8937   9.1780   9.6079

          k = 0.0408-0.7452 0.0000 (  2733 PWs)   bands (ev):

   -15.2466 -13.0593 -10.0956  -2.3898  -2.2970  -1.8666   9.1719   9.5677

          k = 0.0408-0.7432 0.0000 (  2733 PWs)   bands (ev):

   -15.2533 -13.0521 -10.0945  -2.4170  -2.2959  -1.8394   9.1651   9.5271

          k = 0.0408-0.7412 0.0000 (  2731 PWs)   bands (ev):

   -15.2606 -13.0442 -10.0933  -2.4444  -2.2947  -1.8121   9.1576   9.4861

          k = 0.0408-0.7392 0.0000 (  2731 PWs)   bands (ev):

   -15.2685 -13.0356 -10.0920  -2.4717  -2.2934  -1.7848   9.1493   9.4450

          k = 0.0408-0.7372 0.0000 (  2731 PWs)   bands (ev):

   -15.2770 -13.0263 -10.0905  -2.4991  -2.2919  -1.7574   9.1404   9.4036

          k = 0.0408-0.7352 0.0000 (  2731 PWs)   bands (ev):

   -15.2861 -13.0164 -10.0890  -2.5266  -2.2903  -1.7300   9.1307   9.3622

          k = 0.0408-0.7332 0.0000 (  2731 PWs)   bands (ev):

   -15.2958 -13.0059 -10.0873  -2.5540  -2.2886  -1.7026   9.1203   9.3206

          k = 0.0408-0.7312 0.0000 (  2729 PWs)   bands (ev):

   -15.3061 -12.9947 -10.0856  -2.5815  -2.2868  -1.6751   9.1092   9.2790

          k = 0.0408-0.7292 0.0000 (  2729 PWs)   bands (ev):

   -15.3168 -12.9830 -10.0837  -2.6090  -2.2849  -1.6477   9.0974   9.2373

          k = 0.0408-0.7272 0.0000 (  2731 PWs)   bands (ev):

   -15.3281 -12.9707 -10.0817  -2.6365  -2.2829  -1.6202   9.0848   9.1956

          k = 0.0408-0.7252 0.0000 (  2731 PWs)   bands (ev):

   -15.3399 -12.9578 -10.0796  -2.6640  -2.2808  -1.5928   9.0715   9.1539

          k = 0.0408-0.7232 0.0000 (  2729 PWs)   bands (ev):

   -15.3522 -12.9444 -10.0774  -2.6915  -2.2785  -1.5653   9.0574   9.1122

          k = 0.0408-0.7212 0.0000 (  2731 PWs)   bands (ev):

   -15.3650 -12.9304 -10.0750  -2.7191  -2.2762  -1.5378   9.0427   9.0705

          k = 0.0408-0.7192 0.0000 (  2731 PWs)   bands (ev):

   -15.3782 -12.9160 -10.0726  -2.7466  -2.2737  -1.5104   9.0272   9.0289

          k = 0.0408-0.7172 0.0000 (  2731 PWs)   bands (ev):

   -15.3918 -12.9011 -10.0700  -2.7741  -2.2711  -1.4829   8.9872   9.0110

          k = 0.0408-0.7152 0.0000 (  2731 PWs)   bands (ev):

   -15.4059 -12.8856 -10.0674  -2.8016  -2.2684  -1.4555   8.9456   8.9941

          k = 0.0408-0.7132 0.0000 (  2731 PWs)   bands (ev):

   -15.4204 -12.8698 -10.0646  -2.8291  -2.2655  -1.4280   8.9041   8.9765

          k = 0.0408-0.7112 0.0000 (  2731 PWs)   bands (ev):

   -15.4352 -12.8535 -10.0617  -2.8566  -2.2626  -1.4006   8.8626   8.9582

          k = 0.0428-0.7912 0.0000 (  2731 PWs)   bands (ev):

   -15.2817 -13.0203 -10.0960  -2.5125  -2.2796  -1.7451   9.1295   9.3860

          k = 0.0428-0.7892 0.0000 (  2731 PWs)   bands (ev):

   -15.2729 -13.0298 -10.0975  -2.4852  -2.2811  -1.7725   9.1386   9.4274

          k = 0.0428-0.7872 0.0000 (  2733 PWs)   bands (ev):

   -15.2647 -13.0387 -10.0989  -2.4578  -2.2825  -1.7998   9.1470   9.4687

          k = 0.0428-0.7852 0.0000 (  2731 PWs)   bands (ev):

   -15.2571 -13.0469 -10.1001  -2.4305  -2.2838  -1.8270   9.1547   9.5097

          k = 0.0428-0.7832 0.0000 (  2731 PWs)   bands (ev):

   -15.2502 -13.0544 -10.1013  -2.4033  -2.2850  -1.8542   9.1617   9.5505

          k = 0.0428-0.7812 0.0000 (  2735 PWs)   bands (ev):

   -15.2439 -13.0613 -10.1024  -2.3762  -2.2860  -1.8813   9.1680   9.5909

          k = 0.0428-0.7792 0.0000 (  2733 PWs)   bands (ev):

   -15.2382 -13.0674 -10.1033  -2.3492  -2.2870  -1.9082   9.1736   9.6308

          k = 0.0428-0.7772 0.0000 (  2731 PWs)   bands (ev):

   -15.2332 -13.0728 -10.1041  -2.3224  -2.2878  -1.9349   9.1786   9.6700

          k = 0.0428-0.7752 0.0000 (  2731 PWs)   bands (ev):

   -15.2288 -13.0775 -10.1049  -2.2959  -2.2885  -1.9614   9.1828   9.7081

          k = 0.0428-0.7732 0.0000 (  2730 PWs)   bands (ev):

   -15.2252 -13.0815 -10.1055  -2.2891  -2.2699  -1.9874   9.1863   9.7446

          k = 0.0428-0.7712 0.0000 (  2730 PWs)   bands (ev):

   -15.2222 -13.0847 -10.1059  -2.2896  -2.2447  -2.0126   9.1892   9.7788

          k = 0.0428-0.7692 0.0000 (  2730 PWs)   bands (ev):

   -15.2199 -13.0871 -10.1063  -2.2899  -2.2209  -2.0364   9.1914   9.8093

          k = 0.0428-0.7672 0.0000 (  2728 PWs)   bands (ev):

   -15.2183 -13.0888 -10.1066  -2.2902  -2.1999  -2.0573   9.1929   9.8338

          k = 0.0428-0.7652 0.0000 (  2726 PWs)   bands (ev):

   -15.2175 -13.0898 -10.1067  -2.2903  -2.1851  -2.0721   9.1937   9.8492

          k = 0.0428-0.7632 0.0000 (  2726 PWs)   bands (ev):

   -15.2173 -13.0899 -10.1067  -2.2903  -2.1819  -2.0754   9.1939   9.8524

          k = 0.0428-0.7612 0.0000 (  2728 PWs)   bands (ev):

   -15.2178 -13.0893 -10.1067  -2.2902  -2.1920  -2.0653   9.1934   9.8425

          k = 0.0428-0.7592 0.0000 (  2728 PWs)   bands (ev):

   -15.2191 -13.0880 -10.1065  -2.2900  -2.2106  -2.0467   9.1922   9.8220

          k = 0.0428-0.7572 0.0000 (  2730 PWs)   bands (ev):

   -15.2210 -13.0859 -10.1062  -2.2897  -2.2334  -2.0239   9.1903   9.7940

          k = 0.0428-0.7552 0.0000 (  2730 PWs)   bands (ev):

   -15.2237 -13.0830 -10.1058  -2.2893  -2.2580  -1.9993   9.1877   9.7614

          k = 0.0428-0.7532 0.0000 (  2730 PWs)   bands (ev):

   -15.2270 -13.0794 -10.1052  -2.2888  -2.2837  -1.9736   9.1845   9.7259

          k = 0.0428-0.7512 0.0000 (  2731 PWs)   bands (ev):

   -15.2310 -13.0751 -10.1046  -2.3100  -2.2881  -1.9473   9.1806   9.6884

          k = 0.0428-0.7492 0.0000 (  2733 PWs)   bands (ev):

   -15.2357 -13.0700 -10.1038  -2.3367  -2.2873  -1.9207   9.1760   9.6497

          k = 0.0428-0.7472 0.0000 (  2735 PWs)   bands (ev):

   -15.2411 -13.0642 -10.1029  -2.3636  -2.2865  -1.8939   9.1707   9.6101

          k = 0.0428-0.7452 0.0000 (  2733 PWs)   bands (ev):

   -15.2471 -13.0577 -10.1020  -2.3907  -2.2854  -1.8668   9.1647   9.5700

          k = 0.0428-0.7432 0.0000 (  2731 PWs)   bands (ev):

   -15.2538 -13.0505 -10.1009  -2.4178  -2.2843  -1.8397   9.1581   9.5293

          k = 0.0428-0.7412 0.0000 (  2733 PWs)   bands (ev):

   -15.2611 -13.0426 -10.0996  -2.4451  -2.2831  -1.8125   9.1507   9.4884

          k = 0.0428-0.7392 0.0000 (  2733 PWs)   bands (ev):

   -15.2690 -13.0340 -10.0983  -2.4724  -2.2818  -1.7852   9.1426   9.4473

          k = 0.0428-0.7372 0.0000 (  2731 PWs)   bands (ev):

   -15.2775 -13.0247 -10.0969  -2.4997  -2.2803  -1.7579   9.1338   9.4059

          k = 0.0428-0.7352 0.0000 (  2731 PWs)   bands (ev):

   -15.2866 -13.0149 -10.0953  -2.5271  -2.2787  -1.7305   9.1243   9.3645

          k = 0.0428-0.7332 0.0000 (  2731 PWs)   bands (ev):

   -15.2962 -13.0044 -10.0936  -2.5545  -2.2771  -1.7031   9.1141   9.3229

          k = 0.0428-0.7312 0.0000 (  2729 PWs)   bands (ev):

   -15.3064 -12.9933 -10.0919  -2.5820  -2.2753  -1.6757   9.1032   9.2813

          k = 0.0428-0.7292 0.0000 (  2729 PWs)   bands (ev):

   -15.3172 -12.9816 -10.0900  -2.6094  -2.2733  -1.6483   9.0915   9.2396

          k = 0.0428-0.7272 0.0000 (  2729 PWs)   bands (ev):

   -15.3285 -12.9693 -10.0880  -2.6369  -2.2713  -1.6209   9.0791   9.1979

          k = 0.0428-0.7252 0.0000 (  2727 PWs)   bands (ev):

   -15.3402 -12.9564 -10.0858  -2.6644  -2.2692  -1.5935   9.0660   9.1562

          k = 0.0428-0.7232 0.0000 (  2729 PWs)   bands (ev):

   -15.3525 -12.9431 -10.0836  -2.6919  -2.2669  -1.5661   9.0522   9.1146

          k = 0.0428-0.7212 0.0000 (  2729 PWs)   bands (ev):

   -15.3652 -12.9292 -10.0812  -2.7193  -2.2646  -1.5386   9.0377   9.0729

          k = 0.0428-0.7192 0.0000 (  2729 PWs)   bands (ev):

   -15.3784 -12.9148 -10.0788  -2.7468  -2.2621  -1.5112   9.0224   9.0312

          k = 0.0428-0.7172 0.0000 (  2733 PWs)   bands (ev):

   -15.3920 -12.8999 -10.0762  -2.7744  -2.2595  -1.4838   8.9896   9.0065

          k = 0.0428-0.7152 0.0000 (  2733 PWs)   bands (ev):

   -15.4061 -12.8845 -10.0735  -2.8018  -2.2568  -1.4564   8.9480   8.9898

          k = 0.0428-0.7132 0.0000 (  2731 PWs)   bands (ev):

   -15.4205 -12.8687 -10.0707  -2.8293  -2.2540  -1.4290   8.9065   8.9724

          k = 0.0428-0.7112 0.0000 (  2731 PWs)   bands (ev):

   -15.4353 -12.8524 -10.0678  -2.8568  -2.2511  -1.4016   8.8650   8.9543

          k = 0.0448-0.7912 0.0000 (  2731 PWs)   bands (ev):

   -15.2821 -13.0187 -10.1026  -2.5132  -2.2675  -1.7456   9.1227   9.3884

          k = 0.0448-0.7892 0.0000 (  2733 PWs)   bands (ev):

   -15.2734 -13.0282 -10.1041  -2.4858  -2.2690  -1.7729   9.1317   9.4298

          k = 0.0448-0.7872 0.0000 (  2733 PWs)   bands (ev):

   -15.2652 -13.0370 -10.1055  -2.4586  -2.2704  -1.8002   9.1399   9.4711

          k = 0.0448-0.7852 0.0000 (  2733 PWs)   bands (ev):

   -15.2576 -13.0452 -10.1068  -2.4313  -2.2717  -1.8273   9.1475   9.5121

          k = 0.0448-0.7832 0.0000 (  2731 PWs)   bands (ev):

   -15.2507 -13.0527 -10.1079  -2.4042  -2.2728  -1.8544   9.1543   9.5529

          k = 0.0448-0.7812 0.0000 (  2735 PWs)   bands (ev):

   -15.2444 -13.0596 -10.1090  -2.3772  -2.2739  -1.8814   9.1605   9.5933

          k = 0.0448-0.7792 0.0000 (  2733 PWs)   bands (ev):

   -15.2387 -13.0657 -10.1100  -2.3502  -2.2748  -1.9083   9.1660   9.6331

          k = 0.0448-0.7772 0.0000 (  2730 PWs)   bands (ev):

   -15.2337 -13.0710 -10.1108  -2.3236  -2.2756  -1.9349   9.1708   9.6723

          k = 0.0448-0.7752 0.0000 (  2730 PWs)   bands (ev):

   -15.2294 -13.0757 -10.1115  -2.2973  -2.2763  -1.9612   9.1750   9.7104

          k = 0.0448-0.7732 0.0000 (  2730 PWs)   bands (ev):

   -15.2258 -13.0797 -10.1121  -2.2769  -2.2714  -1.9870   9.1784   9.7469

          k = 0.0448-0.7712 0.0000 (  2730 PWs)   bands (ev):

   -15.2228 -13.0828 -10.1126  -2.2774  -2.2465  -2.0119   9.1812   9.7811

          k = 0.0448-0.7692 0.0000 (  2730 PWs)   bands (ev):

   -15.2205 -13.0853 -10.1130  -2.2778  -2.2230  -2.0354   9.1834   9.8115

          k = 0.0448-0.7672 0.0000 (  2730 PWs)   bands (ev):

   -15.2190 -13.0870 -10.1133  -2.2780  -2.2026  -2.0558   9.1849   9.8360

          k = 0.0448-0.7652 0.0000 (  2728 PWs)   bands (ev):

   -15.2181 -13.0879 -10.1134  -2.2782  -2.1883  -2.0701   9.1857   9.8514

          k = 0.0448-0.7632 0.0000 (  2726 PWs)   bands (ev):

   -15.2179 -13.0881 -10.1134  -2.2782  -2.1852  -2.0732   9.1858   9.8546

          k = 0.0448-0.7612 0.0000 (  2730 PWs)   bands (ev):

   -15.2185 -13.0875 -10.1134  -2.2781  -2.1948  -2.0635   9.1853   9.8447

          k = 0.0448-0.7592 0.0000 (  2730 PWs)   bands (ev):

   -15.2197 -13.0862 -10.1132  -2.2779  -2.2130  -2.0454   9.1841   9.8242

          k = 0.0448-0.7572 0.0000 (  2730 PWs)   bands (ev):

   -15.2216 -13.0841 -10.1129  -2.2776  -2.2353  -2.0231   9.1823   9.7963

          k = 0.0448-0.7552 0.0000 (  2730 PWs)   bands (ev):

   -15.2243 -13.0812 -10.1124  -2.2772  -2.2596  -1.9988   9.1798   9.7637

          k = 0.0448-0.7532 0.0000 (  2730 PWs)   bands (ev):

   -15.2276 -13.0776 -10.1119  -2.2851  -2.2766  -1.9733   9.1767   9.7282

          k = 0.0448-0.7512 0.0000 (  2730 PWs)   bands (ev):

   -15.2316 -13.0733 -10.1112  -2.3112  -2.2760  -1.9472   9.1728   9.6907

          k = 0.0448-0.7492 0.0000 (  2731 PWs)   bands (ev):

   -15.2363 -13.0682 -10.1105  -2.3378  -2.2752  -1.9207   9.1683   9.6520

          k = 0.0448-0.7472 0.0000 (  2735 PWs)   bands (ev):

   -15.2417 -13.0624 -10.1096  -2.3646  -2.2743  -1.8940   9.1631   9.6125

          k = 0.0448-0.7452 0.0000 (  2733 PWs)   bands (ev):

   -15.2477 -13.0559 -10.1086  -2.3916  -2.2733  -1.8670   9.1573   9.5723

          k = 0.0448-0.7432 0.0000 (  2731 PWs)   bands (ev):

   -15.2543 -13.0487 -10.1075  -2.4186  -2.2722  -1.8400   9.1507   9.5317

          k = 0.0448-0.7412 0.0000 (  2733 PWs)   bands (ev):

   -15.2616 -13.0409 -10.1063  -2.4458  -2.2710  -1.8128   9.1435   9.4908

          k = 0.0448-0.7392 0.0000 (  2733 PWs)   bands (ev):

   -15.2695 -13.0323 -10.1049  -2.4731  -2.2696  -1.7856   9.1356   9.4496

          k = 0.0448-0.7372 0.0000 (  2733 PWs)   bands (ev):

   -15.2779 -13.0231 -10.1035  -2.5004  -2.2682  -1.7583   9.1269   9.4083

          k = 0.0448-0.7352 0.0000 (  2731 PWs)   bands (ev):

   -15.2870 -13.0133 -10.1019  -2.5277  -2.2666  -1.7310   9.1176   9.3669

          k = 0.0448-0.7332 0.0000 (  2731 PWs)   bands (ev):

   -15.2966 -13.0028 -10.1002  -2.5551  -2.2649  -1.7037   9.1076   9.3253

          k = 0.0448-0.7312 0.0000 (  2729 PWs)   bands (ev):

   -15.3068 -12.9917 -10.0984  -2.5825  -2.2631  -1.6764   9.0968   9.2837

          k = 0.0448-0.7292 0.0000 (  2729 PWs)   bands (ev):

   -15.3176 -12.9801 -10.0965  -2.6099  -2.2612  -1.6490   9.0854   9.2421

          k = 0.0448-0.7272 0.0000 (  2729 PWs)   bands (ev):

   -15.3288 -12.9678 -10.0945  -2.6373  -2.2592  -1.6216   9.0732   9.2004

          k = 0.0448-0.7252 0.0000 (  2727 PWs)   bands (ev):

   -15.3405 -12.9550 -10.0923  -2.6648  -2.2571  -1.5942   9.0603   9.1587

          k = 0.0448-0.7232 0.0000 (  2725 PWs)   bands (ev):

   -15.3528 -12.9417 -10.0901  -2.6922  -2.2548  -1.5669   9.0467   9.1170

          k = 0.0448-0.7212 0.0000 (  2731 PWs)   bands (ev):

   -15.3655 -12.9278 -10.0877  -2.7197  -2.2525  -1.5395   9.0324   9.0753

          k = 0.0448-0.7192 0.0000 (  2731 PWs)   bands (ev):

   -15.3787 -12.9135 -10.0852  -2.7471  -2.2500  -1.5121   9.0174   9.0337

          k = 0.0448-0.7172 0.0000 (  2733 PWs)   bands (ev):

   -15.3923 -12.8986 -10.0826  -2.7746  -2.2474  -1.4847   8.9921   9.0017

          k = 0.0448-0.7152 0.0000 (  2733 PWs)   bands (ev):

   -15.4063 -12.8833 -10.0799  -2.8021  -2.2447  -1.4574   8.9505   8.9852

          k = 0.0448-0.7132 0.0000 (  2733 PWs)   bands (ev):

   -15.4207 -12.8675 -10.0771  -2.8295  -2.2419  -1.4300   8.9089   8.9681

          k = 0.0448-0.7112 0.0000 (  2731 PWs)   bands (ev):

   -15.4355 -12.8513 -10.0741  -2.8569  -2.2390  -1.4026   8.8675   8.9503

          k = 0.0468-0.7912 0.0000 (  2733 PWs)   bands (ev):

   -15.2826 -13.0170 -10.1094  -2.5138  -2.2549  -1.7462   9.1156   9.3909

          k = 0.0468-0.7892 0.0000 (  2733 PWs)   bands (ev):

   -15.2739 -13.0265 -10.1110  -2.4865  -2.2564  -1.7734   9.1244   9.4323

          k = 0.0468-0.7872 0.0000 (  2733 PWs)   bands (ev):

   -15.2657 -13.0353 -10.1124  -2.4593  -2.2577  -1.8005   9.1325   9.4736

          k = 0.0468-0.7852 0.0000 (  2733 PWs)   bands (ev):

   -15.2582 -13.0434 -10.1137  -2.4322  -2.2590  -1.8276   9.1399   9.5146

          k = 0.0468-0.7832 0.0000 (  2733 PWs)   bands (ev):

   -15.2513 -13.0509 -10.1149  -2.4051  -2.2602  -1.8547   9.1466   9.5553

          k = 0.0468-0.7812 0.0000 (  2732 PWs)   bands (ev):

   -15.2450 -13.0577 -10.1159  -2.3782  -2.2613  -1.8816   9.1527   9.5957

          k = 0.0468-0.7792 0.0000 (  2734 PWs)   bands (ev):

   -15.2393 -13.0638 -10.1169  -2.3514  -2.2622  -1.9083   9.1581   9.6356

          k = 0.0468-0.7772 0.0000 (  2730 PWs)   bands (ev):

   -15.2343 -13.0692 -10.1177  -2.3248  -2.2630  -1.9348   9.1628   9.6747

          k = 0.0468-0.7752 0.0000 (  2730 PWs)   bands (ev):

   -15.2300 -13.0738 -10.1185  -2.2987  -2.2637  -1.9609   9.1668   9.7128

          k = 0.0468-0.7732 0.0000 (  2730 PWs)   bands (ev):

   -15.2264 -13.0777 -10.1191  -2.2730  -2.2643  -1.9865   9.1702   9.7493

          k = 0.0468-0.7712 0.0000 (  2730 PWs)   bands (ev):

   -15.2234 -13.0809 -10.1196  -2.2648  -2.2483  -2.0112   9.1730   9.7835

          k = 0.0468-0.7692 0.0000 (  2730 PWs)   bands (ev):

   -15.2212 -13.0834 -10.1199  -2.2651  -2.2253  -2.0343   9.1751   9.8139

          k = 0.0468-0.7672 0.0000 (  2730 PWs)   bands (ev):

   -15.2196 -13.0850 -10.1202  -2.2654  -2.2053  -2.0542   9.1765   9.8383

          k = 0.0468-0.7652 0.0000 (  2730 PWs)   bands (ev):

   -15.2187 -13.0860 -10.1204  -2.2655  -2.1916  -2.0679   9.1773   9.8537

          k = 0.0468-0.7632 0.0000 (  2730 PWs)   bands (ev):

   -15.2186 -13.0861 -10.1204  -2.2655  -2.1887  -2.0709   9.1775   9.8569

          k = 0.0468-0.7612 0.0000 (  2730 PWs)   bands (ev):

   -15.2191 -13.0856 -10.1203  -2.2655  -2.1979  -2.0616   9.1770   9.8471

          k = 0.0468-0.7592 0.0000 (  2730 PWs)   bands (ev):

   -15.2203 -13.0842 -10.1201  -2.2653  -2.2154  -2.0441   9.1758   9.8265

          k = 0.0468-0.7572 0.0000 (  2730 PWs)   bands (ev):

   -15.2223 -13.0821 -10.1198  -2.2649  -2.2373  -2.0222   9.1740   9.7986

          k = 0.0468-0.7552 0.0000 (  2730 PWs)   bands (ev):

   -15.2249 -13.0793 -10.1194  -2.2645  -2.2614  -1.9982   9.1716   9.7661

          k = 0.0468-0.7532 0.0000 (  2730 PWs)   bands (ev):

   -15.2282 -13.0757 -10.1188  -2.2866  -2.2640  -1.9729   9.1685   9.7306

          k = 0.0468-0.7512 0.0000 (  2730 PWs)   bands (ev):

   -15.2322 -13.0714 -10.1182  -2.3126  -2.2633  -1.9470   9.1647   9.6931

          k = 0.0468-0.7492 0.0000 (  2730 PWs)   bands (ev):

   -15.2369 -13.0663 -10.1174  -2.3390  -2.2626  -1.9207   9.1603   9.6545

          k = 0.0468-0.7472 0.0000 (  2734 PWs)   bands (ev):

   -15.2422 -13.0606 -10.1165  -2.3657  -2.2617  -1.8940   9.1553   9.6149

          k = 0.0468-0.7452 0.0000 (  2733 PWs)   bands (ev):

   -15.2482 -13.0541 -10.1155  -2.3925  -2.2607  -1.8672   9.1495   9.5748

          k = 0.0468-0.7432 0.0000 (  2733 PWs)   bands (ev):

   -15.2548 -13.0469 -10.1144  -2.4196  -2.2596  -1.8402   9.1431   9.5342

          k = 0.0468-0.7412 0.0000 (  2733 PWs)   bands (ev):

   -15.2621 -13.0391 -10.1132  -2.4467  -2.2583  -1.8131   9.1360   9.4933

          k = 0.0468-0.7392 0.0000 (  2731 PWs)   bands (ev):

   -15.2700 -13.0306 -10.1118  -2.4738  -2.2570  -1.7860   9.1283   9.4521

          k = 0.0468-0.7372 0.0000 (  2733 PWs)   bands (ev):

   -15.2784 -13.0214 -10.1104  -2.5011  -2.2556  -1.7588   9.1198   9.4108

          k = 0.0468-0.7352 0.0000 (  2733 PWs)   bands (ev):

   -15.2875 -13.0116 -10.1088  -2.5284  -2.2540  -1.7316   9.1106   9.3694

          k = 0.0468-0.7332 0.0000 (  2731 PWs)   bands (ev):

   -15.2971 -13.0012 -10.1071  -2.5557  -2.2523  -1.7043   9.1008   9.3278

          k = 0.0468-0.7312 0.0000 (  2729 PWs)   bands (ev):

   -15.3073 -12.9901 -10.1053  -2.5830  -2.2505  -1.6770   9.0903   9.2862

          k = 0.0468-0.7292 0.0000 (  2729 PWs)   bands (ev):

   -15.3180 -12.9785 -10.1033  -2.6104  -2.2486  -1.6497   9.0790   9.2446

          k = 0.0468-0.7272 0.0000 (  2727 PWs)   bands (ev):

   -15.3292 -12.9663 -10.1013  -2.6378  -2.2466  -1.6223   9.0671   9.2029

          k = 0.0468-0.7252 0.0000 (  2725 PWs)   bands (ev):

   -15.3409 -12.9535 -10.0991  -2.6652  -2.2444  -1.5950   9.0544   9.1613

          k = 0.0468-0.7232 0.0000 (  2729 PWs)   bands (ev):

   -15.3531 -12.9403 -10.0968  -2.6926  -2.2422  -1.5677   9.0410   9.1196

          k = 0.0468-0.7212 0.0000 (  2729 PWs)   bands (ev):

   -15.3658 -12.9265 -10.0945  -2.7200  -2.2398  -1.5403   9.0269   9.0779

          k = 0.0468-0.7192 0.0000 (  2729 PWs)   bands (ev):

   -15.3789 -12.9121 -10.0919  -2.7474  -2.2374  -1.5130   9.0121   9.0363

          k = 0.0468-0.7172 0.0000 (  2733 PWs)   bands (ev):

   -15.3925 -12.8973 -10.0893  -2.7749  -2.2348  -1.4857   8.9946   8.9967

          k = 0.0468-0.7152 0.0000 (  2733 PWs)   bands (ev):

   -15.4065 -12.8821 -10.0866  -2.8023  -2.2321  -1.4583   8.9531   8.9805

          k = 0.0468-0.7132 0.0000 (  2733 PWs)   bands (ev):

   -15.4209 -12.8664 -10.0837  -2.8297  -2.2293  -1.4310   8.9116   8.9636

          k = 0.0468-0.7112 0.0000 (  2731 PWs)   bands (ev):

   -15.4356 -12.8502 -10.0808  -2.8571  -2.2264  -1.4037   8.8701   8.9460

          k = 0.0488-0.7912 0.0000 (  2731 PWs)   bands (ev):

   -15.2831 -13.0153 -10.1165  -2.5145  -2.2417  -1.7467   9.1083   9.3936

          k = 0.0488-0.7892 0.0000 (  2733 PWs)   bands (ev):

   -15.2744 -13.0247 -10.1181  -2.4873  -2.2432  -1.7738   9.1169   9.4349

          k = 0.0488-0.7872 0.0000 (  2733 PWs)   bands (ev):

   -15.2663 -13.0335 -10.1195  -2.4602  -2.2446  -1.8009   9.1248   9.4762

          k = 0.0488-0.7852 0.0000 (  2733 PWs)   bands (ev):

   -15.2588 -13.0416 -10.1208  -2.4331  -2.2459  -1.8279   9.1321   9.5172

          k = 0.0488-0.7832 0.0000 (  2734 PWs)   bands (ev):

   -15.2519 -13.0491 -10.1220  -2.4061  -2.2470  -1.8549   9.1387   9.5579

          k = 0.0488-0.7812 0.0000 (  2732 PWs)   bands (ev):

   -15.2456 -13.0558 -10.1231  -2.3793  -2.2481  -1.8817   9.1446   9.5983

          k = 0.0488-0.7792 0.0000 (  2730 PWs)   bands (ev):

   -15.2399 -13.0619 -10.1241  -2.3526  -2.2490  -1.9083   9.1498   9.6381

          k = 0.0488-0.7772 0.0000 (  2730 PWs)   bands (ev):

   -15.2350 -13.0672 -10.1249  -2.3262  -2.2498  -1.9346   9.1545   9.6772

          k = 0.0488-0.7752 0.0000 (  2730 PWs)   bands (ev):

   -15.2307 -13.0719 -10.1257  -2.3002  -2.2505  -1.9606   9.1584   9.7153

          k = 0.0488-0.7732 0.0000 (  2730 PWs)   bands (ev):

   -15.2270 -13.0758 -10.1263  -2.2748  -2.2511  -1.9860   9.1617   9.7518

          k = 0.0488-0.7712 0.0000 (  2730 PWs)   bands (ev):

   -15.2241 -13.0789 -10.1268  -2.2516  -2.2504  -2.0104   9.1644   9.7859

          k = 0.0488-0.7692 0.0000 (  2732 PWs)   bands (ev):

   -15.2218 -13.0814 -10.1272  -2.2520  -2.2277  -2.0331   9.1665   9.8163

          k = 0.0488-0.7672 0.0000 (  2732 PWs)   bands (ev):

   -15.2203 -13.0830 -10.1275  -2.2522  -2.2083  -2.0525   9.1679   9.8407

          k = 0.0488-0.7652 0.0000 (  2730 PWs)   bands (ev):

   -15.2194 -13.0839 -10.1276  -2.2523  -2.1951  -2.0656   9.1686   9.8561

          k = 0.0488-0.7632 0.0000 (  2730 PWs)   bands (ev):

   -15.2192 -13.0841 -10.1276  -2.2524  -2.1923  -2.0684   9.1688   9.8593

          k = 0.0488-0.7612 0.0000 (  2732 PWs)   bands (ev):

   -15.2198 -13.0835 -10.1276  -2.2523  -2.2011  -2.0596   9.1683   9.8495

          k = 0.0488-0.7592 0.0000 (  2732 PWs)   bands (ev):

   -15.2210 -13.0822 -10.1274  -2.2521  -2.2181  -2.0426   9.1672   9.8290

          k = 0.0488-0.7572 0.0000 (  2730 PWs)   bands (ev):

   -15.2229 -13.0801 -10.1270  -2.2518  -2.2395  -2.0212   9.1654   9.8011

          k = 0.0488-0.7552 0.0000 (  2730 PWs)   bands (ev):

   -15.2256 -13.0773 -10.1266  -2.2633  -2.2513  -1.9975   9.1631   9.7686

          k = 0.0488-0.7532 0.0000 (  2730 PWs)   bands (ev):

   -15.2289 -13.0737 -10.1261  -2.2883  -2.2508  -1.9725   9.1600   9.7331

          k = 0.0488-0.7512 0.0000 (  2730 PWs)   bands (ev):

   -15.2329 -13.0694 -10.1254  -2.3140  -2.2502  -1.9468   9.1564   9.6957

          k = 0.0488-0.7492 0.0000 (  2730 PWs)   bands (ev):

   -15.2375 -13.0644 -10.1246  -2.3402  -2.2494  -1.9206   9.1520   9.6570

          k = 0.0488-0.7472 0.0000 (  2732 PWs)   bands (ev):

   -15.2429 -13.0587 -10.1237  -2.3668  -2.2485  -1.8941   9.1471   9.6175

          k = 0.0488-0.7452 0.0000 (  2734 PWs)   bands (ev):

   -15.2488 -13.0522 -10.1227  -2.3936  -2.2475  -1.8673   9.1415   9.5774

          k = 0.0488-0.7432 0.0000 (  2732 PWs)   bands (ev):

   -15.2554 -13.0451 -10.1216  -2.4205  -2.2464  -1.8405   9.1352   9.5368

          k = 0.0488-0.7412 0.0000 (  2733 PWs)   bands (ev):

   -15.2627 -13.0372 -10.1203  -2.4476  -2.2452  -1.8135   9.1283   9.4959

          k = 0.0488-0.7392 0.0000 (  2733 PWs)   bands (ev):

   -15.2705 -13.0288 -10.1190  -2.4747  -2.2438  -1.7864   9.1206   9.4547

          k = 0.0488-0.7372 0.0000 (  2733 PWs)   bands (ev):

   -15.2789 -13.0196 -10.1175  -2.5018  -2.2424  -1.7593   9.1124   9.4134

          k = 0.0488-0.7352 0.0000 (  2733 PWs)   bands (ev):

   -15.2880 -13.0099 -10.1159  -2.5291  -2.2408  -1.7321   9.1034   9.3720

          k = 0.0488-0.7332 0.0000 (  2733 PWs)   bands (ev):

   -15.2976 -12.9995 -10.1142  -2.5563  -2.2392  -1.7049   9.0937   9.3305

          k = 0.0488-0.7312 0.0000 (  2729 PWs)   bands (ev):

   -15.3077 -12.9885 -10.1123  -2.5836  -2.2374  -1.6776   9.0834   9.2889

          k = 0.0488-0.7292 0.0000 (  2729 PWs)   bands (ev):

   -15.3184 -12.9769 -10.1104  -2.6110  -2.2355  -1.6504   9.0724   9.2473

          k = 0.0488-0.7272 0.0000 (  2727 PWs)   bands (ev):

   -15.3296 -12.9647 -10.1083  -2.6383  -2.2334  -1.6231   9.0606   9.2056

          k = 0.0488-0.7252 0.0000 (  2727 PWs)   bands (ev):

   -15.3413 -12.9520 -10.1062  -2.6657  -2.2313  -1.5958   9.0482   9.1639

          k = 0.0488-0.7232 0.0000 (  2729 PWs)   bands (ev):

   -15.3535 -12.9388 -10.1039  -2.6930  -2.2291  -1.5685   9.0351   9.1223

          k = 0.0488-0.7212 0.0000 (  2729 PWs)   bands (ev):

   -15.3661 -12.9250 -10.1014  -2.7204  -2.2267  -1.5412   9.0212   9.0806

          k = 0.0488-0.7192 0.0000 (  2729 PWs)   bands (ev):

   -15.3792 -12.9107 -10.0989  -2.7478  -2.2242  -1.5139   9.0067   9.0390

          k = 0.0488-0.7172 0.0000 (  2729 PWs)   bands (ev):

   -15.3927 -12.8960 -10.0963  -2.7752  -2.2217  -1.4866   8.9914   8.9974

          k = 0.0488-0.7152 0.0000 (  2731 PWs)   bands (ev):

   -15.4067 -12.8808 -10.0935  -2.8026  -2.2190  -1.4593   8.9558   8.9755

          k = 0.0488-0.7132 0.0000 (  2733 PWs)   bands (ev):

   -15.4211 -12.8651 -10.0906  -2.8300  -2.2162  -1.4321   8.9143   8.9588

          k = 0.0488-0.7112 0.0000 (  2731 PWs)   bands (ev):

   -15.4358 -12.8490 -10.0876  -2.8573  -2.2133  -1.4048   8.8728   8.9415

          k = 0.0508-0.7912 0.0000 (  2733 PWs)   bands (ev):

   -15.2837 -13.0134 -10.1239  -2.5153  -2.2280  -1.7472   9.1007   9.3963

          k = 0.0508-0.7892 0.0000 (  2733 PWs)   bands (ev):

   -15.2750 -13.0228 -10.1255  -2.4882  -2.2295  -1.7742   9.1091   9.4377

          k = 0.0508-0.7872 0.0000 (  2732 PWs)   bands (ev):

   -15.2669 -13.0316 -10.1269  -2.4611  -2.2309  -1.8013   9.1169   9.4789

          k = 0.0508-0.7852 0.0000 (  2732 PWs)   bands (ev):

   -15.2593 -13.0397 -10.1282  -2.4341  -2.2322  -1.8282   9.1240   9.5199

          k = 0.0508-0.7832 0.0000 (  2734 PWs)   bands (ev):

   -15.2525 -13.0471 -10.1295  -2.4072  -2.2334  -1.8550   9.1304   9.5606

          k = 0.0508-0.7812 0.0000 (  2734 PWs)   bands (ev):

   -15.2462 -13.0538 -10.1306  -2.3805  -2.2344  -1.8817   9.1362   9.6009

          k = 0.0508-0.7792 0.0000 (  2730 PWs)   bands (ev):

   -15.2406 -13.0599 -10.1315  -2.3539  -2.2353  -1.9082   9.1413   9.6408

          k = 0.0508-0.7772 0.0000 (  2730 PWs)   bands (ev):

   -15.2356 -13.0652 -10.1324  -2.3276  -2.2361  -1.9344   9.1458   9.6799

          k = 0.0508-0.7752 0.0000 (  2730 PWs)   bands (ev):

   -15.2313 -13.0698 -10.1331  -2.3018  -2.2368  -1.9602   9.1497   9.7179

          k = 0.0508-0.7732 0.0000 (  2730 PWs)   bands (ev):

   -15.2277 -13.0737 -10.1338  -2.2767  -2.2374  -1.9853   9.1529   9.7544

          k = 0.0508-0.7712 0.0000 (  2732 PWs)   bands (ev):

   -15.2248 -13.0768 -10.1343  -2.2526  -2.2379  -2.0094   9.1556   9.7885

          k = 0.0508-0.7692 0.0000 (  2732 PWs)   bands (ev):

   -15.2225 -13.0793 -10.1347  -2.2383  -2.2303  -2.0317   9.1576   9.8188

          k = 0.0508-0.7672 0.0000 (  2732 PWs)   bands (ev):

   -15.2210 -13.0809 -10.1349  -2.2385  -2.2114  -2.0506   9.1589   9.8433

          k = 0.0508-0.7652 0.0000 (  2730 PWs)   bands (ev):

   -15.2201 -13.0818 -10.1351  -2.2387  -2.1987  -2.0633   9.1597   9.8586

          k = 0.0508-0.7632 0.0000 (  2730 PWs)   bands (ev):

   -15.2199 -13.0820 -10.1351  -2.2387  -2.1960  -2.0659   9.1598   9.8617

          k = 0.0508-0.7612 0.0000 (  2732 PWs)   bands (ev):

   -15.2205 -13.0814 -10.1351  -2.2386  -2.2045  -2.0575   9.1594   9.8520

          k = 0.0508-0.7592 0.0000 (  2732 PWs)   bands (ev):

   -15.2217 -13.0801 -10.1349  -2.2384  -2.2209  -2.0410   9.1583   9.8315

          k = 0.0508-0.7572 0.0000 (  2732 PWs)   bands (ev):

   -15.2236 -13.0780 -10.1345  -2.2419  -2.2381  -2.0201   9.1565   9.8037

          k = 0.0508-0.7552 0.0000 (  2732 PWs)   bands (ev):

   -15.2263 -13.0752 -10.1341  -2.2653  -2.2377  -1.9967   9.1542   9.7711

          k = 0.0508-0.7532 0.0000 (  2730 PWs)   bands (ev):

   -15.2295 -13.0717 -10.1335  -2.2900  -2.2371  -1.9720   9.1513   9.7357

          k = 0.0508-0.7512 0.0000 (  2730 PWs)   bands (ev):

   -15.2335 -13.0674 -10.1329  -2.3156  -2.2365  -1.9465   9.1477   9.6983

          k = 0.0508-0.7492 0.0000 (  2730 PWs)   bands (ev):

   -15.2382 -13.0624 -10.1321  -2.3417  -2.2357  -1.9204   9.1435   9.6597

          k = 0.0508-0.7472 0.0000 (  2730 PWs)   bands (ev):

   -15.2435 -13.0566 -10.1312  -2.3681  -2.2348  -1.8941   9.1386   9.6202

          k = 0.0508-0.7452 0.0000 (  2734 PWs)   bands (ev):

   -15.2495 -13.0502 -10.1301  -2.3948  -2.2338  -1.8674   9.1331   9.5800

          k = 0.0508-0.7432 0.0000 (  2734 PWs)   bands (ev):

   -15.2560 -13.0431 -10.1290  -2.4216  -2.2327  -1.8407   9.1270   9.5395

          k = 0.0508-0.7412 0.0000 (  2732 PWs)   bands (ev):

   -15.2632 -13.0353 -10.1277  -2.4485  -2.2315  -1.8138   9.1202   9.4986

          k = 0.0508-0.7392 0.0000 (  2733 PWs)   bands (ev):

   -15.2711 -13.0269 -10.1264  -2.4755  -2.2302  -1.7868   9.1128   9.4575

          k = 0.0508-0.7372 0.0000 (  2733 PWs)   bands (ev):

   -15.2795 -13.0178 -10.1249  -2.5027  -2.2287  -1.7597   9.1047   9.4162

          k = 0.0508-0.7352 0.0000 (  2733 PWs)   bands (ev):

   -15.2885 -13.0080 -10.1233  -2.5298  -2.2272  -1.7326   9.0959   9.3747

          k = 0.0508-0.7332 0.0000 (  2729 PWs)   bands (ev):

   -15.2981 -12.9977 -10.1215  -2.5570  -2.2255  -1.7054   9.0864   9.3332

          k = 0.0508-0.7312 0.0000 (  2733 PWs)   bands (ev):

   -15.3082 -12.9867 -10.1197  -2.5843  -2.2237  -1.6783   9.0763   9.2916

          k = 0.0508-0.7292 0.0000 (  2729 PWs)   bands (ev):

   -15.3188 -12.9752 -10.1177  -2.6116  -2.2218  -1.6511   9.0655   9.2500

          k = 0.0508-0.7272 0.0000 (  2727 PWs)   bands (ev):

   -15.3300 -12.9631 -10.1156  -2.6388  -2.2198  -1.6238   9.0540   9.2084

          k = 0.0508-0.7252 0.0000 (  2727 PWs)   bands (ev):

   -15.3417 -12.9504 -10.1134  -2.6662  -2.2176  -1.5966   9.0418   9.1667

          k = 0.0508-0.7232 0.0000 (  2729 PWs)   bands (ev):

   -15.3538 -12.9372 -10.1111  -2.6935  -2.2154  -1.5694   9.0289   9.1251

          k = 0.0508-0.7212 0.0000 (  2729 PWs)   bands (ev):

   -15.3665 -12.9235 -10.1087  -2.7208  -2.2131  -1.5421   9.0153   9.0834

          k = 0.0508-0.7192 0.0000 (  2729 PWs)   bands (ev):

   -15.3795 -12.9093 -10.1061  -2.7482  -2.2106  -1.5149   9.0010   9.0418

          k = 0.0508-0.7172 0.0000 (  2729 PWs)   bands (ev):

   -15.3930 -12.8946 -10.1034  -2.7755  -2.2080  -1.4876   8.9860   9.0002

          k = 0.0508-0.7152 0.0000 (  2731 PWs)   bands (ev):

   -15.4070 -12.8794 -10.1007  -2.8029  -2.2053  -1.4604   8.9586   8.9703

          k = 0.0508-0.7132 0.0000 (  2731 PWs)   bands (ev):

   -15.4213 -12.8638 -10.0977  -2.8302  -2.2025  -1.4331   8.9171   8.9539

          k = 0.0508-0.7112 0.0000 (  2731 PWs)   bands (ev):

   -15.4360 -12.8478 -10.0947  -2.8576  -2.1996  -1.4059   8.8756   8.9368

          k = 0.0528-0.7912 0.0000 (  2732 PWs)   bands (ev):

   -15.2842 -13.0115 -10.1315  -2.5161  -2.2139  -1.7477   9.0928   9.3991

          k = 0.0528-0.7892 0.0000 (  2732 PWs)   bands (ev):

   -15.2755 -13.0209 -10.1331  -2.4891  -2.2153  -1.7747   9.1010   9.4405

          k = 0.0528-0.7872 0.0000 (  2732 PWs)   bands (ev):

   -15.2675 -13.0296 -10.1346  -2.4621  -2.2167  -1.8016   9.1086   9.4817

          k = 0.0528-0.7852 0.0000 (  2734 PWs)   bands (ev):

   -15.2600 -13.0377 -10.1359  -2.4352  -2.2180  -1.8285   9.1156   9.5227

          k = 0.0528-0.7832 0.0000 (  2734 PWs)   bands (ev):

   -15.2531 -13.0450 -10.1371  -2.4084  -2.2192  -1.8552   9.1218   9.5634

          k = 0.0528-0.7812 0.0000 (  2732 PWs)   bands (ev):

   -15.2469 -13.0518 -10.1383  -2.3817  -2.2202  -1.8818   9.1275   9.6037

          k = 0.0528-0.7792 0.0000 (  2730 PWs)   bands (ev):

   -15.2413 -13.0578 -10.1392  -2.3553  -2.2211  -1.9081   9.1325   9.6435

          k = 0.0528-0.7772 0.0000 (  2730 PWs)   bands (ev):

   -15.2363 -13.0631 -10.1401  -2.3293  -2.2219  -1.9342   9.1369   9.6826

          k = 0.0528-0.7752 0.0000 (  2732 PWs)   bands (ev):

   -15.2320 -13.0677 -10.1409  -2.3036  -2.2226  -1.9598   9.1407   9.7206

          k = 0.0528-0.7732 0.0000 (  2732 PWs)   bands (ev):

   -15.2284 -13.0715 -10.1415  -2.2787  -2.2232  -1.9847   9.1439   9.7571

          k = 0.0528-0.7712 0.0000 (  2732 PWs)   bands (ev):

   -15.2255 -13.0747 -10.1420  -2.2549  -2.2237  -2.0084   9.1464   9.7912

          k = 0.0528-0.7692 0.0000 (  2732 PWs)   bands (ev):

   -15.2233 -13.0771 -10.1424  -2.2330  -2.2241  -2.0302   9.1484   9.8215

          k = 0.0528-0.7672 0.0000 (  2732 PWs)   bands (ev):

   -15.2217 -13.0787 -10.1427  -2.2243  -2.2147  -2.0486   9.1497   9.8459

          k = 0.0528-0.7652 0.0000 (  2730 PWs)   bands (ev):

   -15.2208 -13.0797 -10.1428  -2.2245  -2.2025  -2.0608   9.1504   9.8612

          k = 0.0528-0.7632 0.0000 (  2730 PWs)   bands (ev):

   -15.2207 -13.0798 -10.1429  -2.2245  -2.2000  -2.0633   9.1506   9.8643

          k = 0.0528-0.7612 0.0000 (  2732 PWs)   bands (ev):

   -15.2212 -13.0793 -10.1428  -2.2244  -2.2080  -2.0552   9.1501   9.8546

          k = 0.0528-0.7592 0.0000 (  2732 PWs)   bands (ev):

   -15.2225 -13.0779 -10.1426  -2.2243  -2.2239  -2.0393   9.1490   9.8341

          k = 0.0528-0.7572 0.0000 (  2732 PWs)   bands (ev):

   -15.2244 -13.0759 -10.1423  -2.2444  -2.2239  -2.0188   9.1474   9.8063

          k = 0.0528-0.7552 0.0000 (  2732 PWs)   bands (ev):

   -15.2270 -13.0731 -10.1418  -2.2675  -2.2235  -1.9958   9.1451   9.7738

          k = 0.0528-0.7532 0.0000 (  2732 PWs)   bands (ev):

   -15.2303 -13.0695 -10.1413  -2.2919  -2.2229  -1.9714   9.1422   9.7384

          k = 0.0528-0.7512 0.0000 (  2732 PWs)   bands (ev):

   -15.2342 -13.0652 -10.1406  -2.3173  -2.2223  -1.9461   9.1387   9.7010

          k = 0.0528-0.7492 0.0000 (  2730 PWs)   bands (ev):

   -15.2389 -13.0603 -10.1398  -2.3432  -2.2215  -1.9202   9.1346   9.6624

          k = 0.0528-0.7472 0.0000 (  2732 PWs)   bands (ev):

   -15.2442 -13.0546 -10.1389  -2.3695  -2.2206  -1.8940   9.1299   9.6229

          k = 0.0528-0.7452 0.0000 (  2734 PWs)   bands (ev):

   -15.2501 -13.0482 -10.1378  -2.3960  -2.2197  -1.8675   9.1245   9.5828

          k = 0.0528-0.7432 0.0000 (  2734 PWs)   bands (ev):

   -15.2567 -13.0411 -10.1367  -2.4227  -2.2186  -1.8409   9.1185   9.5423

          k = 0.0528-0.7412 0.0000 (  2732 PWs)   bands (ev):

   -15.2639 -13.0333 -10.1354  -2.4495  -2.2173  -1.8141   9.1119   9.5014

          k = 0.0528-0.7392 0.0000 (  2732 PWs)   bands (ev):

   -15.2717 -13.0249 -10.1340  -2.4765  -2.2160  -1.7872   9.1046   9.4603

          k = 0.0528-0.7372 0.0000 (  2732 PWs)   bands (ev):

   -15.2801 -13.0158 -10.1325  -2.5035  -2.2145  -1.7602   9.0967   9.4190

          k = 0.0528-0.7352 0.0000 (  2733 PWs)   bands (ev):

   -15.2891 -13.0061 -10.1309  -2.5306  -2.2130  -1.7331   9.0881   9.3776

          k = 0.0528-0.7332 0.0000 (  2733 PWs)   bands (ev):

   -15.2986 -12.9958 -10.1292  -2.5578  -2.2113  -1.7060   9.0788   9.3361

          k = 0.0528-0.7312 0.0000 (  2731 PWs)   bands (ev):

   -15.3087 -12.9849 -10.1273  -2.5850  -2.2095  -1.6789   9.0689   9.2945

          k = 0.0528-0.7292 0.0000 (  2727 PWs)   bands (ev):

   -15.3193 -12.9734 -10.1253  -2.6122  -2.2076  -1.6518   9.0583   9.2529

          k = 0.0528-0.7272 0.0000 (  2727 PWs)   bands (ev):

   -15.3304 -12.9613 -10.1232  -2.6394  -2.2056  -1.6246   9.0470   9.2113

          k = 0.0528-0.7252 0.0000 (  2729 PWs)   bands (ev):

   -15.3421 -12.9487 -10.1210  -2.6667  -2.2035  -1.5974   9.0351   9.1696

          k = 0.0528-0.7232 0.0000 (  2729 PWs)   bands (ev):

   -15.3542 -12.9356 -10.1186  -2.6940  -2.2013  -1.5702   9.0224   9.1280

          k = 0.0528-0.7212 0.0000 (  2729 PWs)   bands (ev):

   -15.3668 -12.9219 -10.1162  -2.7213  -2.1989  -1.5430   9.0091   9.0863

          k = 0.0528-0.7192 0.0000 (  2729 PWs)   bands (ev):

   -15.3798 -12.9078 -10.1136  -2.7486  -2.1964  -1.5158   8.9950   9.0447

          k = 0.0528-0.7172 0.0000 (  2729 PWs)   bands (ev):

   -15.3933 -12.8931 -10.1109  -2.7759  -2.1939  -1.4886   8.9803   9.0031

          k = 0.0528-0.7152 0.0000 (  2731 PWs)   bands (ev):

   -15.4072 -12.8780 -10.1081  -2.8032  -2.1912  -1.4614   8.9615   8.9649

          k = 0.0528-0.7132 0.0000 (  2731 PWs)   bands (ev):

   -15.4215 -12.8625 -10.1051  -2.8305  -2.1884  -1.4343   8.9200   8.9488

          k = 0.0528-0.7112 0.0000 (  2729 PWs)   bands (ev):

   -15.4362 -12.8465 -10.1021  -2.8578  -2.1855  -1.4070   8.8786   8.9320

          k = 0.0548-0.7912 0.0000 (  2734 PWs)   bands (ev):

   -15.2848 -13.0096 -10.1394  -2.5170  -2.1992  -1.7481   9.0847   9.4021

          k = 0.0548-0.7892 0.0000 (  2732 PWs)   bands (ev):

   -15.2762 -13.0189 -10.1410  -2.4900  -2.2007  -1.7751   9.0927   9.4434

          k = 0.0548-0.7872 0.0000 (  2732 PWs)   bands (ev):

   -15.2681 -13.0275 -10.1425  -2.4631  -2.2020  -1.8019   9.1001   9.4846

          k = 0.0548-0.7852 0.0000 (  2734 PWs)   bands (ev):

   -15.2606 -13.0356 -10.1438  -2.4363  -2.2033  -1.8287   9.1069   9.5256

          k = 0.0548-0.7832 0.0000 (  2734 PWs)   bands (ev):

   -15.2538 -13.0429 -10.1451  -2.4096  -2.2045  -1.8553   9.1130   9.5663

          k = 0.0548-0.7812 0.0000 (  2732 PWs)   bands (ev):

   -15.2476 -13.0496 -10.1462  -2.3831  -2.2055  -1.8818   9.1185   9.6066

          k = 0.0548-0.7792 0.0000 (  2734 PWs)   bands (ev):

   -15.2420 -13.0556 -10.1472  -2.3569  -2.2064  -1.9080   9.1234   9.6464

          k = 0.0548-0.7772 0.0000 (  2732 PWs)   bands (ev):

   -15.2371 -13.0609 -10.1481  -2.3310  -2.2073  -1.9339   9.1277   9.6854

          k = 0.0548-0.7752 0.0000 (  2730 PWs)   bands (ev):

   -15.2328 -13.0654 -10.1488  -2.3055  -2.2079  -1.9592   9.1314   9.7235

          k = 0.0548-0.7732 0.0000 (  2732 PWs)   bands (ev):

   -15.2292 -13.0693 -10.1495  -2.2808  -2.2085  -1.9838   9.1345   9.7599

          k = 0.0548-0.7712 0.0000 (  2732 PWs)   bands (ev):

   -15.2263 -13.0724 -10.1500  -2.2574  -2.2090  -2.0073   9.1370   9.7939

          k = 0.0548-0.7692 0.0000 (  2732 PWs)   bands (ev):

   -15.2240 -13.0748 -10.1504  -2.2360  -2.2094  -2.0287   9.1389   9.8242

          k = 0.0548-0.7672 0.0000 (  2732 PWs)   bands (ev):

   -15.2225 -13.0765 -10.1507  -2.2181  -2.2096  -2.0465   9.1402   9.8486

          k = 0.0548-0.7652 0.0000 (  2730 PWs)   bands (ev):

   -15.2216 -13.0774 -10.1508  -2.2098  -2.2064  -2.0582   9.1409   9.8639

          k = 0.0548-0.7632 0.0000 (  2730 PWs)   bands (ev):

   -15.2215 -13.0775 -10.1509  -2.2098  -2.2040  -2.0606   9.1410   9.8670

          k = 0.0548-0.7612 0.0000 (  2732 PWs)   bands (ev):

   -15.2220 -13.0770 -10.1508  -2.2117  -2.2097  -2.0529   9.1406   9.8573

          k = 0.0548-0.7592 0.0000 (  2732 PWs)   bands (ev):

   -15.2232 -13.0757 -10.1506  -2.2271  -2.2095  -2.0375   9.1396   9.8369

          k = 0.0548-0.7572 0.0000 (  2732 PWs)   bands (ev):

   -15.2251 -13.0736 -10.1503  -2.2471  -2.2092  -2.0175   9.1379   9.8091

          k = 0.0548-0.7552 0.0000 (  2732 PWs)   bands (ev):

   -15.2277 -13.0708 -10.1498  -2.2698  -2.2088  -1.9949   9.1357   9.7766

          k = 0.0548-0.7532 0.0000 (  2732 PWs)   bands (ev):

   -15.2310 -13.0673 -10.1493  -2.2939  -2.2082  -1.9707   9.1329   9.7412

          k = 0.0548-0.7512 0.0000 (  2730 PWs)   bands (ev):

   -15.2350 -13.0630 -10.1486  -2.3190  -2.2076  -1.9457   9.1295   9.7039

          k = 0.0548-0.7492 0.0000 (  2732 PWs)   bands (ev):

   -15.2396 -13.0581 -10.1478  -2.3448  -2.2068  -1.9200   9.1255   9.6653

          k = 0.0548-0.7472 0.0000 (  2732 PWs)   bands (ev):

   -15.2449 -13.0524 -10.1468  -2.3709  -2.2059  -1.8939   9.1209   9.6258

          k = 0.0548-0.7452 0.0000 (  2734 PWs)   bands (ev):

   -15.2508 -13.0460 -10.1458  -2.3973  -2.2050  -1.8676   9.1156   9.5857

          k = 0.0548-0.7432 0.0000 (  2734 PWs)   bands (ev):

   -15.2574 -13.0390 -10.1446  -2.4239  -2.2039  -1.8410   9.1098   9.5452

          k = 0.0548-0.7412 0.0000 (  2734 PWs)   bands (ev):

   -15.2645 -13.0313 -10.1433  -2.4506  -2.2026  -1.8143   9.1033   9.5043

          k = 0.0548-0.7392 0.0000 (  2732 PWs)   bands (ev):

   -15.2723 -13.0229 -10.1419  -2.4775  -2.2013  -1.7875   9.0962   9.4632

          k = 0.0548-0.7372 0.0000 (  2734 PWs)   bands (ev):

   -15.2807 -13.0138 -10.1404  -2.5045  -2.1999  -1.7606   9.0884   9.4220

          k = 0.0548-0.7352 0.0000 (  2734 PWs)   bands (ev):

   -15.2896 -13.0042 -10.1388  -2.5315  -2.1983  -1.7336   9.0800   9.3806

          k = 0.0548-0.7332 0.0000 (  2730 PWs)   bands (ev):

   -15.2991 -12.9939 -10.1370  -2.5586  -2.1966  -1.7066   9.0710   9.3391

          k = 0.0548-0.7312 0.0000 (  2731 PWs)   bands (ev):

   -15.3092 -12.9830 -10.1351  -2.5857  -2.1948  -1.6796   9.0613   9.2975

          k = 0.0548-0.7292 0.0000 (  2729 PWs)   bands (ev):

   -15.3198 -12.9716 -10.1331  -2.6129  -2.1929  -1.6525   9.0509   9.2559

          k = 0.0548-0.7272 0.0000 (  2729 PWs)   bands (ev):

   -15.3309 -12.9596 -10.1310  -2.6401  -2.1909  -1.6254   9.0399   9.2143

          k = 0.0548-0.7252 0.0000 (  2729 PWs)   bands (ev):

   -15.3425 -12.9470 -10.1287  -2.6673  -2.1888  -1.5982   9.0281   9.1726

          k = 0.0548-0.7232 0.0000 (  2729 PWs)   bands (ev):

   -15.3546 -12.9339 -10.1264  -2.6945  -2.1866  -1.5711   9.0157   9.1310

          k = 0.0548-0.7212 0.0000 (  2729 PWs)   bands (ev):

   -15.3672 -12.9203 -10.1239  -2.7218  -2.1842  -1.5440   9.0026   9.0893

          k = 0.0548-0.7192 0.0000 (  2729 PWs)   bands (ev):

   -15.3802 -12.9062 -10.1213  -2.7490  -2.1818  -1.5168   8.9889   9.0477

          k = 0.0548-0.7172 0.0000 (  2729 PWs)   bands (ev):

   -15.3936 -12.8916 -10.1186  -2.7763  -2.1792  -1.4897   8.9744   9.0062

          k = 0.0548-0.7152 0.0000 (  2729 PWs)   bands (ev):

   -15.4075 -12.8766 -10.1157  -2.8035  -2.1765  -1.4625   8.9592   8.9646

          k = 0.0548-0.7132 0.0000 (  2731 PWs)   bands (ev):

   -15.4217 -12.8611 -10.1127  -2.8309  -2.1738  -1.4354   8.9231   8.9434

          k = 0.0548-0.7112 0.0000 (  2731 PWs)   bands (ev):

   -15.4364 -12.8452 -10.1096  -2.8581  -2.1708  -1.4083   8.8816   8.9269

          k = 0.0568-0.7912 0.0000 (  2732 PWs)   bands (ev):

   -15.2854 -13.0075 -10.1475  -2.5180  -2.1840  -1.7486   9.0763   9.4051

          k = 0.0568-0.7892 0.0000 (  2734 PWs)   bands (ev):

   -15.2768 -13.0168 -10.1492  -2.4911  -2.1855  -1.7755   9.0841   9.4465

          k = 0.0568-0.7872 0.0000 (  2734 PWs)   bands (ev):

   -15.2688 -13.0254 -10.1506  -2.4642  -2.1869  -1.8022   9.0913   9.4876

          k = 0.0568-0.7852 0.0000 (  2734 PWs)   bands (ev):

   -15.2613 -13.0334 -10.1520  -2.4375  -2.1881  -1.8289   9.0979   9.5286

          k = 0.0568-0.7832 0.0000 (  2734 PWs)   bands (ev):

   -15.2545 -13.0407 -10.1533  -2.4109  -2.1893  -1.8554   9.1039   9.5693

          k = 0.0568-0.7812 0.0000 (  2734 PWs)   bands (ev):

   -15.2483 -13.0474 -10.1544  -2.3846  -2.1903  -1.8817   9.1093   9.6096

          k = 0.0568-0.7792 0.0000 (  2734 PWs)   bands (ev):

   -15.2427 -13.0533 -10.1554  -2.3585  -2.1912  -1.9078   9.1141   9.6494

          k = 0.0568-0.7772 0.0000 (  2734 PWs)   bands (ev):

   -15.2378 -13.0586 -10.1563  -2.3328  -2.1921  -1.9335   9.1183   9.6884

          k = 0.0568-0.7752 0.0000 (  2730 PWs)   bands (ev):

   -15.2336 -13.0631 -10.1571  -2.3075  -2.1927  -1.9586   9.1219   9.7264

          k = 0.0568-0.7732 0.0000 (  2732 PWs)   bands (ev):

   -15.2300 -13.0670 -10.1577  -2.2831  -2.1933  -1.9829   9.1249   9.7628

          k = 0.0568-0.7712 0.0000 (  2732 PWs)   bands (ev):

   -15.2271 -13.0701 -10.1582  -2.2600  -2.1938  -2.0060   9.1273   9.7968

          k = 0.0568-0.7692 0.0000 (  2732 PWs)   bands (ev):

   -15.2248 -13.0725 -10.1586  -2.2391  -2.1942  -2.0270   9.1291   9.8271

          k = 0.0568-0.7672 0.0000 (  2732 PWs)   bands (ev):

   -15.2233 -13.0741 -10.1589  -2.2217  -2.1944  -2.0443   9.1304   9.8514

          k = 0.0568-0.7652 0.0000 (  2730 PWs)   bands (ev):

   -15.2224 -13.0750 -10.1591  -2.2105  -2.1946  -2.0555   9.1311   9.8667

          k = 0.0568-0.7632 0.0000 (  2730 PWs)   bands (ev):

   -15.2223 -13.0752 -10.1591  -2.2082  -2.1946  -2.0577   9.1312   9.8698

          k = 0.0568-0.7612 0.0000 (  2732 PWs)   bands (ev):

   -15.2228 -13.0746 -10.1590  -2.2156  -2.1945  -2.0504   9.1308   9.8601

          k = 0.0568-0.7592 0.0000 (  2732 PWs)   bands (ev):

   -15.2240 -13.0733 -10.1588  -2.2305  -2.1943  -2.0355   9.1298   9.8397

          k = 0.0568-0.7572 0.0000 (  2732 PWs)   bands (ev):

   -15.2259 -13.0713 -10.1585  -2.2500  -2.1940  -2.0160   9.1282   9.8119

          k = 0.0568-0.7552 0.0000 (  2732 PWs)   bands (ev):

   -15.2285 -13.0685 -10.1581  -2.2722  -2.1936  -1.9938   9.1260   9.7795

          k = 0.0568-0.7532 0.0000 (  2730 PWs)   bands (ev):

   -15.2318 -13.0650 -10.1575  -2.2961  -2.1930  -1.9700   9.1233   9.7441

          k = 0.0568-0.7512 0.0000 (  2732 PWs)   bands (ev):

   -15.2358 -13.0607 -10.1568  -2.3210  -2.1924  -1.9452   9.1200   9.7068

          k = 0.0568-0.7492 0.0000 (  2734 PWs)   bands (ev):

   -15.2404 -13.0558 -10.1560  -2.3465  -2.1916  -1.9197   9.1161   9.6682

          k = 0.0568-0.7472 0.0000 (  2734 PWs)   bands (ev):

   -15.2456 -13.0501 -10.1551  -2.3725  -2.1907  -1.8938   9.1116   9.6288

          k = 0.0568-0.7452 0.0000 (  2734 PWs)   bands (ev):

   -15.2515 -13.0438 -10.1540  -2.3987  -2.1898  -1.8676   9.1065   9.5887

          k = 0.0568-0.7432 0.0000 (  2734 PWs)   bands (ev):

   -15.2581 -13.0368 -10.1528  -2.4252  -2.1887  -1.8411   9.1008   9.5482

          k = 0.0568-0.7412 0.0000 (  2734 PWs)   bands (ev):

   -15.2652 -13.0291 -10.1515  -2.4518  -2.1875  -1.8145   9.0944   9.5073

          k = 0.0568-0.7392 0.0000 (  2734 PWs)   bands (ev):

   -15.2730 -13.0207 -10.1501  -2.4786  -2.1861  -1.7878   9.0875   9.4663

          k = 0.0568-0.7372 0.0000 (  2734 PWs)   bands (ev):

   -15.2813 -13.0118 -10.1486  -2.5055  -2.1847  -1.7610   9.0799   9.4250

          k = 0.0568-0.7352 0.0000 (  2732 PWs)   bands (ev):

   -15.2902 -13.0021 -10.1469  -2.5324  -2.1831  -1.7341   9.0717   9.3836

          k = 0.0568-0.7332 0.0000 (  2730 PWs)   bands (ev):

   -15.2997 -12.9919 -10.1451  -2.5594  -2.1814  -1.7072   9.0629   9.3421

          k = 0.0568-0.7312 0.0000 (  2730 PWs)   bands (ev):

   -15.3098 -12.9811 -10.1432  -2.5865  -2.1797  -1.6802   9.0534   9.3006

          k = 0.0568-0.7292 0.0000 (  2729 PWs)   bands (ev):

   -15.3203 -12.9697 -10.1412  -2.6136  -2.1778  -1.6532   9.0433   9.2590

          k = 0.0568-0.7272 0.0000 (  2729 PWs)   bands (ev):

   -15.3314 -12.9577 -10.1390  -2.6407  -2.1758  -1.6261   9.0324   9.2174

          k = 0.0568-0.7252 0.0000 (  2731 PWs)   bands (ev):

   -15.3430 -12.9452 -10.1368  -2.6679  -2.1737  -1.5991   9.0210   9.1757

          k = 0.0568-0.7232 0.0000 (  2727 PWs)   bands (ev):

   -15.3550 -12.9322 -10.1344  -2.6951  -2.1714  -1.5720   9.0088   9.1341

          k = 0.0568-0.7212 0.0000 (  2729 PWs)   bands (ev):

   -15.3676 -12.9186 -10.1319  -2.7223  -2.1691  -1.5449   8.9960   9.0925

          k = 0.0568-0.7192 0.0000 (  2729 PWs)   bands (ev):

   -15.3805 -12.9046 -10.1292  -2.7495  -2.1666  -1.5178   8.9825   9.0509

          k = 0.0568-0.7172 0.0000 (  2729 PWs)   bands (ev):

   -15.3940 -12.8901 -10.1265  -2.7767  -2.1641  -1.4907   8.9683   9.0093

          k = 0.0568-0.7152 0.0000 (  2729 PWs)   bands (ev):

   -15.4078 -12.8751 -10.1236  -2.8039  -2.1614  -1.4636   8.9534   8.9678

          k = 0.0568-0.7132 0.0000 (  2731 PWs)   bands (ev):

   -15.4220 -12.8597 -10.1206  -2.8312  -2.1586  -1.4366   8.9262   8.9379

          k = 0.0568-0.7112 0.0000 (  2731 PWs)   bands (ev):

   -15.4366 -12.8438 -10.1175  -2.8584  -2.1557  -1.4095   8.8848   8.9216

          k = 0.0588-0.7912 0.0000 (  2732 PWs)   bands (ev):

   -15.2861 -13.0054 -10.1559  -2.5190  -2.1683  -1.7491   9.0676   9.4083

          k = 0.0588-0.7892 0.0000 (  2732 PWs)   bands (ev):

   -15.2775 -13.0146 -10.1575  -2.4922  -2.1698  -1.7758   9.0753   9.4496

          k = 0.0588-0.7872 0.0000 (  2736 PWs)   bands (ev):

   -15.2695 -13.0232 -10.1590  -2.4654  -2.1712  -1.8025   9.0823   9.4908

          k = 0.0588-0.7852 0.0000 (  2738 PWs)   bands (ev):

   -15.2621 -13.0312 -10.1604  -2.4388  -2.1725  -1.8290   9.0887   9.5317

          k = 0.0588-0.7832 0.0000 (  2736 PWs)   bands (ev):

   -15.2553 -13.0385 -10.1617  -2.4124  -2.1736  -1.8554   9.0946   9.5724

          k = 0.0588-0.7812 0.0000 (  2734 PWs)   bands (ev):

   -15.2491 -13.0451 -10.1628  -2.3862  -2.1746  -1.8816   9.0998   9.6127

          k = 0.0588-0.7792 0.0000 (  2734 PWs)   bands (ev):

   -15.2435 -13.0510 -10.1639  -2.3602  -2.1755  -1.9075   9.1045   9.6524

          k = 0.0588-0.7772 0.0000 (  2734 PWs)   bands (ev):

   -15.2386 -13.0562 -10.1648  -2.3347  -2.1764  -1.9330   9.1085   9.6914

          k = 0.0588-0.7752 0.0000 (  2730 PWs)   bands (ev):

   -15.2344 -13.0608 -10.1655  -2.3097  -2.1771  -1.9579   9.1120   9.7294

          k = 0.0588-0.7732 0.0000 (  2730 PWs)   bands (ev):

   -15.2308 -13.0646 -10.1662  -2.2856  -2.1776  -1.9819   9.1150   9.7658

          k = 0.0588-0.7712 0.0000 (  2732 PWs)   bands (ev):

   -15.2279 -13.0677 -10.1667  -2.2628  -2.1781  -2.0046   9.1173   9.7998

          k = 0.0588-0.7692 0.0000 (  2732 PWs)   bands (ev):

   -15.2257 -13.0701 -10.1671  -2.2423  -2.1785  -2.0251   9.1191   9.8300

          k = 0.0588-0.7672 0.0000 (  2732 PWs)   bands (ev):

   -15.2242 -13.0717 -10.1674  -2.2255  -2.1787  -2.0419   9.1204   9.8543

          k = 0.0588-0.7652 0.0000 (  2730 PWs)   bands (ev):

   -15.2233 -13.0726 -10.1676  -2.2148  -2.1789  -2.0526   9.1210   9.8695

          k = 0.0588-0.7632 0.0000 (  2730 PWs)   bands (ev):

   -15.2231 -13.0727 -10.1676  -2.2126  -2.1789  -2.0548   9.1212   9.8727

          k = 0.0588-0.7612 0.0000 (  2732 PWs)   bands (ev):

   -15.2237 -13.0722 -10.1675  -2.2197  -2.1788  -2.0478   9.1207   9.8630

          k = 0.0588-0.7592 0.0000 (  2732 PWs)   bands (ev):

   -15.2249 -13.0709 -10.1673  -2.2340  -2.1786  -2.0335   9.1198   9.8426

          k = 0.0588-0.7572 0.0000 (  2732 PWs)   bands (ev):

   -15.2268 -13.0688 -10.1670  -2.2530  -2.1783  -2.0144   9.1182   9.8149

          k = 0.0588-0.7552 0.0000 (  2732 PWs)   bands (ev):

   -15.2294 -13.0661 -10.1665  -2.2749  -2.1779  -1.9926   9.1161   9.7825

          k = 0.0588-0.7532 0.0000 (  2730 PWs)   bands (ev):

   -15.2326 -13.0626 -10.1659  -2.2984  -2.1773  -1.9691   9.1134   9.7471

          k = 0.0588-0.7512 0.0000 (  2734 PWs)   bands (ev):

   -15.2366 -13.0584 -10.1653  -2.3230  -2.1767  -1.9446   9.1102   9.7098

          k = 0.0588-0.7492 0.0000 (  2734 PWs)   bands (ev):

   -15.2412 -13.0534 -10.1644  -2.3483  -2.1759  -1.9193   9.1064   9.6713

          k = 0.0588-0.7472 0.0000 (  2734 PWs)   bands (ev):

   -15.2464 -13.0478 -10.1635  -2.3741  -2.1750  -1.8936   9.1020   9.6319

          k = 0.0588-0.7452 0.0000 (  2734 PWs)   bands (ev):

   -15.2523 -13.0415 -10.1624  -2.4002  -2.1741  -1.8675   9.0970   9.5918

          k = 0.0588-0.7432 0.0000 (  2738 PWs)   bands (ev):

   -15.2588 -13.0345 -10.1613  -2.4266  -2.1730  -1.8412   9.0915   9.5513

          k = 0.0588-0.7412 0.0000 (  2738 PWs)   bands (ev):

   -15.2659 -13.0269 -10.1599  -2.4531  -2.1718  -1.8148   9.0853   9.5105

          k = 0.0588-0.7392 0.0000 (  2732 PWs)   bands (ev):

   -15.2737 -13.0185 -10.1585  -2.4798  -2.1704  -1.7881   9.0786   9.4694

          k = 0.0588-0.7372 0.0000 (  2732 PWs)   bands (ev):

   -15.2820 -13.0096 -10.1569  -2.5066  -2.1690  -1.7614   9.0712   9.4282

          k = 0.0588-0.7352 0.0000 (  2730 PWs)   bands (ev):

   -15.2909 -13.0000 -10.1552  -2.5334  -2.1674  -1.7346   9.0632   9.3868

          k = 0.0588-0.7332 0.0000 (  2730 PWs)   bands (ev):

   -15.3003 -12.9898 -10.1534  -2.5604  -2.1658  -1.7077   9.0545   9.3453

          k = 0.0588-0.7312 0.0000 (  2728 PWs)   bands (ev):

   -15.3103 -12.9791 -10.1515  -2.5874  -2.1640  -1.6808   9.0453   9.3038

          k = 0.0588-0.7292 0.0000 (  2728 PWs)   bands (ev):

   -15.3209 -12.9677 -10.1495  -2.6144  -2.1621  -1.6539   9.0354   9.2622

          k = 0.0588-0.7272 0.0000 (  2730 PWs)   bands (ev):

   -15.3319 -12.9558 -10.1473  -2.6415  -2.1601  -1.6269   9.0248   9.2206

          k = 0.0588-0.7252 0.0000 (  2731 PWs)   bands (ev):

   -15.3435 -12.9434 -10.1450  -2.6686  -2.1580  -1.5999   9.0136   9.1790

          k = 0.0588-0.7232 0.0000 (  2731 PWs)   bands (ev):

   -15.3555 -12.9304 -10.1426  -2.6957  -2.1558  -1.5729   9.0017   9.1373

          k = 0.0588-0.7212 0.0000 (  2729 PWs)   bands (ev):

   -15.3680 -12.9169 -10.1400  -2.7229  -2.1534  -1.5459   8.9891   9.0957

          k = 0.0588-0.7192 0.0000 (  2727 PWs)   bands (ev):

   -15.3809 -12.9029 -10.1374  -2.7500  -2.1510  -1.5189   8.9759   9.0541

          k = 0.0588-0.7172 0.0000 (  2729 PWs)   bands (ev):

   -15.3943 -12.8885 -10.1346  -2.7772  -2.1484  -1.4918   8.9620   9.0126

          k = 0.0588-0.7152 0.0000 (  2729 PWs)   bands (ev):

   -15.4081 -12.8735 -10.1317  -2.8043  -2.1457  -1.4648   8.9474   8.9710

          k = 0.0588-0.7132 0.0000 (  2731 PWs)   bands (ev):

   -15.4223 -12.8582 -10.1286  -2.8316  -2.1430  -1.4377   8.9295   8.9321

          k = 0.0588-0.7112 0.0000 (  2731 PWs)   bands (ev):

   -15.4368 -12.8424 -10.1255  -2.8588  -2.1401  -1.4107   8.8881   8.9162

          k = 0.0608-0.7912 0.0000 (  2732 PWs)   bands (ev):

   -15.2868 -13.0032 -10.1645  -2.5201  -2.1521  -1.7495   9.0587   9.4116

          k = 0.0608-0.7892 0.0000 (  2734 PWs)   bands (ev):

   -15.2782 -13.0124 -10.1662  -2.4934  -2.1536  -1.7762   9.0662   9.4529

          k = 0.0608-0.7872 0.0000 (  2736 PWs)   bands (ev):

   -15.2702 -13.0209 -10.1677  -2.4667  -2.1550  -1.8027   9.0730   9.4940

          k = 0.0608-0.7852 0.0000 (  2738 PWs)   bands (ev):

   -15.2628 -13.0288 -10.1691  -2.4402  -2.1563  -1.8292   9.0793   9.5350

          k = 0.0608-0.7832 0.0000 (  2736 PWs)   bands (ev):

   -15.2560 -13.0361 -10.1704  -2.4139  -2.1574  -1.8554   9.0850   9.5756

          k = 0.0608-0.7812 0.0000 (  2736 PWs)   bands (ev):

   -15.2499 -13.0427 -10.1715  -2.3878  -2.1584  -1.8814   9.0901   9.6159

          k = 0.0608-0.7792 0.0000 (  2734 PWs)   bands (ev):

   -15.2443 -13.0486 -10.1725  -2.3621  -2.1594  -1.9071   9.0946   9.6556

          k = 0.0608-0.7772 0.0000 (  2734 PWs)   bands (ev):

   -15.2395 -13.0538 -10.1734  -2.3367  -2.1602  -1.9324   9.0986   9.6946

          k = 0.0608-0.7752 0.0000 (  2734 PWs)   bands (ev):

   -15.2352 -13.0583 -10.1742  -2.3120  -2.1609  -1.9571   9.1020   9.7325

          k = 0.0608-0.7732 0.0000 (  2730 PWs)   bands (ev):

   -15.2317 -13.0621 -10.1749  -2.2882  -2.1615  -1.9808   9.1048   9.7689

          k = 0.0608-0.7712 0.0000 (  2730 PWs)   bands (ev):

   -15.2288 -13.0652 -10.1754  -2.2658  -2.1619  -2.0031   9.1071   9.8029

          k = 0.0608-0.7692 0.0000 (  2732 PWs)   bands (ev):

   -15.2266 -13.0675 -10.1758  -2.2458  -2.1623  -2.0232   9.1089   9.8331

          k = 0.0608-0.7672 0.0000 (  2732 PWs)   bands (ev):

   -15.2250 -13.0692 -10.1761  -2.2295  -2.1625  -2.0394   9.1101   9.8573

          k = 0.0608-0.7652 0.0000 (  2730 PWs)   bands (ev):

   -15.2242 -13.0701 -10.1763  -2.2192  -2.1627  -2.0497   9.1107   9.8725

          k = 0.0608-0.7632 0.0000 (  2730 PWs)   bands (ev):

   -15.2240 -13.0702 -10.1763  -2.2171  -2.1627  -2.0518   9.1108   9.8757

          k = 0.0608-0.7612 0.0000 (  2732 PWs)   bands (ev):

   -15.2246 -13.0697 -10.1762  -2.2239  -2.1626  -2.0451   9.1104   9.8660

          k = 0.0608-0.7592 0.0000 (  2732 PWs)   bands (ev):

   -15.2258 -13.0684 -10.1760  -2.2377  -2.1624  -2.0312   9.1095   9.8456

          k = 0.0608-0.7572 0.0000 (  2732 PWs)   bands (ev):

   -15.2277 -13.0663 -10.1757  -2.2562  -2.1621  -2.0127   9.1080   9.8180

          k = 0.0608-0.7552 0.0000 (  2730 PWs)   bands (ev):

   -15.2302 -13.0636 -10.1752  -2.2776  -2.1617  -1.9913   9.1059   9.7856

          k = 0.0608-0.7532 0.0000 (  2730 PWs)   bands (ev):

   -15.2335 -13.0601 -10.1746  -2.3008  -2.1611  -1.9682   9.1033   9.7503

          k = 0.0608-0.7512 0.0000 (  2734 PWs)   bands (ev):

   -15.2374 -13.0559 -10.1740  -2.3252  -2.1605  -1.9439   9.1002   9.7130

          k = 0.0608-0.7492 0.0000 (  2734 PWs)   bands (ev):

   -15.2420 -13.0510 -10.1731  -2.3503  -2.1597  -1.9189   9.0965   9.6745

          k = 0.0608-0.7472 0.0000 (  2736 PWs)   bands (ev):

   -15.2472 -13.0454 -10.1722  -2.3759  -2.1589  -1.8933   9.0922   9.6350

          k = 0.0608-0.7452 0.0000 (  2736 PWs)   bands (ev):

   -15.2531 -13.0391 -10.1711  -2.4018  -2.1579  -1.8674   9.0874   9.5950

          k = 0.0608-0.7432 0.0000 (  2736 PWs)   bands (ev):

   -15.2596 -13.0322 -10.1699  -2.4280  -2.1568  -1.8413   9.0819   9.5545

          k = 0.0608-0.7412 0.0000 (  2736 PWs)   bands (ev):

   -15.2667 -13.0246 -10.1686  -2.4545  -2.1556  -1.8149   9.0759   9.5137

          k = 0.0608-0.7392 0.0000 (  2736 PWs)   bands (ev):

   -15.2744 -13.0163 -10.1671  -2.4810  -2.1542  -1.7884   9.0694   9.4727

          k = 0.0608-0.7372 0.0000 (  2732 PWs)   bands (ev):

   -15.2827 -13.0074 -10.1655  -2.5077  -2.1528  -1.7618   9.0622   9.4314

          k = 0.0608-0.7352 0.0000 (  2730 PWs)   bands (ev):

   -15.2915 -12.9978 -10.1638  -2.5345  -2.1512  -1.7351   9.0544   9.3901

          k = 0.0608-0.7332 0.0000 (  2730 PWs)   bands (ev):

   -15.3010 -12.9877 -10.1620  -2.5614  -2.1496  -1.7083   9.0459   9.3486

          k = 0.0608-0.7312 0.0000 (  2728 PWs)   bands (ev):

   -15.3109 -12.9770 -10.1601  -2.5883  -2.1478  -1.6815   9.0369   9.3071

          k = 0.0608-0.7292 0.0000 (  2728 PWs)   bands (ev):

   -15.3214 -12.9657 -10.1580  -2.6153  -2.1459  -1.6546   9.0272   9.2655

          k = 0.0608-0.7272 0.0000 (  2730 PWs)   bands (ev):

   -15.3325 -12.9538 -10.1558  -2.6423  -2.1439  -1.6277   9.0169   9.2239

          k = 0.0608-0.7252 0.0000 (  2730 PWs)   bands (ev):

   -15.3440 -12.9414 -10.1535  -2.6693  -2.1418  -1.6008   9.0059   9.1823

          k = 0.0608-0.7232 0.0000 (  2730 PWs)   bands (ev):

   -15.3560 -12.9285 -10.1510  -2.6964  -2.1396  -1.5738   8.9943   9.1407

          k = 0.0608-0.7212 0.0000 (  2731 PWs)   bands (ev):

   -15.3684 -12.9151 -10.1485  -2.7235  -2.1373  -1.5469   8.9820   9.0991

          k = 0.0608-0.7192 0.0000 (  2729 PWs)   bands (ev):

   -15.3813 -12.9012 -10.1458  -2.7506  -2.1348  -1.5199   8.9691   9.0575

          k = 0.0608-0.7172 0.0000 (  2727 PWs)   bands (ev):

   -15.3947 -12.8868 -10.1429  -2.7777  -2.1323  -1.4929   8.9554   9.0159

          k = 0.0608-0.7152 0.0000 (  2729 PWs)   bands (ev):

   -15.4084 -12.8719 -10.1400  -2.8048  -2.1296  -1.4659   8.9411   8.9744

          k = 0.0608-0.7132 0.0000 (  2729 PWs)   bands (ev):

   -15.4226 -12.8566 -10.1369  -2.8319  -2.1268  -1.4389   8.9261   8.9329

          k = 0.0608-0.7112 0.0000 (  2731 PWs)   bands (ev):

   -15.4371 -12.8409 -10.1337  -2.8591  -2.1239  -1.4120   8.8915   8.9105

          k = 0.0628-0.7912 0.0000 (  2732 PWs)   bands (ev):

   -15.2875 -13.0009 -10.1733  -2.5213  -2.1355  -1.7499   9.0495   9.4150

          k = 0.0628-0.7892 0.0000 (  2734 PWs)   bands (ev):

   -15.2789 -13.0101 -10.1750  -2.4946  -2.1369  -1.7765   9.0568   9.4563

          k = 0.0628-0.7872 0.0000 (  2736 PWs)   bands (ev):

   -15.2710 -13.0186 -10.1765  -2.4681  -2.1383  -1.8029   9.0635   9.4974

          k = 0.0628-0.7852 0.0000 (  2734 PWs)   bands (ev):

   -15.2636 -13.0264 -10.1780  -2.4417  -2.1396  -1.8292   9.0696   9.5383

          k = 0.0628-0.7832 0.0000 (  2736 PWs)   bands (ev):

   -15.2568 -13.0337 -10.1792  -2.4155  -2.1407  -1.8553   9.0751   9.5789

          k = 0.0628-0.7812 0.0000 (  2736 PWs)   bands (ev):

   -15.2507 -13.0402 -10.1804  -2.3896  -2.1418  -1.8812   9.0801   9.6192

          k = 0.0628-0.7792 0.0000 (  2736 PWs)   bands (ev):

   -15.2452 -13.0461 -10.1815  -2.3640  -2.1427  -1.9067   9.0845   9.6589

          k = 0.0628-0.7772 0.0000 (  2736 PWs)   bands (ev):

   -15.2403 -13.0513 -10.1824  -2.3389  -2.1435  -1.9318   9.0883   9.6979

          k = 0.0628-0.7752 0.0000 (  2734 PWs)   bands (ev):

   -15.2361 -13.0558 -10.1832  -2.3145  -2.1442  -1.9562   9.0916   9.7358

          k = 0.0628-0.7732 0.0000 (  2730 PWs)   bands (ev):

   -15.2326 -13.0595 -10.1838  -2.2909  -2.1448  -1.9796   9.0944   9.7721

          k = 0.0628-0.7712 0.0000 (  2730 PWs)   bands (ev):

   -15.2297 -13.0626 -10.1844  -2.2690  -2.1452  -2.0015   9.0966   9.8060

          k = 0.0628-0.7692 0.0000 (  2732 PWs)   bands (ev):

   -15.2275 -13.0649 -10.1848  -2.2494  -2.1456  -2.0211   9.0983   9.8362

          k = 0.0628-0.7672 0.0000 (  2732 PWs)   bands (ev):

   -15.2260 -13.0666 -10.1851  -2.2337  -2.1459  -2.0368   9.0995   9.8604

          k = 0.0628-0.7652 0.0000 (  2730 PWs)   bands (ev):

   -15.2251 -13.0674 -10.1852  -2.2238  -2.1460  -2.0467   9.1001   9.8756

          k = 0.0628-0.7632 0.0000 (  2730 PWs)   bands (ev):

   -15.2249 -13.0676 -10.1853  -2.2218  -2.1460  -2.0486   9.1003   9.8788

          k = 0.0628-0.7612 0.0000 (  2732 PWs)   bands (ev):

   -15.2255 -13.0671 -10.1852  -2.2282  -2.1459  -2.0422   9.0999   9.8691

          k = 0.0628-0.7592 0.0000 (  2732 PWs)   bands (ev):

   -15.2267 -13.0658 -10.1850  -2.2416  -2.1457  -2.0289   9.0989   9.8488

          k = 0.0628-0.7572 0.0000 (  2730 PWs)   bands (ev):

   -15.2286 -13.0637 -10.1846  -2.2596  -2.1454  -2.0109   9.0975   9.8211

          k = 0.0628-0.7552 0.0000 (  2730 PWs)   bands (ev):

   -15.2311 -13.0610 -10.1842  -2.2806  -2.1450  -1.9899   9.0955   9.7888

          k = 0.0628-0.7532 0.0000 (  2734 PWs)   bands (ev):

   -15.2344 -13.0575 -10.1836  -2.3035  -2.1445  -1.9671   9.0930   9.7535

          k = 0.0628-0.7512 0.0000 (  2734 PWs)   bands (ev):

   -15.2383 -13.0534 -10.1829  -2.3275  -2.1438  -1.9431   9.0899   9.7162

          k = 0.0628-0.7492 0.0000 (  2736 PWs)   bands (ev):

   -15.2429 -13.0485 -10.1821  -2.3524  -2.1431  -1.9183   9.0863   9.6777

          k = 0.0628-0.7472 0.0000 (  2736 PWs)   bands (ev):

   -15.2481 -13.0429 -10.1811  -2.3778  -2.1422  -1.8930   9.0821   9.6383

          k = 0.0628-0.7452 0.0000 (  2736 PWs)   bands (ev):

   -15.2539 -13.0367 -10.1800  -2.4035  -2.1412  -1.8673   9.0774   9.5983

          k = 0.0628-0.7432 0.0000 (  2734 PWs)   bands (ev):

   -15.2604 -13.0297 -10.1788  -2.4296  -2.1401  -1.8413   9.0722   9.5579

          k = 0.0628-0.7412 0.0000 (  2736 PWs)   bands (ev):

   -15.2675 -13.0222 -10.1774  -2.4559  -2.1389  -1.8150   9.0663   9.5171

          k = 0.0628-0.7392 0.0000 (  2736 PWs)   bands (ev):

   -15.2751 -13.0139 -10.1760  -2.4824  -2.1376  -1.7887   9.0599   9.4760

          k = 0.0628-0.7372 0.0000 (  2734 PWs)   bands (ev):

   -15.2834 -13.0051 -10.1744  -2.5090  -2.1361  -1.7621   9.0529   9.4348

          k = 0.0628-0.7352 0.0000 (  2732 PWs)   bands (ev):

   -15.2922 -12.9956 -10.1727  -2.5357  -2.1346  -1.7355   9.0453   9.3935

          k = 0.0628-0.7332 0.0000 (  2728 PWs)   bands (ev):

   -15.3016 -12.9855 -10.1708  -2.5624  -2.1329  -1.7088   9.0371   9.3520

          k = 0.0628-0.7312 0.0000 (  2728 PWs)   bands (ev):

   -15.3116 -12.9748 -10.1688  -2.5893  -2.1311  -1.6821   9.0283   9.3105

          k = 0.0628-0.7292 0.0000 (  2730 PWs)   bands (ev):

   -15.3221 -12.9636 -10.1667  -2.6162  -2.1293  -1.6553   9.0188   9.2689

          k = 0.0628-0.7272 0.0000 (  2730 PWs)   bands (ev):

   -15.3330 -12.9518 -10.1645  -2.6431  -2.1273  -1.6285   9.0088   9.2274

          k = 0.0628-0.7252 0.0000 (  2730 PWs)   bands (ev):

   -15.3445 -12.9395 -10.1622  -2.6701  -2.1252  -1.6016   8.9981   9.1857

          k = 0.0628-0.7232 0.0000 (  2730 PWs)   bands (ev):

   -15.3565 -12.9266 -10.1597  -2.6971  -2.1230  -1.5747   8.9867   9.1441

          k = 0.0628-0.7212 0.0000 (  2730 PWs)   bands (ev):

   -15.3689 -12.9132 -10.1571  -2.7241  -2.1206  -1.5478   8.9747   9.1025

          k = 0.0628-0.7192 0.0000 (  2731 PWs)   bands (ev):

   -15.3818 -12.8994 -10.1544  -2.7512  -2.1182  -1.5209   8.9620   9.0610

          k = 0.0628-0.7172 0.0000 (  2729 PWs)   bands (ev):

   -15.3950 -12.8851 -10.1515  -2.7782  -2.1157  -1.4940   8.9487   9.0194

          k = 0.0628-0.7152 0.0000 (  2729 PWs)   bands (ev):

   -15.4088 -12.8703 -10.1485  -2.8053  -2.1130  -1.4671   8.9347   8.9779

          k = 0.0628-0.7132 0.0000 (  2727 PWs)   bands (ev):

   -15.4229 -12.8551 -10.1454  -2.8324  -2.1102  -1.4402   8.9200   8.9364

          k = 0.0628-0.7112 0.0000 (  2733 PWs)   bands (ev):

   -15.4374 -12.8394 -10.1422  -2.8596  -2.1073  -1.4132   8.8950   8.9046

          k = 0.0648-0.7912 0.0000 (  2732 PWs)   bands (ev):

   -15.2882 -12.9986 -10.1824  -2.5225  -2.1183  -1.7503   9.0401   9.4185

          k = 0.0648-0.7892 0.0000 (  2736 PWs)   bands (ev):

   -15.2797 -13.0077 -10.1840  -2.4960  -2.1198  -1.7768   9.0472   9.4597

          k = 0.0648-0.7872 0.0000 (  2736 PWs)   bands (ev):

   -15.2718 -13.0161 -10.1856  -2.4696  -2.1212  -1.8031   9.0537   9.5008

          k = 0.0648-0.7852 0.0000 (  2734 PWs)   bands (ev):

   -15.2644 -13.0240 -10.1870  -2.4433  -2.1224  -1.8292   9.0597   9.5417

          k = 0.0648-0.7832 0.0000 (  2734 PWs)   bands (ev):

   -15.2577 -13.0311 -10.1884  -2.4173  -2.1236  -1.8552   9.0650   9.5824

          k = 0.0648-0.7812 0.0000 (  2736 PWs)   bands (ev):

   -15.2516 -13.0377 -10.1895  -2.3915  -2.1246  -1.8809   9.0699   9.6226

          k = 0.0648-0.7792 0.0000 (  2736 PWs)   bands (ev):

   -15.2461 -13.0435 -10.1906  -2.3661  -2.1255  -1.9062   9.0741   9.6623

          k = 0.0648-0.7772 0.0000 (  2736 PWs)   bands (ev):

   -15.2413 -13.0487 -10.1915  -2.3412  -2.1263  -1.9311   9.0779   9.7012

          k = 0.0648-0.7752 0.0000 (  2736 PWs)   bands (ev):

   -15.2371 -13.0531 -10.1923  -2.3171  -2.1270  -1.9552   9.0811   9.7391

          k = 0.0648-0.7732 0.0000 (  2732 PWs)   bands (ev):

   -15.2335 -13.0569 -10.1930  -2.2939  -2.1276  -1.9783   9.0838   9.7754

          k = 0.0648-0.7712 0.0000 (  2730 PWs)   bands (ev):

   -15.2306 -13.0599 -10.1935  -2.2723  -2.1281  -1.9998   9.0859   9.8093

          k = 0.0648-0.7692 0.0000 (  2730 PWs)   bands (ev):

   -15.2284 -13.0623 -10.1939  -2.2532  -2.1284  -2.0188   9.0876   9.8395

          k = 0.0648-0.7672 0.0000 (  2732 PWs)   bands (ev):

   -15.2269 -13.0639 -10.1942  -2.2380  -2.1287  -2.0341   9.0887   9.8636

          k = 0.0648-0.7652 0.0000 (  2730 PWs)   bands (ev):

   -15.2261 -13.0647 -10.1944  -2.2285  -2.1288  -2.0435   9.0893   9.8788

          k = 0.0648-0.7632 0.0000 (  2730 PWs)   bands (ev):

   -15.2259 -13.0649 -10.1945  -2.2266  -2.1288  -2.0454   9.0894   9.8819

          k = 0.0648-0.7612 0.0000 (  2730 PWs)   bands (ev):

   -15.2264 -13.0643 -10.1944  -2.2328  -2.1288  -2.0393   9.0891   9.8723

          k = 0.0648-0.7592 0.0000 (  2732 PWs)   bands (ev):

   -15.2276 -13.0631 -10.1942  -2.2456  -2.1286  -2.0264   9.0881   9.8520

          k = 0.0648-0.7572 0.0000 (  2730 PWs)   bands (ev):

   -15.2295 -13.0611 -10.1938  -2.2631  -2.1283  -2.0089   9.0867   9.8244

          k = 0.0648-0.7552 0.0000 (  2732 PWs)   bands (ev):

   -15.2321 -13.0583 -10.1934  -2.2837  -2.1278  -1.9884   9.0848   9.7921

          k = 0.0648-0.7532 0.0000 (  2736 PWs)   bands (ev):

   -15.2353 -13.0549 -10.1928  -2.3062  -2.1273  -1.9660   9.0823   9.7568

          k = 0.0648-0.7512 0.0000 (  2736 PWs)   bands (ev):

   -15.2392 -13.0507 -10.1920  -2.3300  -2.1267  -1.9423   9.0794   9.7196

          k = 0.0648-0.7492 0.0000 (  2736 PWs)   bands (ev):

   -15.2438 -13.0459 -10.1912  -2.3546  -2.1259  -1.9177   9.0759   9.6811

          k = 0.0648-0.7472 0.0000 (  2736 PWs)   bands (ev):

   -15.2489 -13.0403 -10.1902  -2.3798  -2.1250  -1.8926   9.0718   9.6417

          k = 0.0648-0.7452 0.0000 (  2734 PWs)   bands (ev):

   -15.2548 -13.0341 -10.1891  -2.4054  -2.1240  -1.8670   9.0673   9.6018

          k = 0.0648-0.7432 0.0000 (  2734 PWs)   bands (ev):

   -15.2612 -13.0272 -10.1879  -2.4313  -2.1229  -1.8412   9.0622   9.5613

          k = 0.0648-0.7412 0.0000 (  2736 PWs)   bands (ev):

   -15.2683 -13.0197 -10.1865  -2.4575  -2.1218  -1.8151   9.0565   9.5205

          k = 0.0648-0.7392 0.0000 (  2736 PWs)   bands (ev):

   -15.2759 -13.0115 -10.1851  -2.4838  -2.1204  -1.7889   9.0502   9.4795

          k = 0.0648-0.7372 0.0000 (  2734 PWs)   bands (ev):

   -15.2842 -13.0027 -10.1834  -2.5103  -2.1190  -1.7625   9.0434   9.4383

          k = 0.0648-0.7352 0.0000 (  2732 PWs)   bands (ev):

   -15.2930 -12.9933 -10.1817  -2.5369  -2.1174  -1.7359   9.0360   9.3970

          k = 0.0648-0.7332 0.0000 (  2730 PWs)   bands (ev):

   -15.3023 -12.9832 -10.1798  -2.5636  -2.1158  -1.7093   9.0280   9.3555

          k = 0.0648-0.7312 0.0000 (  2730 PWs)   bands (ev):

   -15.3122 -12.9726 -10.1779  -2.5903  -2.1140  -1.6827   9.0194   9.3140

          k = 0.0648-0.7292 0.0000 (  2730 PWs)   bands (ev):

   -15.3227 -12.9614 -10.1757  -2.6171  -2.1122  -1.6560   9.0102   9.2725

          k = 0.0648-0.7272 0.0000 (  2730 PWs)   bands (ev):

   -15.3336 -12.9497 -10.1735  -2.6440  -2.1102  -1.6292   9.0004   9.2309

          k = 0.0648-0.7252 0.0000 (  2730 PWs)   bands (ev):

   -15.3451 -12.9374 -10.1711  -2.6709  -2.1081  -1.6024   8.9900   9.1893

          k = 0.0648-0.7232 0.0000 (  2730 PWs)   bands (ev):

   -15.3570 -12.9246 -10.1686  -2.6979  -2.1059  -1.5756   8.9789   9.1477

          k = 0.0648-0.7212 0.0000 (  2730 PWs)   bands (ev):

   -15.3694 -12.9113 -10.1660  -2.7248  -2.1035  -1.5488   8.9671   9.1061

          k = 0.0648-0.7192 0.0000 (  2730 PWs)   bands (ev):

   -15.3822 -12.8976 -10.1632  -2.7518  -2.1011  -1.5220   8.9547   9.0646

          k = 0.0648-0.7172 0.0000 (  2730 PWs)   bands (ev):

   -15.3955 -12.8833 -10.1603  -2.7788  -2.0986  -1.4951   8.9417   9.0230

          k = 0.0648-0.7152 0.0000 (  2729 PWs)   bands (ev):

   -15.4091 -12.8686 -10.1573  -2.8058  -2.0959  -1.4683   8.9280   8.9815

          k = 0.0648-0.7132 0.0000 (  2731 PWs)   bands (ev):

   -15.4232 -12.8534 -10.1542  -2.8329  -2.0931  -1.4414   8.9136   8.9400

          k = 0.0648-0.7112 0.0000 (  2731 PWs)   bands (ev):

   -15.4377 -12.8379 -10.1509  -2.8600  -2.0902  -1.4145   8.8983   8.8989

          k = 0.0668-0.7912 0.0000 (  2732 PWs)   bands (ev):

   -15.2890 -12.9962 -10.1916  -2.5239  -2.1007  -1.7506   9.0305   9.4221

          k = 0.0668-0.7892 0.0000 (  2736 PWs)   bands (ev):

   -15.2805 -13.0052 -10.1933  -2.4974  -2.1022  -1.7770   9.0374   9.4633

          k = 0.0668-0.7872 0.0000 (  2736 PWs)   bands (ev):

   -15.2726 -13.0136 -10.1949  -2.4711  -2.1036  -1.8032   9.0437   9.5044

          k = 0.0668-0.7852 0.0000 (  2734 PWs)   bands (ev):

   -15.2653 -13.0214 -10.1964  -2.4450  -2.1048  -1.8292   9.0495   9.5453

          k = 0.0668-0.7832 0.0000 (  2734 PWs)   bands (ev):

   -15.2586 -13.0286 -10.1977  -2.4191  -2.1059  -1.8550   9.0547   9.5859

          k = 0.0668-0.7812 0.0000 (  2734 PWs)   bands (ev):

   -15.2525 -13.0350 -10.1989  -2.3935  -2.1070  -1.8805   9.0594   9.6261

          k = 0.0668-0.7792 0.0000 (  2736 PWs)   bands (ev):

   -15.2470 -13.0408 -10.1999  -2.3683  -2.1079  -1.9057   9.0635   9.6658

          k = 0.0668-0.7772 0.0000 (  2736 PWs)   bands (ev):

   -15.2422 -13.0460 -10.2009  -2.3437  -2.1087  -1.9303   9.0672   9.7047

          k = 0.0668-0.7752 0.0000 (  2736 PWs)   bands (ev):

   -15.2380 -13.0504 -10.2017  -2.3198  -2.1094  -1.9541   9.0703   9.7426

          k = 0.0668-0.7732 0.0000 (  2736 PWs)   bands (ev):

   -15.2345 -13.0541 -10.2024  -2.2970  -2.1100  -1.9768   9.0729   9.7788

          k = 0.0668-0.7712 0.0000 (  2734 PWs)   bands (ev):

   -15.2316 -13.0572 -10.2029  -2.2758  -2.1105  -1.9979   9.0750   9.8127

          k = 0.0668-0.7692 0.0000 (  2730 PWs)   bands (ev):

   -15.2294 -13.0595 -10.2033  -2.2572  -2.1108  -2.0165   9.0766   9.8428

          k = 0.0668-0.7672 0.0000 (  2730 PWs)   bands (ev):

   -15.2279 -13.0611 -10.2036  -2.2425  -2.1111  -2.0312   9.0777   9.8670

          k = 0.0668-0.7652 0.0000 (  2730 PWs)   bands (ev):

   -15.2271 -13.0620 -10.2038  -2.2334  -2.1112  -2.0403   9.0783   9.8821

          k = 0.0668-0.7632 0.0000 (  2730 PWs)   bands (ev):

   -15.2269 -13.0621 -10.2039  -2.2316  -2.1112  -2.0421   9.0784   9.8852

          k = 0.0668-0.7612 0.0000 (  2730 PWs)   bands (ev):

   -15.2274 -13.0616 -10.2038  -2.2375  -2.1111  -2.0362   9.0780   9.8756

          k = 0.0668-0.7592 0.0000 (  2730 PWs)   bands (ev):

   -15.2286 -13.0603 -10.2035  -2.2499  -2.1109  -2.0238   9.0771   9.8553

          k = 0.0668-0.7572 0.0000 (  2732 PWs)   bands (ev):

   -15.2305 -13.0583 -10.2032  -2.2669  -2.1106  -2.0068   9.0758   9.8278

          k = 0.0668-0.7552 0.0000 (  2734 PWs)   bands (ev):

   -15.2331 -13.0556 -10.2027  -2.2870  -2.1102  -1.9867   9.0739   9.7955

          k = 0.0668-0.7532 0.0000 (  2736 PWs)   bands (ev):

   -15.2363 -13.0522 -10.2021  -2.3092  -2.1097  -1.9647   9.0715   9.7602

          k = 0.0668-0.7512 0.0000 (  2736 PWs)   bands (ev):

   -15.2402 -13.0480 -10.2014  -2.3326  -2.1090  -1.9413   9.0686   9.7231

          k = 0.0668-0.7492 0.0000 (  2736 PWs)   bands (ev):

   -15.2447 -13.0432 -10.2006  -2.3569  -2.1083  -1.9170   9.0652   9.6846

          k = 0.0668-0.7472 0.0000 (  2734 PWs)   bands (ev):

   -15.2499 -13.0377 -10.1996  -2.3819  -2.1074  -1.8921   9.0613   9.6453

          k = 0.0668-0.7452 0.0000 (  2734 PWs)   bands (ev):

   -15.2557 -13.0315 -10.1985  -2.4073  -2.1064  -1.8668   9.0569   9.6053

          k = 0.0668-0.7432 0.0000 (  2734 PWs)   bands (ev):

   -15.2621 -13.0247 -10.1972  -2.4331  -2.1053  -1.8411   9.0519   9.5649

          k = 0.0668-0.7412 0.0000 (  2734 PWs)   bands (ev):

   -15.2691 -13.0172 -10.1958  -2.4591  -2.1041  -1.8151   9.0464   9.5241

          k = 0.0668-0.7392 0.0000 (  2736 PWs)   bands (ev):

   -15.2767 -13.0090 -10.1944  -2.4853  -2.1028  -1.7890   9.0403   9.4831

          k = 0.0668-0.7372 0.0000 (  2734 PWs)   bands (ev):

   -15.2850 -13.0003 -10.1927  -2.5117  -2.1014  -1.7627   9.0337   9.4419

          k = 0.0668-0.7352 0.0000 (  2732 PWs)   bands (ev):

   -15.2937 -12.9909 -10.1910  -2.5382  -2.0998  -1.7363   9.0265   9.4006

          k = 0.0668-0.7332 0.0000 (  2730 PWs)   bands (ev):

   -15.3031 -12.9809 -10.1891  -2.5648  -2.0982  -1.7098   9.0187   9.3592

          k = 0.0668-0.7312 0.0000 (  2730 PWs)   bands (ev):

   -15.3129 -12.9703 -10.1871  -2.5914  -2.0964  -1.6833   9.0104   9.3177

          k = 0.0668-0.7292 0.0000 (  2732 PWs)   bands (ev):

   -15.3233 -12.9592 -10.1849  -2.6182  -2.0945  -1.6567   9.0014   9.2761

          k = 0.0668-0.7272 0.0000 (  2730 PWs)   bands (ev):

   -15.3343 -12.9475 -10.1826  -2.6450  -2.0926  -1.6300   8.9918   9.2346

          k = 0.0668-0.7252 0.0000 (  2730 PWs)   bands (ev):

   -15.3457 -12.9353 -10.1802  -2.6718  -2.0905  -1.6033   8.9816   9.1930

          k = 0.0668-0.7232 0.0000 (  2730 PWs)   bands (ev):

   -15.3575 -12.9226 -10.1777  -2.6987  -2.0883  -1.5765   8.9708   9.1514

          k = 0.0668-0.7212 0.0000 (  2730 PWs)   bands (ev):

   -15.3699 -12.9094 -10.1750  -2.7256  -2.0859  -1.5498   8.9594   9.1098

          k = 0.0668-0.7192 0.0000 (  2730 PWs)   bands (ev):

   -15.3827 -12.8957 -10.1722  -2.7525  -2.0835  -1.5230   8.9473   9.0683

          k = 0.0668-0.7172 0.0000 (  2730 PWs)   bands (ev):

   -15.3959 -12.8815 -10.1693  -2.7795  -2.0810  -1.4962   8.9345   9.0267

          k = 0.0668-0.7152 0.0000 (  2732 PWs)   bands (ev):

   -15.4095 -12.8668 -10.1663  -2.8065  -2.0783  -1.4694   8.9211   8.9852

          k = 0.0668-0.7132 0.0000 (  2730 PWs)   bands (ev):

   -15.4236 -12.8518 -10.1631  -2.8334  -2.0755  -1.4427   8.9070   8.9438

          k = 0.0668-0.7112 0.0000 (  2729 PWs)   bands (ev):

   -15.4380 -12.8363 -10.1598  -2.8604  -2.0727  -1.4158   8.8923   8.9024

          k = 0.0688-0.7912 0.0000 (  2734 PWs)   bands (ev):

   -15.2898 -12.9937 -10.2011  -2.5253  -2.0826  -1.7509   9.0207   9.4258

          k = 0.0688-0.7892 0.0000 (  2736 PWs)   bands (ev):

   -15.2814 -13.0027 -10.2028  -2.4990  -2.0841  -1.7772   9.0274   9.4670

          k = 0.0688-0.7872 0.0000 (  2734 PWs)   bands (ev):

   -15.2735 -13.0110 -10.2044  -2.4728  -2.0854  -1.8032   9.0335   9.5081

          k = 0.0688-0.7852 0.0000 (  2734 PWs)   bands (ev):

   -15.2662 -13.0188 -10.2059  -2.4468  -2.0867  -1.8291   9.0391   9.5490

          k = 0.0688-0.7832 0.0000 (  2734 PWs)   bands (ev):

   -15.2595 -13.0259 -10.2072  -2.4211  -2.0878  -1.8548   9.0442   9.5895

          k = 0.0688-0.7812 0.0000 (  2734 PWs)   bands (ev):

   -15.2534 -13.0323 -10.2084  -2.3957  -2.0889  -1.8801   9.0487   9.6297

          k = 0.0688-0.7792 0.0000 (  2734 PWs)   bands (ev):

   -15.2480 -13.0381 -10.2095  -2.3707  -2.0898  -1.9050   9.0527   9.6694

          k = 0.0688-0.7772 0.0000 (  2736 PWs)   bands (ev):

   -15.2432 -13.0432 -10.2105  -2.3463  -2.0906  -1.9293   9.0562   9.7083

          k = 0.0688-0.7752 0.0000 (  2736 PWs)   bands (ev):

   -15.2390 -13.0476 -10.2113  -2.3227  -2.0913  -1.9529   9.0593   9.7461

          k = 0.0688-0.7732 0.0000 (  2736 PWs)   bands (ev):

   -15.2355 -13.0513 -10.2120  -2.3003  -2.0919  -1.9753   9.0618   9.7823

          k = 0.0688-0.7712 0.0000 (  2734 PWs)   bands (ev):

   -15.2327 -13.0543 -10.2125  -2.2795  -2.0923  -1.9959   9.0638   9.8162

          k = 0.0688-0.7692 0.0000 (  2732 PWs)   bands (ev):

   -15.2305 -13.0566 -10.2130  -2.2614  -2.0927  -2.0140   9.0654   9.8462

          k = 0.0688-0.7672 0.0000 (  2732 PWs)   bands (ev):

   -15.2290 -13.0582 -10.2133  -2.2472  -2.0930  -2.0282   9.0664   9.8704

          k = 0.0688-0.7652 0.0000 (  2730 PWs)   bands (ev):

   -15.2281 -13.0591 -10.2134  -2.2384  -2.0931  -2.0369   9.0670   9.8855

          k = 0.0688-0.7632 0.0000 (  2730 PWs)   bands (ev):

   -15.2280 -13.0593 -10.2135  -2.2367  -2.0931  -2.0386   9.0671   9.8886

          k = 0.0688-0.7612 0.0000 (  2728 PWs)   bands (ev):

   -15.2285 -13.0587 -10.2134  -2.2424  -2.0930  -2.0330   9.0667   9.8790

          k = 0.0688-0.7592 0.0000 (  2732 PWs)   bands (ev):

   -15.2297 -13.0574 -10.2132  -2.2543  -2.0928  -2.0211   9.0659   9.8588

          k = 0.0688-0.7572 0.0000 (  2734 PWs)   bands (ev):

   -15.2316 -13.0554 -10.2128  -2.2708  -2.0925  -2.0046   9.0646   9.8312

          k = 0.0688-0.7552 0.0000 (  2736 PWs)   bands (ev):

   -15.2341 -13.0528 -10.2124  -2.2905  -2.0921  -1.9850   9.0627   9.7990

          k = 0.0688-0.7532 0.0000 (  2736 PWs)   bands (ev):

   -15.2373 -13.0493 -10.2117  -2.3122  -2.0916  -1.9633   9.0604   9.7638

          k = 0.0688-0.7512 0.0000 (  2736 PWs)   bands (ev):

   -15.2412 -13.0452 -10.2110  -2.3353  -2.0909  -1.9402   9.0576   9.7266

          k = 0.0688-0.7492 0.0000 (  2734 PWs)   bands (ev):

   -15.2457 -13.0404 -10.2101  -2.3594  -2.0902  -1.9162   9.0544   9.6882

          k = 0.0688-0.7472 0.0000 (  2734 PWs)   bands (ev):

   -15.2508 -13.0350 -10.2091  -2.3841  -2.0893  -1.8916   9.0506   9.6489

          k = 0.0688-0.7452 0.0000 (  2734 PWs)   bands (ev):

   -15.2566 -13.0288 -10.2080  -2.4094  -2.0883  -1.8664   9.0463   9.6089

          k = 0.0688-0.7432 0.0000 (  2734 PWs)   bands (ev):

   -15.2630 -13.0220 -10.2068  -2.4350  -2.0872  -1.8409   9.0414   9.5685

          k = 0.0688-0.7412 0.0000 (  2734 PWs)   bands (ev):

   -15.2700 -13.0146 -10.2054  -2.4608  -2.0860  -1.8151   9.0361   9.5278

          k = 0.0688-0.7392 0.0000 (  2736 PWs)   bands (ev):

   -15.2776 -13.0065 -10.2039  -2.4869  -2.0847  -1.7891   9.0302   9.4868

          k = 0.0688-0.7372 0.0000 (  2734 PWs)   bands (ev):

   -15.2858 -12.9977 -10.2022  -2.5132  -2.0833  -1.7629   9.0237   9.4456

          k = 0.0688-0.7352 0.0000 (  2730 PWs)   bands (ev):

   -15.2945 -12.9884 -10.2004  -2.5395  -2.0817  -1.7367   9.0168   9.4043

          k = 0.0688-0.7332 0.0000 (  2730 PWs)   bands (ev):

   -15.3038 -12.9785 -10.1985  -2.5660  -2.0801  -1.7103   9.0092   9.3629

          k = 0.0688-0.7312 0.0000 (  2732 PWs)   bands (ev):

   -15.3137 -12.9680 -10.1965  -2.5926  -2.0783  -1.6838   9.0011   9.3214

          k = 0.0688-0.7292 0.0000 (  2732 PWs)   bands (ev):

   -15.3240 -12.9569 -10.1943  -2.6193  -2.0765  -1.6573   8.9923   9.2799

          k = 0.0688-0.7272 0.0000 (  2732 PWs)   bands (ev):

   -15.3349 -12.9453 -10.1920  -2.6460  -2.0745  -1.6307   8.9830   9.2383

          k = 0.0688-0.7252 0.0000 (  2732 PWs)   bands (ev):

   -15.3463 -12.9332 -10.1896  -2.6728  -2.0724  -1.6041   8.9731   9.1968

          k = 0.0688-0.7232 0.0000 (  2730 PWs)   bands (ev):

   -15.3581 -12.9205 -10.1870  -2.6996  -2.0702  -1.5774   8.9626   9.1552

          k = 0.0688-0.7212 0.0000 (  2730 PWs)   bands (ev):

   -15.3704 -12.9073 -10.1843  -2.7264  -2.0679  -1.5508   8.9514   9.1136

          k = 0.0688-0.7192 0.0000 (  2730 PWs)   bands (ev):

   -15.3832 -12.8937 -10.1815  -2.7533  -2.0654  -1.5241   8.9396   9.0721

          k = 0.0688-0.7172 0.0000 (  2732 PWs)   bands (ev):

   -15.3963 -12.8796 -10.1785  -2.7802  -2.0629  -1.4974   8.9271   9.0306

          k = 0.0688-0.7152 0.0000 (  2732 PWs)   bands (ev):

   -15.4099 -12.8650 -10.1754  -2.8071  -2.0603  -1.4706   8.9140   8.9891

          k = 0.0688-0.7132 0.0000 (  2730 PWs)   bands (ev):

   -15.4239 -12.8500 -10.1722  -2.8340  -2.0575  -1.4439   8.9003   8.9476

          k = 0.0688-0.7112 0.0000 (  2728 PWs)   bands (ev):

   -15.4383 -12.8346 -10.1688  -2.8609  -2.0546  -1.4172   8.8859   8.9062

          k = 0.0708-0.7912 0.0000 (  2732 PWs)   bands (ev):

   -15.2906 -12.9911 -10.2107  -2.5268  -2.0640  -1.7512   9.0106   9.4296

          k = 0.0708-0.7892 0.0000 (  2736 PWs)   bands (ev):

   -15.2822 -13.0001 -10.2125  -2.5006  -2.0655  -1.7773   9.0171   9.4708

          k = 0.0708-0.7872 0.0000 (  2734 PWs)   bands (ev):

   -15.2744 -13.0084 -10.2141  -2.4746  -2.0669  -1.8032   9.0231   9.5119

          k = 0.0708-0.7852 0.0000 (  2734 PWs)   bands (ev):

   -15.2671 -13.0161 -10.2156  -2.4487  -2.0681  -1.8290   9.0285   9.5527

          k = 0.0708-0.7832 0.0000 (  2734 PWs)   bands (ev):

   -15.2605 -13.0231 -10.2170  -2.4232  -2.0693  -1.8544   9.0334   9.5933

          k = 0.0708-0.7812 0.0000 (  2734 PWs)   bands (ev):

   -15.2544 -13.0295 -10.2182  -2.3980  -2.0703  -1.8796   9.0378   9.6335

          k = 0.0708-0.7792 0.0000 (  2734 PWs)   bands (ev):

   -15.2490 -13.0353 -10.2193  -2.3732  -2.0712  -1.9042   9.0417   9.6731

          k = 0.0708-0.7772 0.0000 (  2734 PWs)   bands (ev):

   -15.2442 -13.0404 -10.2203  -2.3491  -2.0720  -1.9283   9.0451   9.7120

          k = 0.0708-0.7752 0.0000 (  2736 PWs)   bands (ev):

   -15.2401 -13.0447 -10.2211  -2.3258  -2.0727  -1.9515   9.0480   9.7497

          k = 0.0708-0.7732 0.0000 (  2736 PWs)   bands (ev):

   -15.2366 -13.0484 -10.2218  -2.3037  -2.0733  -1.9735   9.0505   9.7860

          k = 0.0708-0.7712 0.0000 (  2734 PWs)   bands (ev):

   -15.2337 -13.0514 -10.2224  -2.2834  -2.0738  -1.9938   9.0524   9.8198

          k = 0.0708-0.7692 0.0000 (  2734 PWs)   bands (ev):

   -15.2316 -13.0537 -10.2228  -2.2658  -2.0741  -2.0114   9.0539   9.8498

          k = 0.0708-0.7672 0.0000 (  2732 PWs)   bands (ev):

   -15.2301 -13.0553 -10.2231  -2.2520  -2.0744  -2.0251   9.0550   9.8739

          k = 0.0708-0.7652 0.0000 (  2730 PWs)   bands (ev):

   -15.2292 -13.0562 -10.2233  -2.2436  -2.0745  -2.0334   9.0555   9.8889

          k = 0.0708-0.7632 0.0000 (  2732 PWs)   bands (ev):

   -15.2291 -13.0563 -10.2233  -2.2420  -2.0745  -2.0351   9.0556   9.8920

          k = 0.0708-0.7612 0.0000 (  2730 PWs)   bands (ev):

   -15.2296 -13.0558 -10.2232  -2.2474  -2.0744  -2.0297   9.0553   9.8824

          k = 0.0708-0.7592 0.0000 (  2734 PWs)   bands (ev):

   -15.2308 -13.0545 -10.2230  -2.2589  -2.0742  -2.0182   9.0544   9.8623

          k = 0.0708-0.7572 0.0000 (  2734 PWs)   bands (ev):

   -15.2326 -13.0525 -10.2227  -2.2749  -2.0739  -2.0022   9.0531   9.8348

          k = 0.0708-0.7552 0.0000 (  2736 PWs)   bands (ev):

   -15.2352 -13.0498 -10.2222  -2.2942  -2.0735  -1.9831   9.0514   9.8026

          k = 0.0708-0.7532 0.0000 (  2736 PWs)   bands (ev):

   -15.2384 -13.0465 -10.2216  -2.3155  -2.0730  -1.9618   9.0492   9.7674

          k = 0.0708-0.7512 0.0000 (  2734 PWs)   bands (ev):

   -15.2422 -13.0424 -10.2208  -2.3383  -2.0723  -1.9391   9.0465   9.7303

          k = 0.0708-0.7492 0.0000 (  2734 PWs)   bands (ev):

   -15.2467 -13.0376 -10.2199  -2.3620  -2.0716  -1.9153   9.0433   9.6919

          k = 0.0708-0.7472 0.0000 (  2734 PWs)   bands (ev):

   -15.2518 -13.0322 -10.2189  -2.3865  -2.0707  -1.8909   9.0396   9.6526

          k = 0.0708-0.7452 0.0000 (  2734 PWs)   bands (ev):

   -15.2576 -13.0260 -10.2178  -2.4116  -2.0697  -1.8660   9.0354   9.6127

          k = 0.0708-0.7432 0.0000 (  2734 PWs)   bands (ev):

   -15.2639 -13.0193 -10.2165  -2.4370  -2.0686  -1.8406   9.0307   9.5723

          k = 0.0708-0.7412 0.0000 (  2734 PWs)   bands (ev):

   -15.2709 -13.0119 -10.2151  -2.4627  -2.0674  -1.8150   9.0255   9.5315

          k = 0.0708-0.7392 0.0000 (  2734 PWs)   bands (ev):

   -15.2785 -13.0038 -10.2136  -2.4886  -2.0661  -1.7892   9.0198   9.4906

          k = 0.0708-0.7372 0.0000 (  2734 PWs)   bands (ev):

   -15.2866 -12.9951 -10.2119  -2.5147  -2.0647  -1.7631   9.0136   9.4494

          k = 0.0708-0.7352 0.0000 (  2730 PWs)   bands (ev):

   -15.2953 -12.9858 -10.2101  -2.5410  -2.0632  -1.7370   9.0068   9.4081

          k = 0.0708-0.7332 0.0000 (  2730 PWs)   bands (ev):

   -15.3046 -12.9760 -10.2082  -2.5674  -2.0615  -1.7107   8.9995   9.3667

          k = 0.0708-0.7312 0.0000 (  2732 PWs)   bands (ev):

   -15.3144 -12.9655 -10.2061  -2.5939  -2.0598  -1.6844   8.9916   9.3253

          k = 0.0708-0.7292 0.0000 (  2732 PWs)   bands (ev):

   -15.3248 -12.9545 -10.2039  -2.6205  -2.0579  -1.6579   8.9831   9.2838

          k = 0.0708-0.7272 0.0000 (  2732 PWs)   bands (ev):

   -15.3356 -12.9430 -10.2016  -2.6471  -2.0559  -1.6315   8.9740   9.2422

          k = 0.0708-0.7252 0.0000 (  2732 PWs)   bands (ev):

   -15.3469 -12.9309 -10.1991  -2.6738  -2.0539  -1.6049   8.9643   9.2007

          k = 0.0708-0.7232 0.0000 (  2732 PWs)   bands (ev):

   -15.3587 -12.9183 -10.1965  -2.7005  -2.0517  -1.5784   8.9541   9.1591

          k = 0.0708-0.7212 0.0000 (  2732 PWs)   bands (ev):

   -15.3710 -12.9053 -10.1938  -2.7273  -2.0493  -1.5518   8.9432   9.1175

          k = 0.0708-0.7192 0.0000 (  2732 PWs)   bands (ev):

   -15.3837 -12.8917 -10.1909  -2.7541  -2.0469  -1.5251   8.9317   9.0760

          k = 0.0708-0.7172 0.0000 (  2732 PWs)   bands (ev):

   -15.3968 -12.8777 -10.1879  -2.7809  -2.0444  -1.4985   8.9195   9.0345

          k = 0.0708-0.7152 0.0000 (  2730 PWs)   bands (ev):

   -15.4104 -12.8632 -10.1848  -2.8077  -2.0418  -1.4718   8.9068   8.9930

          k = 0.0708-0.7132 0.0000 (  2730 PWs)   bands (ev):

   -15.4243 -12.8483 -10.1815  -2.8346  -2.0390  -1.4452   8.8933   8.9516

          k = 0.0708-0.7112 0.0000 (  2730 PWs)   bands (ev):

   -15.4386 -12.8329 -10.1781  -2.8615  -2.0361  -1.4185   8.8792   8.9102

          k = 0.0728-0.7912 0.0000 (  2732 PWs)   bands (ev):

   -15.2915 -12.9885 -10.2206  -2.5284  -2.0450  -1.7514   9.0003   9.4335

          k = 0.0728-0.7892 0.0000 (  2734 PWs)   bands (ev):

   -15.2831 -12.9974 -10.2224  -2.5023  -2.0465  -1.7774   9.0066   9.4747

          k = 0.0728-0.7872 0.0000 (  2734 PWs)   bands (ev):

   -15.2753 -13.0057 -10.2240  -2.4765  -2.0479  -1.8032   9.0124   9.5158

          k = 0.0728-0.7852 0.0000 (  2734 PWs)   bands (ev):

   -15.2681 -13.0133 -10.2255  -2.4508  -2.0491  -1.8287   9.0177   9.5566

          k = 0.0728-0.7832 0.0000 (  2734 PWs)   bands (ev):

   -15.2615 -13.0203 -10.2269  -2.4254  -2.0502  -1.8540   9.0224   9.5971

          k = 0.0728-0.7812 0.0000 (  2734 PWs)   bands (ev):

   -15.2554 -13.0267 -10.2282  -2.4004  -2.0513  -1.8789   9.0267   9.6373

          k = 0.0728-0.7792 0.0000 (  2734 PWs)   bands (ev):

   -15.2500 -13.0324 -10.2293  -2.3759  -2.0522  -1.9034   9.0304   9.6769

          k = 0.0728-0.7772 0.0000 (  2734 PWs)   bands (ev):

   -15.2453 -13.0374 -10.2302  -2.3520  -2.0530  -1.9272   9.0337   9.7157

          k = 0.0728-0.7752 0.0000 (  2734 PWs)   bands (ev):

   -15.2411 -13.0418 -10.2311  -2.3290  -2.0537  -1.9501   9.0366   9.7535

          k = 0.0728-0.7732 0.0000 (  2736 PWs)   bands (ev):

   -15.2377 -13.0454 -10.2318  -2.3074  -2.0543  -1.9717   9.0389   9.7897

          k = 0.0728-0.7712 0.0000 (  2736 PWs)   bands (ev):

   -15.2349 -13.0484 -10.2324  -2.2875  -2.0547  -1.9915   9.0408   9.8234

          k = 0.0728-0.7692 0.0000 (  2734 PWs)   bands (ev):

   -15.2327 -13.0507 -10.2328  -2.2703  -2.0551  -2.0086   9.0423   9.8534

          k = 0.0728-0.7672 0.0000 (  2734 PWs)   bands (ev):

   -15.2312 -13.0523 -10.2331  -2.2570  -2.0553  -2.0219   9.0433   9.8775

          k = 0.0728-0.7652 0.0000 (  2732 PWs)   bands (ev):

   -15.2304 -13.0531 -10.2333  -2.2490  -2.0555  -2.0299   9.0438   9.8925

          k = 0.0728-0.7632 0.0000 (  2730 PWs)   bands (ev):

   -15.2302 -13.0533 -10.2333  -2.2474  -2.0555  -2.0314   9.0439   9.8956

          k = 0.0728-0.7612 0.0000 (  2732 PWs)   bands (ev):

   -15.2307 -13.0527 -10.2333  -2.2526  -2.0554  -2.0263   9.0436   9.8860

          k = 0.0728-0.7592 0.0000 (  2734 PWs)   bands (ev):

   -15.2319 -13.0515 -10.2330  -2.2637  -2.0552  -2.0152   9.0428   9.8659

          k = 0.0728-0.7572 0.0000 (  2734 PWs)   bands (ev):

   -15.2338 -13.0495 -10.2327  -2.2792  -2.0549  -1.9997   9.0415   9.8385

          k = 0.0728-0.7552 0.0000 (  2736 PWs)   bands (ev):

   -15.2363 -13.0468 -10.2322  -2.2980  -2.0545  -1.9810   9.0398   9.8063

          k = 0.0728-0.7532 0.0000 (  2734 PWs)   bands (ev):

   -15.2394 -13.0435 -10.2316  -2.3189  -2.0539  -1.9601   9.0377   9.7711

          k = 0.0728-0.7512 0.0000 (  2734 PWs)   bands (ev):

   -15.2433 -13.0394 -10.2308  -2.3413  -2.0533  -1.9378   9.0350   9.7341

          k = 0.0728-0.7492 0.0000 (  2734 PWs)   bands (ev):

   -15.2477 -13.0347 -10.2299  -2.3648  -2.0525  -1.9143   9.0320   9.6957

          k = 0.0728-0.7472 0.0000 (  2734 PWs)   bands (ev):

   -15.2528 -13.0293 -10.2289  -2.3891  -2.0517  -1.8902   9.0284   9.6564

          k = 0.0728-0.7452 0.0000 (  2734 PWs)   bands (ev):

   -15.2586 -13.0232 -10.2277  -2.4139  -2.0507  -1.8654   9.0244   9.6165

          k = 0.0728-0.7432 0.0000 (  2734 PWs)   bands (ev):

   -15.2649 -13.0165 -10.2265  -2.4391  -2.0496  -1.8403   9.0198   9.5761

          k = 0.0728-0.7412 0.0000 (  2734 PWs)   bands (ev):

   -15.2719 -13.0091 -10.2250  -2.4646  -2.0484  -1.8149   9.0148   9.5354

          k = 0.0728-0.7392 0.0000 (  2734 PWs)   bands (ev):

   -15.2794 -13.0011 -10.2235  -2.4904  -2.0471  -1.7892   9.0093   9.4945

          k = 0.0728-0.7372 0.0000 (  2732 PWs)   bands (ev):

   -15.2875 -12.9925 -10.2218  -2.5164  -2.0457  -1.7633   9.0032   9.4533

          k = 0.0728-0.7352 0.0000 (  2732 PWs)   bands (ev):

   -15.2962 -12.9832 -10.2200  -2.5426  -2.0442  -1.7373   8.9966   9.4121

          k = 0.0728-0.7332 0.0000 (  2730 PWs)   bands (ev):

   -15.3054 -12.9734 -10.2180  -2.5689  -2.0425  -1.7111   8.9895   9.3707

          k = 0.0728-0.7312 0.0000 (  2732 PWs)   bands (ev):

   -15.3152 -12.9630 -10.2159  -2.5952  -2.0408  -1.6849   8.9818   9.3292

          k = 0.0728-0.7292 0.0000 (  2732 PWs)   bands (ev):

   -15.3255 -12.9521 -10.2137  -2.6217  -2.0389  -1.6585   8.9736   9.2877

          k = 0.0728-0.7272 0.0000 (  2732 PWs)   bands (ev):

   -15.3363 -12.9406 -10.2113  -2.6483  -2.0369  -1.6322   8.9648   9.2462

          k = 0.0728-0.7252 0.0000 (  2732 PWs)   bands (ev):

   -15.3476 -12.9286 -10.2088  -2.6749  -2.0348  -1.6057   8.9554   9.2047

          k = 0.0728-0.7232 0.0000 (  2732 PWs)   bands (ev):

   -15.3594 -12.9161 -10.2062  -2.7015  -2.0327  -1.5792   8.9454   9.1631

          k = 0.0728-0.7212 0.0000 (  2734 PWs)   bands (ev):

   -15.3716 -12.9031 -10.2034  -2.7282  -2.0304  -1.5527   8.9348   9.1216

          k = 0.0728-0.7192 0.0000 (  2734 PWs)   bands (ev):

   -15.3842 -12.8896 -10.2005  -2.7550  -2.0279  -1.5262   8.9236   9.0800

          k = 0.0728-0.7172 0.0000 (  2730 PWs)   bands (ev):

   -15.3973 -12.8757 -10.1975  -2.7817  -2.0254  -1.4996   8.9118   9.0385

          k = 0.0728-0.7152 0.0000 (  2730 PWs)   bands (ev):

   -15.4108 -12.8613 -10.1943  -2.8084  -2.0228  -1.4730   8.8993   8.9971

          k = 0.0728-0.7132 0.0000 (  2730 PWs)   bands (ev):

   -15.4247 -12.8464 -10.1910  -2.8352  -2.0200  -1.4465   8.8862   8.9556

          k = 0.0728-0.7112 0.0000 (  2730 PWs)   bands (ev):

   -15.4390 -12.8312 -10.1876  -2.8621  -2.0172  -1.4199   8.8724   8.9142

     Writing all to output data dir ./tmp/graphene26.5lower.save/ :
     XML data file, pseudopotentials, collected wavefunctions

     init_run     :      0.83s CPU      0.86s WALL (       1 calls)
     electrons    :     23.33s CPU     23.48s WALL (       1 calls)

     Called by init_run:
     wfcinit      :      0.00s CPU      0.01s WALL (       1 calls)
     wfcinit:atom :      0.04s CPU      0.04s WALL (     211 calls)
     wfcinit:wfcr :      1.43s CPU      1.43s WALL (     211 calls)
     potinit      :      0.04s CPU      0.05s WALL (       1 calls)
     hinit0       :      0.72s CPU      0.73s WALL (       1 calls)

     Called by electrons:
     c_bands      :     23.32s CPU     23.47s WALL (       1 calls)
     v_of_rho     :      0.02s CPU      0.02s WALL (       1 calls)
     v_h          :      0.00s CPU      0.00s WALL (       1 calls)
     v_xc         :      0.02s CPU      0.02s WALL (       1 calls)
     newd         :      0.00s CPU      0.00s WALL (       1 calls)
     PAW_pot      :      0.01s CPU      0.01s WALL (       1 calls)

     Called by c_bands:
     init_us_2    :      0.06s CPU      0.06s WALL (     211 calls)
     cegterg      :     18.34s CPU     18.45s WALL (     424 calls)

     Called by sum_band:

     Called by *egterg:
     cdiaghg      :      0.41s CPU      0.42s WALL (    6013 calls)
     cegterg:over :      0.78s CPU      0.79s WALL (    5802 calls)
     cegterg:upda :      0.74s CPU      0.74s WALL (    5802 calls)
     cegterg:last :      1.22s CPU      1.23s WALL (    2898 calls)
     h_psi        :     15.38s CPU     15.46s WALL (    6437 calls)
     s_psi        :      0.62s CPU      0.62s WALL (    6437 calls)
     g_psi        :      0.25s CPU      0.25s WALL (    5802 calls)

     Called by h_psi:
     h_psi:calbec :      0.70s CPU      0.70s WALL (    6437 calls)
     vloc_psi     :     13.94s CPU     14.02s WALL (    6437 calls)
     add_vuspsi   :      0.64s CPU      0.65s WALL (    6437 calls)

     General routines
     calbec       :      0.69s CPU      0.70s WALL (    6437 calls)
     fft          :      0.65s CPU      0.65s WALL (      12 calls)
     fftw         :     11.61s CPU     11.68s WALL (   52644 calls)
     davcio       :      0.03s CPU      0.04s WALL (     422 calls)

     Parallel routines

     PAW routines
     PAW_pot      :      0.01s CPU      0.01s WALL (       1 calls)

     PWSCF        :     24.46s CPU     33.57s WALL


   This run was terminated on:  22:24:55  21Apr2026            

=------------------------------------------------------------------------------=
   JOB DONE.
=------------------------------------------------------------------------------=
