
     Program PWSCF v.7.3.1 starts on 21Apr2026 at 18:59:14 

     This program is part of the open-source Quantum ESPRESSO suite
     for quantum simulation of materials; please cite
         "P. Giannozzi et al., J. Phys.:Condens. Matter 21 395502 (2009);
         "P. Giannozzi et al., J. Phys.:Condens. Matter 29 465901 (2017);
         "P. Giannozzi et al., J. Chem. Phys. 152 154105 (2020);
          URL http://www.quantum-espresso.org", 
     in publications or presentations arising from this work. More details at
     http://www.quantum-espresso.org/quote

     Parallel version (MPI & OpenMP), running on       8 processor cores
     Number of MPI processes:                 8
     Threads/MPI process:                     1

     MPI processes distributed on     1 nodes
     25378 MiB available memory on the printing compute node when the environment starts

     Reading input from ./io/relax10.0.in

     Current dimensions of program PWSCF are:
     Max number of different atomic species (ntypx) = 10
     Max number of k-points (npk) =  40000
     Max angular momentum in pseudopotentials (lmaxx) =  4
     file C.pbe-n-kjpaw_psl.1.0.0.UPF: wavefunction(s)  2S 2P renormalized

     IMPORTANT: XC functional enforced from input :
     Exchange-correlation= PBE
                           (   1   4   3   4   0   0   0)
     Any further DFT definition will be discarded
     Please, verify this is what you really want


     K-points division:     npool     =       8
     Subspace diagonalization in iterative solution of the eigenvalue problem:
     a serial algorithm will be used


     G-vector sticks info
     --------------------
     sticks:   dense  smooth     PW     G-vecs:    dense   smooth      PW
     Sum         257     257     95                19471    19471    4279

     Using Slab Decomposition



     bravais-lattice index     =            0
     lattice parameter (alat)  =       5.0885  a.u.
     unit-cell volume          =     568.3206 (a.u.)^3
     number of atoms/cell      =            2
     number of atomic types    =            1
     number of electrons       =         8.00
     number of Kohn-Sham states=            8
     kinetic-energy cutoff     =      40.0000  Ry
     charge density cutoff     =     160.0000  Ry
     scf convergence threshold =      1.0E-08
     mixing beta               =       0.7000
     number of iterations used =            8  plain     mixing
     energy convergence thresh.=      1.0E-05
     force convergence thresh. =      1.0E-04
     Exchange-correlation= PBE
                           (   1   4   3   4   0   0   0)
     nstep                     =           50


     celldm(1)=   5.088516  celldm(2)=   0.000000  celldm(3)=   0.000000
     celldm(4)=   0.000000  celldm(5)=   0.000000  celldm(6)=   0.000000

     crystal axes: (cart. coord. in units of alat)
               a(1) = (   1.000000   0.000000   0.000000 )  
               a(2) = (   0.500000   0.774306   0.000000 )  
               a(3) = (   0.000000   0.000000   5.570672 )  

     reciprocal axes: (cart. coord. in units 2 pi/alat)
               b(1) = (  1.000000 -0.645740  0.000000 )  
               b(2) = (  0.000000  1.291480  0.000000 )  
               b(3) = (  0.000000  0.000000  0.179512 )  


     PseudoPot. # 1 for C  read from file:
     ./C.pbe-n-kjpaw_psl.1.0.0.UPF
     MD5 check sum: 5f16ad9a65e90284d1d834d4ab3b0f7d
     Pseudo is Projector augmented-wave + core cor, Zval =  4.0
     Generated using &quot;atomic&quot; code by A. Dal Corso  v.6.3
     Shape of augmentation charge: PSQ
     Using radial grid of 1073 points,  4 beta functions with: 
                l(1) =   0
                l(2) =   0
                l(3) =   1
                l(4) =   1
     Q(r) pseudized with 0 coefficients 


     atomic species   valence    mass     pseudopotential
     C                 4.00    12.01100     C ( 1.00)

     No symmetry found


                                    s                        frac. trans.

      isym =  1     identity                                     

 cryst.   s( 1) = (     1          0          0      )
                  (     0          1          0      )
                  (     0          0          1      )

 cart.    s( 1) = (  1.0000000  0.0000000  0.0000000 )
                  (  0.0000000  1.0000000  0.0000000 )
                  (  0.0000000  0.0000000  1.0000000 )


   Cartesian axes

     site n.     atom                  positions (alat units)
         1        C      tau(   1) = (   0.0000000   0.0000000   0.0000000  )
         2        C      tau(   2) = (   0.4999995   0.2581016   0.0000000  )

   Crystallographic axes

     site n.     atom                  positions (cryst. coord.)
         1        C      tau(   1) = (  0.0000000  0.0000000  0.0000000  )
         2        C      tau(   2) = (  0.3333330  0.3333330  0.0000000  )

     number of k points=   576  Marzari-Vanderbilt smearing, width (Ry)=  0.0200
                       cart. coord. in units 2pi/alat
        k(    1) = (   0.0000000   0.0000000   0.0000000), wk =   0.0034722
        k(    2) = (   0.0000000   0.0538117   0.0000000), wk =   0.0034722
        k(    3) = (   0.0000000   0.1076233   0.0000000), wk =   0.0034722
        k(    4) = (   0.0000000   0.1614350   0.0000000), wk =   0.0034722
        k(    5) = (   0.0000000   0.2152466   0.0000000), wk =   0.0034722
        k(    6) = (   0.0000000   0.2690583   0.0000000), wk =   0.0034722
        k(    7) = (   0.0000000   0.3228700   0.0000000), wk =   0.0034722
        k(    8) = (   0.0000000   0.3766816   0.0000000), wk =   0.0034722
        k(    9) = (   0.0000000   0.4304933   0.0000000), wk =   0.0034722
        k(   10) = (   0.0000000   0.4843050   0.0000000), wk =   0.0034722
        k(   11) = (   0.0000000   0.5381166   0.0000000), wk =   0.0034722
        k(   12) = (   0.0000000   0.5919283   0.0000000), wk =   0.0034722
        k(   13) = (   0.0000000  -0.6457399   0.0000000), wk =   0.0034722
        k(   14) = (   0.0000000  -0.5919283   0.0000000), wk =   0.0034722
        k(   15) = (   0.0000000  -0.5381166   0.0000000), wk =   0.0034722
        k(   16) = (   0.0000000  -0.4843050   0.0000000), wk =   0.0034722
        k(   17) = (   0.0000000  -0.4304933   0.0000000), wk =   0.0034722
        k(   18) = (   0.0000000  -0.3766816   0.0000000), wk =   0.0034722
        k(   19) = (   0.0000000  -0.3228700   0.0000000), wk =   0.0034722
        k(   20) = (   0.0000000  -0.2690583   0.0000000), wk =   0.0034722
        k(   21) = (   0.0000000  -0.2152466   0.0000000), wk =   0.0034722
        k(   22) = (   0.0000000  -0.1614350   0.0000000), wk =   0.0034722
        k(   23) = (   0.0000000  -0.1076233   0.0000000), wk =   0.0034722
        k(   24) = (   0.0000000  -0.0538117   0.0000000), wk =   0.0034722
        k(   25) = (   0.0416667  -0.0269058   0.0000000), wk =   0.0034722
        k(   26) = (   0.0416667   0.0269058   0.0000000), wk =   0.0034722
        k(   27) = (   0.0416667   0.0807175   0.0000000), wk =   0.0034722
        k(   28) = (   0.0416667   0.1345292   0.0000000), wk =   0.0034722
        k(   29) = (   0.0416667   0.1883408   0.0000000), wk =   0.0034722
        k(   30) = (   0.0416667   0.2421525   0.0000000), wk =   0.0034722
        k(   31) = (   0.0416667   0.2959641   0.0000000), wk =   0.0034722
        k(   32) = (   0.0416667   0.3497758   0.0000000), wk =   0.0034722
        k(   33) = (   0.0416667   0.4035875   0.0000000), wk =   0.0034722
        k(   34) = (   0.0416667   0.4573991   0.0000000), wk =   0.0034722
        k(   35) = (   0.0416667   0.5112108   0.0000000), wk =   0.0034722
        k(   36) = (   0.0416667   0.5650225   0.0000000), wk =   0.0034722
        k(   37) = (   0.0416667  -0.6726458   0.0000000), wk =   0.0034722
        k(   38) = (   0.0416667  -0.6188341   0.0000000), wk =   0.0034722
        k(   39) = (   0.0416667  -0.5650225   0.0000000), wk =   0.0034722
        k(   40) = (   0.0416667  -0.5112108   0.0000000), wk =   0.0034722
        k(   41) = (   0.0416667  -0.4573991   0.0000000), wk =   0.0034722
        k(   42) = (   0.0416667  -0.4035875   0.0000000), wk =   0.0034722
        k(   43) = (   0.0416667  -0.3497758   0.0000000), wk =   0.0034722
        k(   44) = (   0.0416667  -0.2959641   0.0000000), wk =   0.0034722
        k(   45) = (   0.0416667  -0.2421525   0.0000000), wk =   0.0034722
        k(   46) = (   0.0416667  -0.1883408   0.0000000), wk =   0.0034722
        k(   47) = (   0.0416667  -0.1345292   0.0000000), wk =   0.0034722
        k(   48) = (   0.0416667  -0.0807175   0.0000000), wk =   0.0034722
        k(   49) = (   0.0833333  -0.0538117   0.0000000), wk =   0.0034722
        k(   50) = (   0.0833333  -0.0000000   0.0000000), wk =   0.0034722
        k(   51) = (   0.0833333   0.0538117   0.0000000), wk =   0.0034722
        k(   52) = (   0.0833333   0.1076233   0.0000000), wk =   0.0034722
        k(   53) = (   0.0833333   0.1614350   0.0000000), wk =   0.0034722
        k(   54) = (   0.0833333   0.2152466   0.0000000), wk =   0.0034722
        k(   55) = (   0.0833333   0.2690583   0.0000000), wk =   0.0034722
        k(   56) = (   0.0833333   0.3228700   0.0000000), wk =   0.0034722
        k(   57) = (   0.0833333   0.3766816   0.0000000), wk =   0.0034722
        k(   58) = (   0.0833333   0.4304933   0.0000000), wk =   0.0034722
        k(   59) = (   0.0833333   0.4843050   0.0000000), wk =   0.0034722
        k(   60) = (   0.0833333   0.5381166   0.0000000), wk =   0.0034722
        k(   61) = (   0.0833333  -0.6995516   0.0000000), wk =   0.0034722
        k(   62) = (   0.0833333  -0.6457399   0.0000000), wk =   0.0034722
        k(   63) = (   0.0833333  -0.5919283   0.0000000), wk =   0.0034722
        k(   64) = (   0.0833333  -0.5381166   0.0000000), wk =   0.0034722
        k(   65) = (   0.0833333  -0.4843050   0.0000000), wk =   0.0034722
        k(   66) = (   0.0833333  -0.4304933   0.0000000), wk =   0.0034722
        k(   67) = (   0.0833333  -0.3766816   0.0000000), wk =   0.0034722
        k(   68) = (   0.0833333  -0.3228700   0.0000000), wk =   0.0034722
        k(   69) = (   0.0833333  -0.2690583   0.0000000), wk =   0.0034722
        k(   70) = (   0.0833333  -0.2152466   0.0000000), wk =   0.0034722
        k(   71) = (   0.0833333  -0.1614350   0.0000000), wk =   0.0034722
        k(   72) = (   0.0833333  -0.1076233   0.0000000), wk =   0.0034722
        k(   73) = (   0.1250000  -0.0807175   0.0000000), wk =   0.0034722
        k(   74) = (   0.1250000  -0.0269058   0.0000000), wk =   0.0034722
        k(   75) = (   0.1250000   0.0269058   0.0000000), wk =   0.0034722
        k(   76) = (   0.1250000   0.0807175   0.0000000), wk =   0.0034722
        k(   77) = (   0.1250000   0.1345292   0.0000000), wk =   0.0034722
        k(   78) = (   0.1250000   0.1883408   0.0000000), wk =   0.0034722
        k(   79) = (   0.1250000   0.2421525   0.0000000), wk =   0.0034722
        k(   80) = (   0.1250000   0.2959641   0.0000000), wk =   0.0034722
        k(   81) = (   0.1250000   0.3497758   0.0000000), wk =   0.0034722
        k(   82) = (   0.1250000   0.4035875   0.0000000), wk =   0.0034722
        k(   83) = (   0.1250000   0.4573991   0.0000000), wk =   0.0034722
        k(   84) = (   0.1250000   0.5112108   0.0000000), wk =   0.0034722
        k(   85) = (   0.1250000  -0.7264574   0.0000000), wk =   0.0034722
        k(   86) = (   0.1250000  -0.6726458   0.0000000), wk =   0.0034722
        k(   87) = (   0.1250000  -0.6188341   0.0000000), wk =   0.0034722
        k(   88) = (   0.1250000  -0.5650225   0.0000000), wk =   0.0034722
        k(   89) = (   0.1250000  -0.5112108   0.0000000), wk =   0.0034722
        k(   90) = (   0.1250000  -0.4573991   0.0000000), wk =   0.0034722
        k(   91) = (   0.1250000  -0.4035875   0.0000000), wk =   0.0034722
        k(   92) = (   0.1250000  -0.3497758   0.0000000), wk =   0.0034722
        k(   93) = (   0.1250000  -0.2959641   0.0000000), wk =   0.0034722
        k(   94) = (   0.1250000  -0.2421525   0.0000000), wk =   0.0034722
        k(   95) = (   0.1250000  -0.1883408   0.0000000), wk =   0.0034722
        k(   96) = (   0.1250000  -0.1345292   0.0000000), wk =   0.0034722
        k(   97) = (   0.1666667  -0.1076233   0.0000000), wk =   0.0034722
        k(   98) = (   0.1666667  -0.0538117   0.0000000), wk =   0.0034722
        k(   99) = (   0.1666667  -0.0000000   0.0000000), wk =   0.0034722
        k(  100) = (   0.1666667   0.0538117   0.0000000), wk =   0.0034722
        k(  101) = (   0.1666667   0.1076233   0.0000000), wk =   0.0034722
        k(  102) = (   0.1666667   0.1614350   0.0000000), wk =   0.0034722
        k(  103) = (   0.1666667   0.2152466   0.0000000), wk =   0.0034722
        k(  104) = (   0.1666667   0.2690583   0.0000000), wk =   0.0034722
        k(  105) = (   0.1666667   0.3228700   0.0000000), wk =   0.0034722
        k(  106) = (   0.1666667   0.3766816   0.0000000), wk =   0.0034722
        k(  107) = (   0.1666667   0.4304933   0.0000000), wk =   0.0034722
        k(  108) = (   0.1666667   0.4843050   0.0000000), wk =   0.0034722
        k(  109) = (   0.1666667  -0.7533633   0.0000000), wk =   0.0034722
        k(  110) = (   0.1666667  -0.6995516   0.0000000), wk =   0.0034722
        k(  111) = (   0.1666667  -0.6457399   0.0000000), wk =   0.0034722
        k(  112) = (   0.1666667  -0.5919283   0.0000000), wk =   0.0034722
        k(  113) = (   0.1666667  -0.5381166   0.0000000), wk =   0.0034722
        k(  114) = (   0.1666667  -0.4843050   0.0000000), wk =   0.0034722
        k(  115) = (   0.1666667  -0.4304933   0.0000000), wk =   0.0034722
        k(  116) = (   0.1666667  -0.3766816   0.0000000), wk =   0.0034722
        k(  117) = (   0.1666667  -0.3228700   0.0000000), wk =   0.0034722
        k(  118) = (   0.1666667  -0.2690583   0.0000000), wk =   0.0034722
        k(  119) = (   0.1666667  -0.2152466   0.0000000), wk =   0.0034722
        k(  120) = (   0.1666667  -0.1614350   0.0000000), wk =   0.0034722
        k(  121) = (   0.2083333  -0.1345292   0.0000000), wk =   0.0034722
        k(  122) = (   0.2083333  -0.0807175   0.0000000), wk =   0.0034722
        k(  123) = (   0.2083333  -0.0269058   0.0000000), wk =   0.0034722
        k(  124) = (   0.2083333   0.0269058   0.0000000), wk =   0.0034722
        k(  125) = (   0.2083333   0.0807175   0.0000000), wk =   0.0034722
        k(  126) = (   0.2083333   0.1345292   0.0000000), wk =   0.0034722
        k(  127) = (   0.2083333   0.1883408   0.0000000), wk =   0.0034722
        k(  128) = (   0.2083333   0.2421525   0.0000000), wk =   0.0034722
        k(  129) = (   0.2083333   0.2959641   0.0000000), wk =   0.0034722
        k(  130) = (   0.2083333   0.3497758   0.0000000), wk =   0.0034722
        k(  131) = (   0.2083333   0.4035875   0.0000000), wk =   0.0034722
        k(  132) = (   0.2083333   0.4573991   0.0000000), wk =   0.0034722
        k(  133) = (   0.2083333  -0.7802691   0.0000000), wk =   0.0034722
        k(  134) = (   0.2083333  -0.7264574   0.0000000), wk =   0.0034722
        k(  135) = (   0.2083333  -0.6726458   0.0000000), wk =   0.0034722
        k(  136) = (   0.2083333  -0.6188341   0.0000000), wk =   0.0034722
        k(  137) = (   0.2083333  -0.5650225   0.0000000), wk =   0.0034722
        k(  138) = (   0.2083333  -0.5112108   0.0000000), wk =   0.0034722
        k(  139) = (   0.2083333  -0.4573991   0.0000000), wk =   0.0034722
        k(  140) = (   0.2083333  -0.4035875   0.0000000), wk =   0.0034722
        k(  141) = (   0.2083333  -0.3497758   0.0000000), wk =   0.0034722
        k(  142) = (   0.2083333  -0.2959641   0.0000000), wk =   0.0034722
        k(  143) = (   0.2083333  -0.2421525   0.0000000), wk =   0.0034722
        k(  144) = (   0.2083333  -0.1883408   0.0000000), wk =   0.0034722
        k(  145) = (   0.2500000  -0.1614350   0.0000000), wk =   0.0034722
        k(  146) = (   0.2500000  -0.1076233   0.0000000), wk =   0.0034722
        k(  147) = (   0.2500000  -0.0538117   0.0000000), wk =   0.0034722
        k(  148) = (   0.2500000   0.0000000   0.0000000), wk =   0.0034722
        k(  149) = (   0.2500000   0.0538117   0.0000000), wk =   0.0034722
        k(  150) = (   0.2500000   0.1076233   0.0000000), wk =   0.0034722
        k(  151) = (   0.2500000   0.1614350   0.0000000), wk =   0.0034722
        k(  152) = (   0.2500000   0.2152466   0.0000000), wk =   0.0034722
        k(  153) = (   0.2500000   0.2690583   0.0000000), wk =   0.0034722
        k(  154) = (   0.2500000   0.3228700   0.0000000), wk =   0.0034722
        k(  155) = (   0.2500000   0.3766816   0.0000000), wk =   0.0034722
        k(  156) = (   0.2500000   0.4304933   0.0000000), wk =   0.0034722
        k(  157) = (   0.2500000  -0.8071749   0.0000000), wk =   0.0034722
        k(  158) = (   0.2500000  -0.7533633   0.0000000), wk =   0.0034722
        k(  159) = (   0.2500000  -0.6995516   0.0000000), wk =   0.0034722
        k(  160) = (   0.2500000  -0.6457399   0.0000000), wk =   0.0034722
        k(  161) = (   0.2500000  -0.5919283   0.0000000), wk =   0.0034722
        k(  162) = (   0.2500000  -0.5381166   0.0000000), wk =   0.0034722
        k(  163) = (   0.2500000  -0.4843050   0.0000000), wk =   0.0034722
        k(  164) = (   0.2500000  -0.4304933   0.0000000), wk =   0.0034722
        k(  165) = (   0.2500000  -0.3766816   0.0000000), wk =   0.0034722
        k(  166) = (   0.2500000  -0.3228700   0.0000000), wk =   0.0034722
        k(  167) = (   0.2500000  -0.2690583   0.0000000), wk =   0.0034722
        k(  168) = (   0.2500000  -0.2152466   0.0000000), wk =   0.0034722
        k(  169) = (   0.2916667  -0.1883408   0.0000000), wk =   0.0034722
        k(  170) = (   0.2916667  -0.1345292   0.0000000), wk =   0.0034722
        k(  171) = (   0.2916667  -0.0807175   0.0000000), wk =   0.0034722
        k(  172) = (   0.2916667  -0.0269058   0.0000000), wk =   0.0034722
        k(  173) = (   0.2916667   0.0269058   0.0000000), wk =   0.0034722
        k(  174) = (   0.2916667   0.0807175   0.0000000), wk =   0.0034722
        k(  175) = (   0.2916667   0.1345292   0.0000000), wk =   0.0034722
        k(  176) = (   0.2916667   0.1883408   0.0000000), wk =   0.0034722
        k(  177) = (   0.2916667   0.2421525   0.0000000), wk =   0.0034722
        k(  178) = (   0.2916667   0.2959641   0.0000000), wk =   0.0034722
        k(  179) = (   0.2916667   0.3497758   0.0000000), wk =   0.0034722
        k(  180) = (   0.2916667   0.4035875   0.0000000), wk =   0.0034722
        k(  181) = (   0.2916667  -0.8340808   0.0000000), wk =   0.0034722
        k(  182) = (   0.2916667  -0.7802691   0.0000000), wk =   0.0034722
        k(  183) = (   0.2916667  -0.7264574   0.0000000), wk =   0.0034722
        k(  184) = (   0.2916667  -0.6726458   0.0000000), wk =   0.0034722
        k(  185) = (   0.2916667  -0.6188341   0.0000000), wk =   0.0034722
        k(  186) = (   0.2916667  -0.5650225   0.0000000), wk =   0.0034722
        k(  187) = (   0.2916667  -0.5112108   0.0000000), wk =   0.0034722
        k(  188) = (   0.2916667  -0.4573991   0.0000000), wk =   0.0034722
        k(  189) = (   0.2916667  -0.4035875   0.0000000), wk =   0.0034722
        k(  190) = (   0.2916667  -0.3497758   0.0000000), wk =   0.0034722
        k(  191) = (   0.2916667  -0.2959641   0.0000000), wk =   0.0034722
        k(  192) = (   0.2916667  -0.2421525   0.0000000), wk =   0.0034722
        k(  193) = (   0.3333333  -0.2152466   0.0000000), wk =   0.0034722
        k(  194) = (   0.3333333  -0.1614350   0.0000000), wk =   0.0034722
        k(  195) = (   0.3333333  -0.1076233   0.0000000), wk =   0.0034722
        k(  196) = (   0.3333333  -0.0538117   0.0000000), wk =   0.0034722
        k(  197) = (   0.3333333  -0.0000000   0.0000000), wk =   0.0034722
        k(  198) = (   0.3333333   0.0538117   0.0000000), wk =   0.0034722
        k(  199) = (   0.3333333   0.1076233   0.0000000), wk =   0.0034722
        k(  200) = (   0.3333333   0.1614350   0.0000000), wk =   0.0034722
        k(  201) = (   0.3333333   0.2152466   0.0000000), wk =   0.0034722
        k(  202) = (   0.3333333   0.2690583   0.0000000), wk =   0.0034722
        k(  203) = (   0.3333333   0.3228700   0.0000000), wk =   0.0034722
        k(  204) = (   0.3333333   0.3766816   0.0000000), wk =   0.0034722
        k(  205) = (   0.3333333  -0.8609866   0.0000000), wk =   0.0034722
        k(  206) = (   0.3333333  -0.8071749   0.0000000), wk =   0.0034722
        k(  207) = (   0.3333333  -0.7533633   0.0000000), wk =   0.0034722
        k(  208) = (   0.3333333  -0.6995516   0.0000000), wk =   0.0034722
        k(  209) = (   0.3333333  -0.6457399   0.0000000), wk =   0.0034722
        k(  210) = (   0.3333333  -0.5919283   0.0000000), wk =   0.0034722
        k(  211) = (   0.3333333  -0.5381166   0.0000000), wk =   0.0034722
        k(  212) = (   0.3333333  -0.4843050   0.0000000), wk =   0.0034722
        k(  213) = (   0.3333333  -0.4304933   0.0000000), wk =   0.0034722
        k(  214) = (   0.3333333  -0.3766816   0.0000000), wk =   0.0034722
        k(  215) = (   0.3333333  -0.3228700   0.0000000), wk =   0.0034722
        k(  216) = (   0.3333333  -0.2690583   0.0000000), wk =   0.0034722
        k(  217) = (   0.3750000  -0.2421525   0.0000000), wk =   0.0034722
        k(  218) = (   0.3750000  -0.1883408   0.0000000), wk =   0.0034722
        k(  219) = (   0.3750000  -0.1345292   0.0000000), wk =   0.0034722
        k(  220) = (   0.3750000  -0.0807175   0.0000000), wk =   0.0034722
        k(  221) = (   0.3750000  -0.0269058   0.0000000), wk =   0.0034722
        k(  222) = (   0.3750000   0.0269058   0.0000000), wk =   0.0034722
        k(  223) = (   0.3750000   0.0807175   0.0000000), wk =   0.0034722
        k(  224) = (   0.3750000   0.1345292   0.0000000), wk =   0.0034722
        k(  225) = (   0.3750000   0.1883408   0.0000000), wk =   0.0034722
        k(  226) = (   0.3750000   0.2421525   0.0000000), wk =   0.0034722
        k(  227) = (   0.3750000   0.2959641   0.0000000), wk =   0.0034722
        k(  228) = (   0.3750000   0.3497758   0.0000000), wk =   0.0034722
        k(  229) = (   0.3750000  -0.8878924   0.0000000), wk =   0.0034722
        k(  230) = (   0.3750000  -0.8340808   0.0000000), wk =   0.0034722
        k(  231) = (   0.3750000  -0.7802691   0.0000000), wk =   0.0034722
        k(  232) = (   0.3750000  -0.7264574   0.0000000), wk =   0.0034722
        k(  233) = (   0.3750000  -0.6726458   0.0000000), wk =   0.0034722
        k(  234) = (   0.3750000  -0.6188341   0.0000000), wk =   0.0034722
        k(  235) = (   0.3750000  -0.5650225   0.0000000), wk =   0.0034722
        k(  236) = (   0.3750000  -0.5112108   0.0000000), wk =   0.0034722
        k(  237) = (   0.3750000  -0.4573991   0.0000000), wk =   0.0034722
        k(  238) = (   0.3750000  -0.4035875   0.0000000), wk =   0.0034722
        k(  239) = (   0.3750000  -0.3497758   0.0000000), wk =   0.0034722
        k(  240) = (   0.3750000  -0.2959641   0.0000000), wk =   0.0034722
        k(  241) = (   0.4166667  -0.2690583   0.0000000), wk =   0.0034722
        k(  242) = (   0.4166667  -0.2152466   0.0000000), wk =   0.0034722
        k(  243) = (   0.4166667  -0.1614350   0.0000000), wk =   0.0034722
        k(  244) = (   0.4166667  -0.1076233   0.0000000), wk =   0.0034722
        k(  245) = (   0.4166667  -0.0538117   0.0000000), wk =   0.0034722
        k(  246) = (   0.4166667  -0.0000000   0.0000000), wk =   0.0034722
        k(  247) = (   0.4166667   0.0538117   0.0000000), wk =   0.0034722
        k(  248) = (   0.4166667   0.1076233   0.0000000), wk =   0.0034722
        k(  249) = (   0.4166667   0.1614350   0.0000000), wk =   0.0034722
        k(  250) = (   0.4166667   0.2152466   0.0000000), wk =   0.0034722
        k(  251) = (   0.4166667   0.2690583   0.0000000), wk =   0.0034722
        k(  252) = (   0.4166667   0.3228700   0.0000000), wk =   0.0034722
        k(  253) = (   0.4166667  -0.9147983   0.0000000), wk =   0.0034722
        k(  254) = (   0.4166667  -0.8609866   0.0000000), wk =   0.0034722
        k(  255) = (   0.4166667  -0.8071749   0.0000000), wk =   0.0034722
        k(  256) = (   0.4166667  -0.7533633   0.0000000), wk =   0.0034722
        k(  257) = (   0.4166667  -0.6995516   0.0000000), wk =   0.0034722
        k(  258) = (   0.4166667  -0.6457399   0.0000000), wk =   0.0034722
        k(  259) = (   0.4166667  -0.5919283   0.0000000), wk =   0.0034722
        k(  260) = (   0.4166667  -0.5381166   0.0000000), wk =   0.0034722
        k(  261) = (   0.4166667  -0.4843050   0.0000000), wk =   0.0034722
        k(  262) = (   0.4166667  -0.4304933   0.0000000), wk =   0.0034722
        k(  263) = (   0.4166667  -0.3766816   0.0000000), wk =   0.0034722
        k(  264) = (   0.4166667  -0.3228700   0.0000000), wk =   0.0034722
        k(  265) = (   0.4583333  -0.2959641   0.0000000), wk =   0.0034722
        k(  266) = (   0.4583333  -0.2421525   0.0000000), wk =   0.0034722
        k(  267) = (   0.4583333  -0.1883408   0.0000000), wk =   0.0034722
        k(  268) = (   0.4583333  -0.1345292   0.0000000), wk =   0.0034722
        k(  269) = (   0.4583333  -0.0807175   0.0000000), wk =   0.0034722
        k(  270) = (   0.4583333  -0.0269058   0.0000000), wk =   0.0034722
        k(  271) = (   0.4583333   0.0269058   0.0000000), wk =   0.0034722
        k(  272) = (   0.4583333   0.0807175   0.0000000), wk =   0.0034722
        k(  273) = (   0.4583333   0.1345292   0.0000000), wk =   0.0034722
        k(  274) = (   0.4583333   0.1883408   0.0000000), wk =   0.0034722
        k(  275) = (   0.4583333   0.2421525   0.0000000), wk =   0.0034722
        k(  276) = (   0.4583333   0.2959641   0.0000000), wk =   0.0034722
        k(  277) = (   0.4583333  -0.9417041   0.0000000), wk =   0.0034722
        k(  278) = (   0.4583333  -0.8878924   0.0000000), wk =   0.0034722
        k(  279) = (   0.4583333  -0.8340808   0.0000000), wk =   0.0034722
        k(  280) = (   0.4583333  -0.7802691   0.0000000), wk =   0.0034722
        k(  281) = (   0.4583333  -0.7264574   0.0000000), wk =   0.0034722
        k(  282) = (   0.4583333  -0.6726458   0.0000000), wk =   0.0034722
        k(  283) = (   0.4583333  -0.6188341   0.0000000), wk =   0.0034722
        k(  284) = (   0.4583333  -0.5650225   0.0000000), wk =   0.0034722
        k(  285) = (   0.4583333  -0.5112108   0.0000000), wk =   0.0034722
        k(  286) = (   0.4583333  -0.4573991   0.0000000), wk =   0.0034722
        k(  287) = (   0.4583333  -0.4035875   0.0000000), wk =   0.0034722
        k(  288) = (   0.4583333  -0.3497758   0.0000000), wk =   0.0034722
        k(  289) = (  -0.5000000   0.3228700   0.0000000), wk =   0.0034722
        k(  290) = (  -0.5000000   0.3766816   0.0000000), wk =   0.0034722
        k(  291) = (  -0.5000000   0.4304933   0.0000000), wk =   0.0034722
        k(  292) = (  -0.5000000   0.4843050   0.0000000), wk =   0.0034722
        k(  293) = (  -0.5000000   0.5381166   0.0000000), wk =   0.0034722
        k(  294) = (  -0.5000000   0.5919283   0.0000000), wk =   0.0034722
        k(  295) = (  -0.5000000   0.6457399   0.0000000), wk =   0.0034722
        k(  296) = (  -0.5000000   0.6995516   0.0000000), wk =   0.0034722
        k(  297) = (  -0.5000000   0.7533633   0.0000000), wk =   0.0034722
        k(  298) = (  -0.5000000   0.8071749   0.0000000), wk =   0.0034722
        k(  299) = (  -0.5000000   0.8609866   0.0000000), wk =   0.0034722
        k(  300) = (  -0.5000000   0.9147983   0.0000000), wk =   0.0034722
        k(  301) = (  -0.5000000  -0.3228700   0.0000000), wk =   0.0034722
        k(  302) = (  -0.5000000  -0.2690583   0.0000000), wk =   0.0034722
        k(  303) = (  -0.5000000  -0.2152466   0.0000000), wk =   0.0034722
        k(  304) = (  -0.5000000  -0.1614350   0.0000000), wk =   0.0034722
        k(  305) = (  -0.5000000  -0.1076233   0.0000000), wk =   0.0034722
        k(  306) = (  -0.5000000  -0.0538117   0.0000000), wk =   0.0034722
        k(  307) = (  -0.5000000   0.0000000   0.0000000), wk =   0.0034722
        k(  308) = (  -0.5000000   0.0538117   0.0000000), wk =   0.0034722
        k(  309) = (  -0.5000000   0.1076233   0.0000000), wk =   0.0034722
        k(  310) = (  -0.5000000   0.1614350   0.0000000), wk =   0.0034722
        k(  311) = (  -0.5000000   0.2152466   0.0000000), wk =   0.0034722
        k(  312) = (  -0.5000000   0.2690583   0.0000000), wk =   0.0034722
        k(  313) = (  -0.4583333   0.2959641   0.0000000), wk =   0.0034722
        k(  314) = (  -0.4583333   0.3497758   0.0000000), wk =   0.0034722
        k(  315) = (  -0.4583333   0.4035875   0.0000000), wk =   0.0034722
        k(  316) = (  -0.4583333   0.4573991   0.0000000), wk =   0.0034722
        k(  317) = (  -0.4583333   0.5112108   0.0000000), wk =   0.0034722
        k(  318) = (  -0.4583333   0.5650225   0.0000000), wk =   0.0034722
        k(  319) = (  -0.4583333   0.6188341   0.0000000), wk =   0.0034722
        k(  320) = (  -0.4583333   0.6726458   0.0000000), wk =   0.0034722
        k(  321) = (  -0.4583333   0.7264574   0.0000000), wk =   0.0034722
        k(  322) = (  -0.4583333   0.7802691   0.0000000), wk =   0.0034722
        k(  323) = (  -0.4583333   0.8340808   0.0000000), wk =   0.0034722
        k(  324) = (  -0.4583333   0.8878924   0.0000000), wk =   0.0034722
        k(  325) = (  -0.4583333  -0.3497758   0.0000000), wk =   0.0034722
        k(  326) = (  -0.4583333  -0.2959641   0.0000000), wk =   0.0034722
        k(  327) = (  -0.4583333  -0.2421525   0.0000000), wk =   0.0034722
        k(  328) = (  -0.4583333  -0.1883408   0.0000000), wk =   0.0034722
        k(  329) = (  -0.4583333  -0.1345292   0.0000000), wk =   0.0034722
        k(  330) = (  -0.4583333  -0.0807175   0.0000000), wk =   0.0034722
        k(  331) = (  -0.4583333  -0.0269058   0.0000000), wk =   0.0034722
        k(  332) = (  -0.4583333   0.0269058   0.0000000), wk =   0.0034722
        k(  333) = (  -0.4583333   0.0807175   0.0000000), wk =   0.0034722
        k(  334) = (  -0.4583333   0.1345292   0.0000000), wk =   0.0034722
        k(  335) = (  -0.4583333   0.1883408   0.0000000), wk =   0.0034722
        k(  336) = (  -0.4583333   0.2421525   0.0000000), wk =   0.0034722
        k(  337) = (  -0.4166667   0.2690583   0.0000000), wk =   0.0034722
        k(  338) = (  -0.4166667   0.3228700   0.0000000), wk =   0.0034722
        k(  339) = (  -0.4166667   0.3766816   0.0000000), wk =   0.0034722
        k(  340) = (  -0.4166667   0.4304933   0.0000000), wk =   0.0034722
        k(  341) = (  -0.4166667   0.4843050   0.0000000), wk =   0.0034722
        k(  342) = (  -0.4166667   0.5381166   0.0000000), wk =   0.0034722
        k(  343) = (  -0.4166667   0.5919283   0.0000000), wk =   0.0034722
        k(  344) = (  -0.4166667   0.6457399   0.0000000), wk =   0.0034722
        k(  345) = (  -0.4166667   0.6995516   0.0000000), wk =   0.0034722
        k(  346) = (  -0.4166667   0.7533633   0.0000000), wk =   0.0034722
        k(  347) = (  -0.4166667   0.8071749   0.0000000), wk =   0.0034722
        k(  348) = (  -0.4166667   0.8609866   0.0000000), wk =   0.0034722
        k(  349) = (  -0.4166667  -0.3766816   0.0000000), wk =   0.0034722
        k(  350) = (  -0.4166667  -0.3228700   0.0000000), wk =   0.0034722
        k(  351) = (  -0.4166667  -0.2690583   0.0000000), wk =   0.0034722
        k(  352) = (  -0.4166667  -0.2152466   0.0000000), wk =   0.0034722
        k(  353) = (  -0.4166667  -0.1614350   0.0000000), wk =   0.0034722
        k(  354) = (  -0.4166667  -0.1076233   0.0000000), wk =   0.0034722
        k(  355) = (  -0.4166667  -0.0538117   0.0000000), wk =   0.0034722
        k(  356) = (  -0.4166667  -0.0000000   0.0000000), wk =   0.0034722
        k(  357) = (  -0.4166667   0.0538117   0.0000000), wk =   0.0034722
        k(  358) = (  -0.4166667   0.1076233   0.0000000), wk =   0.0034722
        k(  359) = (  -0.4166667   0.1614350   0.0000000), wk =   0.0034722
        k(  360) = (  -0.4166667   0.2152466   0.0000000), wk =   0.0034722
        k(  361) = (  -0.3750000   0.2421525   0.0000000), wk =   0.0034722
        k(  362) = (  -0.3750000   0.2959641   0.0000000), wk =   0.0034722
        k(  363) = (  -0.3750000   0.3497758   0.0000000), wk =   0.0034722
        k(  364) = (  -0.3750000   0.4035875   0.0000000), wk =   0.0034722
        k(  365) = (  -0.3750000   0.4573991   0.0000000), wk =   0.0034722
        k(  366) = (  -0.3750000   0.5112108   0.0000000), wk =   0.0034722
        k(  367) = (  -0.3750000   0.5650225   0.0000000), wk =   0.0034722
        k(  368) = (  -0.3750000   0.6188341   0.0000000), wk =   0.0034722
        k(  369) = (  -0.3750000   0.6726458   0.0000000), wk =   0.0034722
        k(  370) = (  -0.3750000   0.7264574   0.0000000), wk =   0.0034722
        k(  371) = (  -0.3750000   0.7802691   0.0000000), wk =   0.0034722
        k(  372) = (  -0.3750000   0.8340808   0.0000000), wk =   0.0034722
        k(  373) = (  -0.3750000  -0.4035875   0.0000000), wk =   0.0034722
        k(  374) = (  -0.3750000  -0.3497758   0.0000000), wk =   0.0034722
        k(  375) = (  -0.3750000  -0.2959641   0.0000000), wk =   0.0034722
        k(  376) = (  -0.3750000  -0.2421525   0.0000000), wk =   0.0034722
        k(  377) = (  -0.3750000  -0.1883408   0.0000000), wk =   0.0034722
        k(  378) = (  -0.3750000  -0.1345292   0.0000000), wk =   0.0034722
        k(  379) = (  -0.3750000  -0.0807175   0.0000000), wk =   0.0034722
        k(  380) = (  -0.3750000  -0.0269058   0.0000000), wk =   0.0034722
        k(  381) = (  -0.3750000   0.0269058   0.0000000), wk =   0.0034722
        k(  382) = (  -0.3750000   0.0807175   0.0000000), wk =   0.0034722
        k(  383) = (  -0.3750000   0.1345292   0.0000000), wk =   0.0034722
        k(  384) = (  -0.3750000   0.1883408   0.0000000), wk =   0.0034722
        k(  385) = (  -0.3333333   0.2152466   0.0000000), wk =   0.0034722
        k(  386) = (  -0.3333333   0.2690583   0.0000000), wk =   0.0034722
        k(  387) = (  -0.3333333   0.3228700   0.0000000), wk =   0.0034722
        k(  388) = (  -0.3333333   0.3766816   0.0000000), wk =   0.0034722
        k(  389) = (  -0.3333333   0.4304933   0.0000000), wk =   0.0034722
        k(  390) = (  -0.3333333   0.4843050   0.0000000), wk =   0.0034722
        k(  391) = (  -0.3333333   0.5381166   0.0000000), wk =   0.0034722
        k(  392) = (  -0.3333333   0.5919283   0.0000000), wk =   0.0034722
        k(  393) = (  -0.3333333   0.6457399   0.0000000), wk =   0.0034722
        k(  394) = (  -0.3333333   0.6995516   0.0000000), wk =   0.0034722
        k(  395) = (  -0.3333333   0.7533633   0.0000000), wk =   0.0034722
        k(  396) = (  -0.3333333   0.8071749   0.0000000), wk =   0.0034722
        k(  397) = (  -0.3333333  -0.4304933   0.0000000), wk =   0.0034722
        k(  398) = (  -0.3333333  -0.3766816   0.0000000), wk =   0.0034722
        k(  399) = (  -0.3333333  -0.3228700   0.0000000), wk =   0.0034722
        k(  400) = (  -0.3333333  -0.2690583   0.0000000), wk =   0.0034722
        k(  401) = (  -0.3333333  -0.2152466   0.0000000), wk =   0.0034722
        k(  402) = (  -0.3333333  -0.1614350   0.0000000), wk =   0.0034722
        k(  403) = (  -0.3333333  -0.1076233   0.0000000), wk =   0.0034722
        k(  404) = (  -0.3333333  -0.0538117   0.0000000), wk =   0.0034722
        k(  405) = (  -0.3333333   0.0000000   0.0000000), wk =   0.0034722
        k(  406) = (  -0.3333333   0.0538117   0.0000000), wk =   0.0034722
        k(  407) = (  -0.3333333   0.1076233   0.0000000), wk =   0.0034722
        k(  408) = (  -0.3333333   0.1614350   0.0000000), wk =   0.0034722
        k(  409) = (  -0.2916667   0.1883408   0.0000000), wk =   0.0034722
        k(  410) = (  -0.2916667   0.2421525   0.0000000), wk =   0.0034722
        k(  411) = (  -0.2916667   0.2959641   0.0000000), wk =   0.0034722
        k(  412) = (  -0.2916667   0.3497758   0.0000000), wk =   0.0034722
        k(  413) = (  -0.2916667   0.4035875   0.0000000), wk =   0.0034722
        k(  414) = (  -0.2916667   0.4573991   0.0000000), wk =   0.0034722
        k(  415) = (  -0.2916667   0.5112108   0.0000000), wk =   0.0034722
        k(  416) = (  -0.2916667   0.5650225   0.0000000), wk =   0.0034722
        k(  417) = (  -0.2916667   0.6188341   0.0000000), wk =   0.0034722
        k(  418) = (  -0.2916667   0.6726458   0.0000000), wk =   0.0034722
        k(  419) = (  -0.2916667   0.7264574   0.0000000), wk =   0.0034722
        k(  420) = (  -0.2916667   0.7802691   0.0000000), wk =   0.0034722
        k(  421) = (  -0.2916667  -0.4573991   0.0000000), wk =   0.0034722
        k(  422) = (  -0.2916667  -0.4035875   0.0000000), wk =   0.0034722
        k(  423) = (  -0.2916667  -0.3497758   0.0000000), wk =   0.0034722
        k(  424) = (  -0.2916667  -0.2959641   0.0000000), wk =   0.0034722
        k(  425) = (  -0.2916667  -0.2421525   0.0000000), wk =   0.0034722
        k(  426) = (  -0.2916667  -0.1883408   0.0000000), wk =   0.0034722
        k(  427) = (  -0.2916667  -0.1345292   0.0000000), wk =   0.0034722
        k(  428) = (  -0.2916667  -0.0807175   0.0000000), wk =   0.0034722
        k(  429) = (  -0.2916667  -0.0269058   0.0000000), wk =   0.0034722
        k(  430) = (  -0.2916667   0.0269058   0.0000000), wk =   0.0034722
        k(  431) = (  -0.2916667   0.0807175   0.0000000), wk =   0.0034722
        k(  432) = (  -0.2916667   0.1345292   0.0000000), wk =   0.0034722
        k(  433) = (  -0.2500000   0.1614350   0.0000000), wk =   0.0034722
        k(  434) = (  -0.2500000   0.2152466   0.0000000), wk =   0.0034722
        k(  435) = (  -0.2500000   0.2690583   0.0000000), wk =   0.0034722
        k(  436) = (  -0.2500000   0.3228700   0.0000000), wk =   0.0034722
        k(  437) = (  -0.2500000   0.3766816   0.0000000), wk =   0.0034722
        k(  438) = (  -0.2500000   0.4304933   0.0000000), wk =   0.0034722
        k(  439) = (  -0.2500000   0.4843050   0.0000000), wk =   0.0034722
        k(  440) = (  -0.2500000   0.5381166   0.0000000), wk =   0.0034722
        k(  441) = (  -0.2500000   0.5919283   0.0000000), wk =   0.0034722
        k(  442) = (  -0.2500000   0.6457399   0.0000000), wk =   0.0034722
        k(  443) = (  -0.2500000   0.6995516   0.0000000), wk =   0.0034722
        k(  444) = (  -0.2500000   0.7533633   0.0000000), wk =   0.0034722
        k(  445) = (  -0.2500000  -0.4843050   0.0000000), wk =   0.0034722
        k(  446) = (  -0.2500000  -0.4304933   0.0000000), wk =   0.0034722
        k(  447) = (  -0.2500000  -0.3766816   0.0000000), wk =   0.0034722
        k(  448) = (  -0.2500000  -0.3228700   0.0000000), wk =   0.0034722
        k(  449) = (  -0.2500000  -0.2690583   0.0000000), wk =   0.0034722
        k(  450) = (  -0.2500000  -0.2152466   0.0000000), wk =   0.0034722
        k(  451) = (  -0.2500000  -0.1614350   0.0000000), wk =   0.0034722
        k(  452) = (  -0.2500000  -0.1076233   0.0000000), wk =   0.0034722
        k(  453) = (  -0.2500000  -0.0538117   0.0000000), wk =   0.0034722
        k(  454) = (  -0.2500000   0.0000000   0.0000000), wk =   0.0034722
        k(  455) = (  -0.2500000   0.0538117   0.0000000), wk =   0.0034722
        k(  456) = (  -0.2500000   0.1076233   0.0000000), wk =   0.0034722
        k(  457) = (  -0.2083333   0.1345292   0.0000000), wk =   0.0034722
        k(  458) = (  -0.2083333   0.1883408   0.0000000), wk =   0.0034722
        k(  459) = (  -0.2083333   0.2421525   0.0000000), wk =   0.0034722
        k(  460) = (  -0.2083333   0.2959641   0.0000000), wk =   0.0034722
        k(  461) = (  -0.2083333   0.3497758   0.0000000), wk =   0.0034722
        k(  462) = (  -0.2083333   0.4035875   0.0000000), wk =   0.0034722
        k(  463) = (  -0.2083333   0.4573991   0.0000000), wk =   0.0034722
        k(  464) = (  -0.2083333   0.5112108   0.0000000), wk =   0.0034722
        k(  465) = (  -0.2083333   0.5650225   0.0000000), wk =   0.0034722
        k(  466) = (  -0.2083333   0.6188341   0.0000000), wk =   0.0034722
        k(  467) = (  -0.2083333   0.6726458   0.0000000), wk =   0.0034722
        k(  468) = (  -0.2083333   0.7264574   0.0000000), wk =   0.0034722
        k(  469) = (  -0.2083333  -0.5112108   0.0000000), wk =   0.0034722
        k(  470) = (  -0.2083333  -0.4573991   0.0000000), wk =   0.0034722
        k(  471) = (  -0.2083333  -0.4035875   0.0000000), wk =   0.0034722
        k(  472) = (  -0.2083333  -0.3497758   0.0000000), wk =   0.0034722
        k(  473) = (  -0.2083333  -0.2959641   0.0000000), wk =   0.0034722
        k(  474) = (  -0.2083333  -0.2421525   0.0000000), wk =   0.0034722
        k(  475) = (  -0.2083333  -0.1883408   0.0000000), wk =   0.0034722
        k(  476) = (  -0.2083333  -0.1345292   0.0000000), wk =   0.0034722
        k(  477) = (  -0.2083333  -0.0807175   0.0000000), wk =   0.0034722
        k(  478) = (  -0.2083333  -0.0269058   0.0000000), wk =   0.0034722
        k(  479) = (  -0.2083333   0.0269058   0.0000000), wk =   0.0034722
        k(  480) = (  -0.2083333   0.0807175   0.0000000), wk =   0.0034722
        k(  481) = (  -0.1666667   0.1076233   0.0000000), wk =   0.0034722
        k(  482) = (  -0.1666667   0.1614350   0.0000000), wk =   0.0034722
        k(  483) = (  -0.1666667   0.2152466   0.0000000), wk =   0.0034722
        k(  484) = (  -0.1666667   0.2690583   0.0000000), wk =   0.0034722
        k(  485) = (  -0.1666667   0.3228700   0.0000000), wk =   0.0034722
        k(  486) = (  -0.1666667   0.3766816   0.0000000), wk =   0.0034722
        k(  487) = (  -0.1666667   0.4304933   0.0000000), wk =   0.0034722
        k(  488) = (  -0.1666667   0.4843050   0.0000000), wk =   0.0034722
        k(  489) = (  -0.1666667   0.5381166   0.0000000), wk =   0.0034722
        k(  490) = (  -0.1666667   0.5919283   0.0000000), wk =   0.0034722
        k(  491) = (  -0.1666667   0.6457399   0.0000000), wk =   0.0034722
        k(  492) = (  -0.1666667   0.6995516   0.0000000), wk =   0.0034722
        k(  493) = (  -0.1666667  -0.5381166   0.0000000), wk =   0.0034722
        k(  494) = (  -0.1666667  -0.4843050   0.0000000), wk =   0.0034722
        k(  495) = (  -0.1666667  -0.4304933   0.0000000), wk =   0.0034722
        k(  496) = (  -0.1666667  -0.3766816   0.0000000), wk =   0.0034722
        k(  497) = (  -0.1666667  -0.3228700   0.0000000), wk =   0.0034722
        k(  498) = (  -0.1666667  -0.2690583   0.0000000), wk =   0.0034722
        k(  499) = (  -0.1666667  -0.2152466   0.0000000), wk =   0.0034722
        k(  500) = (  -0.1666667  -0.1614350   0.0000000), wk =   0.0034722
        k(  501) = (  -0.1666667  -0.1076233   0.0000000), wk =   0.0034722
        k(  502) = (  -0.1666667  -0.0538117   0.0000000), wk =   0.0034722
        k(  503) = (  -0.1666667  -0.0000000   0.0000000), wk =   0.0034722
        k(  504) = (  -0.1666667   0.0538117   0.0000000), wk =   0.0034722
        k(  505) = (  -0.1250000   0.0807175   0.0000000), wk =   0.0034722
        k(  506) = (  -0.1250000   0.1345292   0.0000000), wk =   0.0034722
        k(  507) = (  -0.1250000   0.1883408   0.0000000), wk =   0.0034722
        k(  508) = (  -0.1250000   0.2421525   0.0000000), wk =   0.0034722
        k(  509) = (  -0.1250000   0.2959641   0.0000000), wk =   0.0034722
        k(  510) = (  -0.1250000   0.3497758   0.0000000), wk =   0.0034722
        k(  511) = (  -0.1250000   0.4035875   0.0000000), wk =   0.0034722
        k(  512) = (  -0.1250000   0.4573991   0.0000000), wk =   0.0034722
        k(  513) = (  -0.1250000   0.5112108   0.0000000), wk =   0.0034722
        k(  514) = (  -0.1250000   0.5650225   0.0000000), wk =   0.0034722
        k(  515) = (  -0.1250000   0.6188341   0.0000000), wk =   0.0034722
        k(  516) = (  -0.1250000   0.6726458   0.0000000), wk =   0.0034722
        k(  517) = (  -0.1250000  -0.5650225   0.0000000), wk =   0.0034722
        k(  518) = (  -0.1250000  -0.5112108   0.0000000), wk =   0.0034722
        k(  519) = (  -0.1250000  -0.4573991   0.0000000), wk =   0.0034722
        k(  520) = (  -0.1250000  -0.4035875   0.0000000), wk =   0.0034722
        k(  521) = (  -0.1250000  -0.3497758   0.0000000), wk =   0.0034722
        k(  522) = (  -0.1250000  -0.2959641   0.0000000), wk =   0.0034722
        k(  523) = (  -0.1250000  -0.2421525   0.0000000), wk =   0.0034722
        k(  524) = (  -0.1250000  -0.1883408   0.0000000), wk =   0.0034722
        k(  525) = (  -0.1250000  -0.1345292   0.0000000), wk =   0.0034722
        k(  526) = (  -0.1250000  -0.0807175   0.0000000), wk =   0.0034722
        k(  527) = (  -0.1250000  -0.0269058   0.0000000), wk =   0.0034722
        k(  528) = (  -0.1250000   0.0269058   0.0000000), wk =   0.0034722
        k(  529) = (  -0.0833333   0.0538117   0.0000000), wk =   0.0034722
        k(  530) = (  -0.0833333   0.1076233   0.0000000), wk =   0.0034722
        k(  531) = (  -0.0833333   0.1614350   0.0000000), wk =   0.0034722
        k(  532) = (  -0.0833333   0.2152466   0.0000000), wk =   0.0034722
        k(  533) = (  -0.0833333   0.2690583   0.0000000), wk =   0.0034722
        k(  534) = (  -0.0833333   0.3228700   0.0000000), wk =   0.0034722
        k(  535) = (  -0.0833333   0.3766816   0.0000000), wk =   0.0034722
        k(  536) = (  -0.0833333   0.4304933   0.0000000), wk =   0.0034722
        k(  537) = (  -0.0833333   0.4843050   0.0000000), wk =   0.0034722
        k(  538) = (  -0.0833333   0.5381166   0.0000000), wk =   0.0034722
        k(  539) = (  -0.0833333   0.5919283   0.0000000), wk =   0.0034722
        k(  540) = (  -0.0833333   0.6457399   0.0000000), wk =   0.0034722
        k(  541) = (  -0.0833333  -0.5919283   0.0000000), wk =   0.0034722
        k(  542) = (  -0.0833333  -0.5381166   0.0000000), wk =   0.0034722
        k(  543) = (  -0.0833333  -0.4843050   0.0000000), wk =   0.0034722
        k(  544) = (  -0.0833333  -0.4304933   0.0000000), wk =   0.0034722
        k(  545) = (  -0.0833333  -0.3766816   0.0000000), wk =   0.0034722
        k(  546) = (  -0.0833333  -0.3228700   0.0000000), wk =   0.0034722
        k(  547) = (  -0.0833333  -0.2690583   0.0000000), wk =   0.0034722
        k(  548) = (  -0.0833333  -0.2152466   0.0000000), wk =   0.0034722
        k(  549) = (  -0.0833333  -0.1614350   0.0000000), wk =   0.0034722
        k(  550) = (  -0.0833333  -0.1076233   0.0000000), wk =   0.0034722
        k(  551) = (  -0.0833333  -0.0538117   0.0000000), wk =   0.0034722
        k(  552) = (  -0.0833333   0.0000000   0.0000000), wk =   0.0034722
        k(  553) = (  -0.0416667   0.0269058   0.0000000), wk =   0.0034722
        k(  554) = (  -0.0416667   0.0807175   0.0000000), wk =   0.0034722
        k(  555) = (  -0.0416667   0.1345292   0.0000000), wk =   0.0034722
        k(  556) = (  -0.0416667   0.1883408   0.0000000), wk =   0.0034722
        k(  557) = (  -0.0416667   0.2421525   0.0000000), wk =   0.0034722
        k(  558) = (  -0.0416667   0.2959641   0.0000000), wk =   0.0034722
        k(  559) = (  -0.0416667   0.3497758   0.0000000), wk =   0.0034722
        k(  560) = (  -0.0416667   0.4035875   0.0000000), wk =   0.0034722
        k(  561) = (  -0.0416667   0.4573991   0.0000000), wk =   0.0034722
        k(  562) = (  -0.0416667   0.5112108   0.0000000), wk =   0.0034722
        k(  563) = (  -0.0416667   0.5650225   0.0000000), wk =   0.0034722
        k(  564) = (  -0.0416667   0.6188341   0.0000000), wk =   0.0034722
        k(  565) = (  -0.0416667  -0.6188341   0.0000000), wk =   0.0034722
        k(  566) = (  -0.0416667  -0.5650225   0.0000000), wk =   0.0034722
        k(  567) = (  -0.0416667  -0.5112108   0.0000000), wk =   0.0034722
        k(  568) = (  -0.0416667  -0.4573991   0.0000000), wk =   0.0034722
        k(  569) = (  -0.0416667  -0.4035875   0.0000000), wk =   0.0034722
        k(  570) = (  -0.0416667  -0.3497758   0.0000000), wk =   0.0034722
        k(  571) = (  -0.0416667  -0.2959641   0.0000000), wk =   0.0034722
        k(  572) = (  -0.0416667  -0.2421525   0.0000000), wk =   0.0034722
        k(  573) = (  -0.0416667  -0.1883408   0.0000000), wk =   0.0034722
        k(  574) = (  -0.0416667  -0.1345292   0.0000000), wk =   0.0034722
        k(  575) = (  -0.0416667  -0.0807175   0.0000000), wk =   0.0034722
        k(  576) = (  -0.0416667  -0.0269058   0.0000000), wk =   0.0034722

                       cryst. coord.
        k(    1) = (   0.0000000   0.0000000   0.0000000), wk =   0.0034722
        k(    2) = (   0.0000000   0.0416667   0.0000000), wk =   0.0034722
        k(    3) = (   0.0000000   0.0833333   0.0000000), wk =   0.0034722
        k(    4) = (   0.0000000   0.1250000   0.0000000), wk =   0.0034722
        k(    5) = (   0.0000000   0.1666667   0.0000000), wk =   0.0034722
        k(    6) = (   0.0000000   0.2083333   0.0000000), wk =   0.0034722
        k(    7) = (   0.0000000   0.2500000   0.0000000), wk =   0.0034722
        k(    8) = (   0.0000000   0.2916667   0.0000000), wk =   0.0034722
        k(    9) = (   0.0000000   0.3333333   0.0000000), wk =   0.0034722
        k(   10) = (   0.0000000   0.3750000   0.0000000), wk =   0.0034722
        k(   11) = (   0.0000000   0.4166667   0.0000000), wk =   0.0034722
        k(   12) = (   0.0000000   0.4583333   0.0000000), wk =   0.0034722
        k(   13) = (   0.0000000  -0.5000000   0.0000000), wk =   0.0034722
        k(   14) = (   0.0000000  -0.4583333   0.0000000), wk =   0.0034722
        k(   15) = (   0.0000000  -0.4166667   0.0000000), wk =   0.0034722
        k(   16) = (   0.0000000  -0.3750000   0.0000000), wk =   0.0034722
        k(   17) = (   0.0000000  -0.3333333   0.0000000), wk =   0.0034722
        k(   18) = (   0.0000000  -0.2916667   0.0000000), wk =   0.0034722
        k(   19) = (   0.0000000  -0.2500000   0.0000000), wk =   0.0034722
        k(   20) = (   0.0000000  -0.2083333   0.0000000), wk =   0.0034722
        k(   21) = (   0.0000000  -0.1666667   0.0000000), wk =   0.0034722
        k(   22) = (   0.0000000  -0.1250000   0.0000000), wk =   0.0034722
        k(   23) = (   0.0000000  -0.0833333   0.0000000), wk =   0.0034722
        k(   24) = (   0.0000000  -0.0416667   0.0000000), wk =   0.0034722
        k(   25) = (   0.0416667   0.0000000   0.0000000), wk =   0.0034722
        k(   26) = (   0.0416667   0.0416667   0.0000000), wk =   0.0034722
        k(   27) = (   0.0416667   0.0833333   0.0000000), wk =   0.0034722
        k(   28) = (   0.0416667   0.1250000   0.0000000), wk =   0.0034722
        k(   29) = (   0.0416667   0.1666667   0.0000000), wk =   0.0034722
        k(   30) = (   0.0416667   0.2083333   0.0000000), wk =   0.0034722
        k(   31) = (   0.0416667   0.2500000   0.0000000), wk =   0.0034722
        k(   32) = (   0.0416667   0.2916667   0.0000000), wk =   0.0034722
        k(   33) = (   0.0416667   0.3333333   0.0000000), wk =   0.0034722
        k(   34) = (   0.0416667   0.3750000   0.0000000), wk =   0.0034722
        k(   35) = (   0.0416667   0.4166667   0.0000000), wk =   0.0034722
        k(   36) = (   0.0416667   0.4583333   0.0000000), wk =   0.0034722
        k(   37) = (   0.0416667  -0.5000000   0.0000000), wk =   0.0034722
        k(   38) = (   0.0416667  -0.4583333   0.0000000), wk =   0.0034722
        k(   39) = (   0.0416667  -0.4166667   0.0000000), wk =   0.0034722
        k(   40) = (   0.0416667  -0.3750000   0.0000000), wk =   0.0034722
        k(   41) = (   0.0416667  -0.3333333   0.0000000), wk =   0.0034722
        k(   42) = (   0.0416667  -0.2916667   0.0000000), wk =   0.0034722
        k(   43) = (   0.0416667  -0.2500000   0.0000000), wk =   0.0034722
        k(   44) = (   0.0416667  -0.2083333   0.0000000), wk =   0.0034722
        k(   45) = (   0.0416667  -0.1666667   0.0000000), wk =   0.0034722
        k(   46) = (   0.0416667  -0.1250000   0.0000000), wk =   0.0034722
        k(   47) = (   0.0416667  -0.0833333   0.0000000), wk =   0.0034722
        k(   48) = (   0.0416667  -0.0416667   0.0000000), wk =   0.0034722
        k(   49) = (   0.0833333   0.0000000   0.0000000), wk =   0.0034722
        k(   50) = (   0.0833333   0.0416667   0.0000000), wk =   0.0034722
        k(   51) = (   0.0833333   0.0833333   0.0000000), wk =   0.0034722
        k(   52) = (   0.0833333   0.1250000   0.0000000), wk =   0.0034722
        k(   53) = (   0.0833333   0.1666667   0.0000000), wk =   0.0034722
        k(   54) = (   0.0833333   0.2083333   0.0000000), wk =   0.0034722
        k(   55) = (   0.0833333   0.2500000   0.0000000), wk =   0.0034722
        k(   56) = (   0.0833333   0.2916667   0.0000000), wk =   0.0034722
        k(   57) = (   0.0833333   0.3333333   0.0000000), wk =   0.0034722
        k(   58) = (   0.0833333   0.3750000   0.0000000), wk =   0.0034722
        k(   59) = (   0.0833333   0.4166667   0.0000000), wk =   0.0034722
        k(   60) = (   0.0833333   0.4583333   0.0000000), wk =   0.0034722
        k(   61) = (   0.0833333  -0.5000000   0.0000000), wk =   0.0034722
        k(   62) = (   0.0833333  -0.4583333   0.0000000), wk =   0.0034722
        k(   63) = (   0.0833333  -0.4166667   0.0000000), wk =   0.0034722
        k(   64) = (   0.0833333  -0.3750000   0.0000000), wk =   0.0034722
        k(   65) = (   0.0833333  -0.3333333   0.0000000), wk =   0.0034722
        k(   66) = (   0.0833333  -0.2916667   0.0000000), wk =   0.0034722
        k(   67) = (   0.0833333  -0.2500000   0.0000000), wk =   0.0034722
        k(   68) = (   0.0833333  -0.2083333   0.0000000), wk =   0.0034722
        k(   69) = (   0.0833333  -0.1666667   0.0000000), wk =   0.0034722
        k(   70) = (   0.0833333  -0.1250000   0.0000000), wk =   0.0034722
        k(   71) = (   0.0833333  -0.0833333   0.0000000), wk =   0.0034722
        k(   72) = (   0.0833333  -0.0416667   0.0000000), wk =   0.0034722
        k(   73) = (   0.1250000   0.0000000   0.0000000), wk =   0.0034722
        k(   74) = (   0.1250000   0.0416667   0.0000000), wk =   0.0034722
        k(   75) = (   0.1250000   0.0833333   0.0000000), wk =   0.0034722
        k(   76) = (   0.1250000   0.1250000   0.0000000), wk =   0.0034722
        k(   77) = (   0.1250000   0.1666667   0.0000000), wk =   0.0034722
        k(   78) = (   0.1250000   0.2083333   0.0000000), wk =   0.0034722
        k(   79) = (   0.1250000   0.2500000   0.0000000), wk =   0.0034722
        k(   80) = (   0.1250000   0.2916667   0.0000000), wk =   0.0034722
        k(   81) = (   0.1250000   0.3333333   0.0000000), wk =   0.0034722
        k(   82) = (   0.1250000   0.3750000   0.0000000), wk =   0.0034722
        k(   83) = (   0.1250000   0.4166667   0.0000000), wk =   0.0034722
        k(   84) = (   0.1250000   0.4583333   0.0000000), wk =   0.0034722
        k(   85) = (   0.1250000  -0.5000000   0.0000000), wk =   0.0034722
        k(   86) = (   0.1250000  -0.4583333   0.0000000), wk =   0.0034722
        k(   87) = (   0.1250000  -0.4166667   0.0000000), wk =   0.0034722
        k(   88) = (   0.1250000  -0.3750000   0.0000000), wk =   0.0034722
        k(   89) = (   0.1250000  -0.3333333   0.0000000), wk =   0.0034722
        k(   90) = (   0.1250000  -0.2916667   0.0000000), wk =   0.0034722
        k(   91) = (   0.1250000  -0.2500000   0.0000000), wk =   0.0034722
        k(   92) = (   0.1250000  -0.2083333   0.0000000), wk =   0.0034722
        k(   93) = (   0.1250000  -0.1666667   0.0000000), wk =   0.0034722
        k(   94) = (   0.1250000  -0.1250000   0.0000000), wk =   0.0034722
        k(   95) = (   0.1250000  -0.0833333   0.0000000), wk =   0.0034722
        k(   96) = (   0.1250000  -0.0416667   0.0000000), wk =   0.0034722
        k(   97) = (   0.1666667   0.0000000   0.0000000), wk =   0.0034722
        k(   98) = (   0.1666667   0.0416667   0.0000000), wk =   0.0034722
        k(   99) = (   0.1666667   0.0833333   0.0000000), wk =   0.0034722
        k(  100) = (   0.1666667   0.1250000   0.0000000), wk =   0.0034722
        k(  101) = (   0.1666667   0.1666667   0.0000000), wk =   0.0034722
        k(  102) = (   0.1666667   0.2083333   0.0000000), wk =   0.0034722
        k(  103) = (   0.1666667   0.2500000   0.0000000), wk =   0.0034722
        k(  104) = (   0.1666667   0.2916667   0.0000000), wk =   0.0034722
        k(  105) = (   0.1666667   0.3333333   0.0000000), wk =   0.0034722
        k(  106) = (   0.1666667   0.3750000   0.0000000), wk =   0.0034722
        k(  107) = (   0.1666667   0.4166667   0.0000000), wk =   0.0034722
        k(  108) = (   0.1666667   0.4583333   0.0000000), wk =   0.0034722
        k(  109) = (   0.1666667  -0.5000000   0.0000000), wk =   0.0034722
        k(  110) = (   0.1666667  -0.4583333   0.0000000), wk =   0.0034722
        k(  111) = (   0.1666667  -0.4166667   0.0000000), wk =   0.0034722
        k(  112) = (   0.1666667  -0.3750000   0.0000000), wk =   0.0034722
        k(  113) = (   0.1666667  -0.3333333   0.0000000), wk =   0.0034722
        k(  114) = (   0.1666667  -0.2916667   0.0000000), wk =   0.0034722
        k(  115) = (   0.1666667  -0.2500000   0.0000000), wk =   0.0034722
        k(  116) = (   0.1666667  -0.2083333   0.0000000), wk =   0.0034722
        k(  117) = (   0.1666667  -0.1666667   0.0000000), wk =   0.0034722
        k(  118) = (   0.1666667  -0.1250000   0.0000000), wk =   0.0034722
        k(  119) = (   0.1666667  -0.0833333   0.0000000), wk =   0.0034722
        k(  120) = (   0.1666667  -0.0416667   0.0000000), wk =   0.0034722
        k(  121) = (   0.2083333   0.0000000   0.0000000), wk =   0.0034722
        k(  122) = (   0.2083333   0.0416667   0.0000000), wk =   0.0034722
        k(  123) = (   0.2083333   0.0833333   0.0000000), wk =   0.0034722
        k(  124) = (   0.2083333   0.1250000   0.0000000), wk =   0.0034722
        k(  125) = (   0.2083333   0.1666667   0.0000000), wk =   0.0034722
        k(  126) = (   0.2083333   0.2083333   0.0000000), wk =   0.0034722
        k(  127) = (   0.2083333   0.2500000   0.0000000), wk =   0.0034722
        k(  128) = (   0.2083333   0.2916667   0.0000000), wk =   0.0034722
        k(  129) = (   0.2083333   0.3333333   0.0000000), wk =   0.0034722
        k(  130) = (   0.2083333   0.3750000   0.0000000), wk =   0.0034722
        k(  131) = (   0.2083333   0.4166667   0.0000000), wk =   0.0034722
        k(  132) = (   0.2083333   0.4583333   0.0000000), wk =   0.0034722
        k(  133) = (   0.2083333  -0.5000000   0.0000000), wk =   0.0034722
        k(  134) = (   0.2083333  -0.4583333   0.0000000), wk =   0.0034722
        k(  135) = (   0.2083333  -0.4166667   0.0000000), wk =   0.0034722
        k(  136) = (   0.2083333  -0.3750000   0.0000000), wk =   0.0034722
        k(  137) = (   0.2083333  -0.3333333   0.0000000), wk =   0.0034722
        k(  138) = (   0.2083333  -0.2916667   0.0000000), wk =   0.0034722
        k(  139) = (   0.2083333  -0.2500000   0.0000000), wk =   0.0034722
        k(  140) = (   0.2083333  -0.2083333   0.0000000), wk =   0.0034722
        k(  141) = (   0.2083333  -0.1666667   0.0000000), wk =   0.0034722
        k(  142) = (   0.2083333  -0.1250000   0.0000000), wk =   0.0034722
        k(  143) = (   0.2083333  -0.0833333   0.0000000), wk =   0.0034722
        k(  144) = (   0.2083333  -0.0416667   0.0000000), wk =   0.0034722
        k(  145) = (   0.2500000   0.0000000   0.0000000), wk =   0.0034722
        k(  146) = (   0.2500000   0.0416667   0.0000000), wk =   0.0034722
        k(  147) = (   0.2500000   0.0833333   0.0000000), wk =   0.0034722
        k(  148) = (   0.2500000   0.1250000   0.0000000), wk =   0.0034722
        k(  149) = (   0.2500000   0.1666667   0.0000000), wk =   0.0034722
        k(  150) = (   0.2500000   0.2083333   0.0000000), wk =   0.0034722
        k(  151) = (   0.2500000   0.2500000   0.0000000), wk =   0.0034722
        k(  152) = (   0.2500000   0.2916667   0.0000000), wk =   0.0034722
        k(  153) = (   0.2500000   0.3333333   0.0000000), wk =   0.0034722
        k(  154) = (   0.2500000   0.3750000   0.0000000), wk =   0.0034722
        k(  155) = (   0.2500000   0.4166667   0.0000000), wk =   0.0034722
        k(  156) = (   0.2500000   0.4583333   0.0000000), wk =   0.0034722
        k(  157) = (   0.2500000  -0.5000000   0.0000000), wk =   0.0034722
        k(  158) = (   0.2500000  -0.4583333   0.0000000), wk =   0.0034722
        k(  159) = (   0.2500000  -0.4166667   0.0000000), wk =   0.0034722
        k(  160) = (   0.2500000  -0.3750000   0.0000000), wk =   0.0034722
        k(  161) = (   0.2500000  -0.3333333   0.0000000), wk =   0.0034722
        k(  162) = (   0.2500000  -0.2916667   0.0000000), wk =   0.0034722
        k(  163) = (   0.2500000  -0.2500000   0.0000000), wk =   0.0034722
        k(  164) = (   0.2500000  -0.2083333   0.0000000), wk =   0.0034722
        k(  165) = (   0.2500000  -0.1666667   0.0000000), wk =   0.0034722
        k(  166) = (   0.2500000  -0.1250000   0.0000000), wk =   0.0034722
        k(  167) = (   0.2500000  -0.0833333   0.0000000), wk =   0.0034722
        k(  168) = (   0.2500000  -0.0416667   0.0000000), wk =   0.0034722
        k(  169) = (   0.2916667   0.0000000   0.0000000), wk =   0.0034722
        k(  170) = (   0.2916667   0.0416667   0.0000000), wk =   0.0034722
        k(  171) = (   0.2916667   0.0833333   0.0000000), wk =   0.0034722
        k(  172) = (   0.2916667   0.1250000   0.0000000), wk =   0.0034722
        k(  173) = (   0.2916667   0.1666667   0.0000000), wk =   0.0034722
        k(  174) = (   0.2916667   0.2083333   0.0000000), wk =   0.0034722
        k(  175) = (   0.2916667   0.2500000   0.0000000), wk =   0.0034722
        k(  176) = (   0.2916667   0.2916667   0.0000000), wk =   0.0034722
        k(  177) = (   0.2916667   0.3333333   0.0000000), wk =   0.0034722
        k(  178) = (   0.2916667   0.3750000   0.0000000), wk =   0.0034722
        k(  179) = (   0.2916667   0.4166667   0.0000000), wk =   0.0034722
        k(  180) = (   0.2916667   0.4583333   0.0000000), wk =   0.0034722
        k(  181) = (   0.2916667  -0.5000000   0.0000000), wk =   0.0034722
        k(  182) = (   0.2916667  -0.4583333   0.0000000), wk =   0.0034722
        k(  183) = (   0.2916667  -0.4166667   0.0000000), wk =   0.0034722
        k(  184) = (   0.2916667  -0.3750000   0.0000000), wk =   0.0034722
        k(  185) = (   0.2916667  -0.3333333   0.0000000), wk =   0.0034722
        k(  186) = (   0.2916667  -0.2916667   0.0000000), wk =   0.0034722
        k(  187) = (   0.2916667  -0.2500000   0.0000000), wk =   0.0034722
        k(  188) = (   0.2916667  -0.2083333   0.0000000), wk =   0.0034722
        k(  189) = (   0.2916667  -0.1666667   0.0000000), wk =   0.0034722
        k(  190) = (   0.2916667  -0.1250000   0.0000000), wk =   0.0034722
        k(  191) = (   0.2916667  -0.0833333   0.0000000), wk =   0.0034722
        k(  192) = (   0.2916667  -0.0416667   0.0000000), wk =   0.0034722
        k(  193) = (   0.3333333   0.0000000   0.0000000), wk =   0.0034722
        k(  194) = (   0.3333333   0.0416667   0.0000000), wk =   0.0034722
        k(  195) = (   0.3333333   0.0833333   0.0000000), wk =   0.0034722
        k(  196) = (   0.3333333   0.1250000   0.0000000), wk =   0.0034722
        k(  197) = (   0.3333333   0.1666667   0.0000000), wk =   0.0034722
        k(  198) = (   0.3333333   0.2083333   0.0000000), wk =   0.0034722
        k(  199) = (   0.3333333   0.2500000   0.0000000), wk =   0.0034722
        k(  200) = (   0.3333333   0.2916667   0.0000000), wk =   0.0034722
        k(  201) = (   0.3333333   0.3333333   0.0000000), wk =   0.0034722
        k(  202) = (   0.3333333   0.3750000   0.0000000), wk =   0.0034722
        k(  203) = (   0.3333333   0.4166667   0.0000000), wk =   0.0034722
        k(  204) = (   0.3333333   0.4583333   0.0000000), wk =   0.0034722
        k(  205) = (   0.3333333  -0.5000000   0.0000000), wk =   0.0034722
        k(  206) = (   0.3333333  -0.4583333   0.0000000), wk =   0.0034722
        k(  207) = (   0.3333333  -0.4166667   0.0000000), wk =   0.0034722
        k(  208) = (   0.3333333  -0.3750000   0.0000000), wk =   0.0034722
        k(  209) = (   0.3333333  -0.3333333   0.0000000), wk =   0.0034722
        k(  210) = (   0.3333333  -0.2916667   0.0000000), wk =   0.0034722
        k(  211) = (   0.3333333  -0.2500000   0.0000000), wk =   0.0034722
        k(  212) = (   0.3333333  -0.2083333   0.0000000), wk =   0.0034722
        k(  213) = (   0.3333333  -0.1666667   0.0000000), wk =   0.0034722
        k(  214) = (   0.3333333  -0.1250000   0.0000000), wk =   0.0034722
        k(  215) = (   0.3333333  -0.0833333   0.0000000), wk =   0.0034722
        k(  216) = (   0.3333333  -0.0416667   0.0000000), wk =   0.0034722
        k(  217) = (   0.3750000   0.0000000   0.0000000), wk =   0.0034722
        k(  218) = (   0.3750000   0.0416667   0.0000000), wk =   0.0034722
        k(  219) = (   0.3750000   0.0833333   0.0000000), wk =   0.0034722
        k(  220) = (   0.3750000   0.1250000   0.0000000), wk =   0.0034722
        k(  221) = (   0.3750000   0.1666667   0.0000000), wk =   0.0034722
        k(  222) = (   0.3750000   0.2083333   0.0000000), wk =   0.0034722
        k(  223) = (   0.3750000   0.2500000   0.0000000), wk =   0.0034722
        k(  224) = (   0.3750000   0.2916667   0.0000000), wk =   0.0034722
        k(  225) = (   0.3750000   0.3333333   0.0000000), wk =   0.0034722
        k(  226) = (   0.3750000   0.3750000   0.0000000), wk =   0.0034722
        k(  227) = (   0.3750000   0.4166667   0.0000000), wk =   0.0034722
        k(  228) = (   0.3750000   0.4583333   0.0000000), wk =   0.0034722
        k(  229) = (   0.3750000  -0.5000000   0.0000000), wk =   0.0034722
        k(  230) = (   0.3750000  -0.4583333   0.0000000), wk =   0.0034722
        k(  231) = (   0.3750000  -0.4166667   0.0000000), wk =   0.0034722
        k(  232) = (   0.3750000  -0.3750000   0.0000000), wk =   0.0034722
        k(  233) = (   0.3750000  -0.3333333   0.0000000), wk =   0.0034722
        k(  234) = (   0.3750000  -0.2916667   0.0000000), wk =   0.0034722
        k(  235) = (   0.3750000  -0.2500000   0.0000000), wk =   0.0034722
        k(  236) = (   0.3750000  -0.2083333   0.0000000), wk =   0.0034722
        k(  237) = (   0.3750000  -0.1666667   0.0000000), wk =   0.0034722
        k(  238) = (   0.3750000  -0.1250000   0.0000000), wk =   0.0034722
        k(  239) = (   0.3750000  -0.0833333   0.0000000), wk =   0.0034722
        k(  240) = (   0.3750000  -0.0416667   0.0000000), wk =   0.0034722
        k(  241) = (   0.4166667   0.0000000   0.0000000), wk =   0.0034722
        k(  242) = (   0.4166667   0.0416667   0.0000000), wk =   0.0034722
        k(  243) = (   0.4166667   0.0833333   0.0000000), wk =   0.0034722
        k(  244) = (   0.4166667   0.1250000   0.0000000), wk =   0.0034722
        k(  245) = (   0.4166667   0.1666667   0.0000000), wk =   0.0034722
        k(  246) = (   0.4166667   0.2083333   0.0000000), wk =   0.0034722
        k(  247) = (   0.4166667   0.2500000   0.0000000), wk =   0.0034722
        k(  248) = (   0.4166667   0.2916667   0.0000000), wk =   0.0034722
        k(  249) = (   0.4166667   0.3333333   0.0000000), wk =   0.0034722
        k(  250) = (   0.4166667   0.3750000   0.0000000), wk =   0.0034722
        k(  251) = (   0.4166667   0.4166667   0.0000000), wk =   0.0034722
        k(  252) = (   0.4166667   0.4583333   0.0000000), wk =   0.0034722
        k(  253) = (   0.4166667  -0.5000000   0.0000000), wk =   0.0034722
        k(  254) = (   0.4166667  -0.4583333   0.0000000), wk =   0.0034722
        k(  255) = (   0.4166667  -0.4166667   0.0000000), wk =   0.0034722
        k(  256) = (   0.4166667  -0.3750000   0.0000000), wk =   0.0034722
        k(  257) = (   0.4166667  -0.3333333   0.0000000), wk =   0.0034722
        k(  258) = (   0.4166667  -0.2916667   0.0000000), wk =   0.0034722
        k(  259) = (   0.4166667  -0.2500000   0.0000000), wk =   0.0034722
        k(  260) = (   0.4166667  -0.2083333   0.0000000), wk =   0.0034722
        k(  261) = (   0.4166667  -0.1666667   0.0000000), wk =   0.0034722
        k(  262) = (   0.4166667  -0.1250000   0.0000000), wk =   0.0034722
        k(  263) = (   0.4166667  -0.0833333   0.0000000), wk =   0.0034722
        k(  264) = (   0.4166667  -0.0416667   0.0000000), wk =   0.0034722
        k(  265) = (   0.4583333   0.0000000   0.0000000), wk =   0.0034722
        k(  266) = (   0.4583333   0.0416667   0.0000000), wk =   0.0034722
        k(  267) = (   0.4583333   0.0833333   0.0000000), wk =   0.0034722
        k(  268) = (   0.4583333   0.1250000   0.0000000), wk =   0.0034722
        k(  269) = (   0.4583333   0.1666667   0.0000000), wk =   0.0034722
        k(  270) = (   0.4583333   0.2083333   0.0000000), wk =   0.0034722
        k(  271) = (   0.4583333   0.2500000   0.0000000), wk =   0.0034722
        k(  272) = (   0.4583333   0.2916667   0.0000000), wk =   0.0034722
        k(  273) = (   0.4583333   0.3333333   0.0000000), wk =   0.0034722
        k(  274) = (   0.4583333   0.3750000   0.0000000), wk =   0.0034722
        k(  275) = (   0.4583333   0.4166667   0.0000000), wk =   0.0034722
        k(  276) = (   0.4583333   0.4583333   0.0000000), wk =   0.0034722
        k(  277) = (   0.4583333  -0.5000000   0.0000000), wk =   0.0034722
        k(  278) = (   0.4583333  -0.4583333   0.0000000), wk =   0.0034722
        k(  279) = (   0.4583333  -0.4166667   0.0000000), wk =   0.0034722
        k(  280) = (   0.4583333  -0.3750000   0.0000000), wk =   0.0034722
        k(  281) = (   0.4583333  -0.3333333   0.0000000), wk =   0.0034722
        k(  282) = (   0.4583333  -0.2916667   0.0000000), wk =   0.0034722
        k(  283) = (   0.4583333  -0.2500000   0.0000000), wk =   0.0034722
        k(  284) = (   0.4583333  -0.2083333   0.0000000), wk =   0.0034722
        k(  285) = (   0.4583333  -0.1666667   0.0000000), wk =   0.0034722
        k(  286) = (   0.4583333  -0.1250000   0.0000000), wk =   0.0034722
        k(  287) = (   0.4583333  -0.0833333   0.0000000), wk =   0.0034722
        k(  288) = (   0.4583333  -0.0416667   0.0000000), wk =   0.0034722
        k(  289) = (  -0.5000000   0.0000000   0.0000000), wk =   0.0034722
        k(  290) = (  -0.5000000   0.0416667   0.0000000), wk =   0.0034722
        k(  291) = (  -0.5000000   0.0833333   0.0000000), wk =   0.0034722
        k(  292) = (  -0.5000000   0.1250000   0.0000000), wk =   0.0034722
        k(  293) = (  -0.5000000   0.1666667   0.0000000), wk =   0.0034722
        k(  294) = (  -0.5000000   0.2083333   0.0000000), wk =   0.0034722
        k(  295) = (  -0.5000000   0.2500000   0.0000000), wk =   0.0034722
        k(  296) = (  -0.5000000   0.2916667   0.0000000), wk =   0.0034722
        k(  297) = (  -0.5000000   0.3333333   0.0000000), wk =   0.0034722
        k(  298) = (  -0.5000000   0.3750000   0.0000000), wk =   0.0034722
        k(  299) = (  -0.5000000   0.4166667   0.0000000), wk =   0.0034722
        k(  300) = (  -0.5000000   0.4583333   0.0000000), wk =   0.0034722
        k(  301) = (  -0.5000000  -0.5000000   0.0000000), wk =   0.0034722
        k(  302) = (  -0.5000000  -0.4583333   0.0000000), wk =   0.0034722
        k(  303) = (  -0.5000000  -0.4166667   0.0000000), wk =   0.0034722
        k(  304) = (  -0.5000000  -0.3750000   0.0000000), wk =   0.0034722
        k(  305) = (  -0.5000000  -0.3333333   0.0000000), wk =   0.0034722
        k(  306) = (  -0.5000000  -0.2916667   0.0000000), wk =   0.0034722
        k(  307) = (  -0.5000000  -0.2500000   0.0000000), wk =   0.0034722
        k(  308) = (  -0.5000000  -0.2083333   0.0000000), wk =   0.0034722
        k(  309) = (  -0.5000000  -0.1666667   0.0000000), wk =   0.0034722
        k(  310) = (  -0.5000000  -0.1250000   0.0000000), wk =   0.0034722
        k(  311) = (  -0.5000000  -0.0833333   0.0000000), wk =   0.0034722
        k(  312) = (  -0.5000000  -0.0416667   0.0000000), wk =   0.0034722
        k(  313) = (  -0.4583333  -0.0000000   0.0000000), wk =   0.0034722
        k(  314) = (  -0.4583333   0.0416667   0.0000000), wk =   0.0034722
        k(  315) = (  -0.4583333   0.0833333   0.0000000), wk =   0.0034722
        k(  316) = (  -0.4583333   0.1250000   0.0000000), wk =   0.0034722
        k(  317) = (  -0.4583333   0.1666667   0.0000000), wk =   0.0034722
        k(  318) = (  -0.4583333   0.2083333   0.0000000), wk =   0.0034722
        k(  319) = (  -0.4583333   0.2500000   0.0000000), wk =   0.0034722
        k(  320) = (  -0.4583333   0.2916667   0.0000000), wk =   0.0034722
        k(  321) = (  -0.4583333   0.3333333   0.0000000), wk =   0.0034722
        k(  322) = (  -0.4583333   0.3750000   0.0000000), wk =   0.0034722
        k(  323) = (  -0.4583333   0.4166667   0.0000000), wk =   0.0034722
        k(  324) = (  -0.4583333   0.4583333   0.0000000), wk =   0.0034722
        k(  325) = (  -0.4583333  -0.5000000   0.0000000), wk =   0.0034722
        k(  326) = (  -0.4583333  -0.4583333   0.0000000), wk =   0.0034722
        k(  327) = (  -0.4583333  -0.4166667   0.0000000), wk =   0.0034722
        k(  328) = (  -0.4583333  -0.3750000   0.0000000), wk =   0.0034722
        k(  329) = (  -0.4583333  -0.3333333   0.0000000), wk =   0.0034722
        k(  330) = (  -0.4583333  -0.2916667   0.0000000), wk =   0.0034722
        k(  331) = (  -0.4583333  -0.2500000   0.0000000), wk =   0.0034722
        k(  332) = (  -0.4583333  -0.2083333   0.0000000), wk =   0.0034722
        k(  333) = (  -0.4583333  -0.1666667   0.0000000), wk =   0.0034722
        k(  334) = (  -0.4583333  -0.1250000   0.0000000), wk =   0.0034722
        k(  335) = (  -0.4583333  -0.0833333   0.0000000), wk =   0.0034722
        k(  336) = (  -0.4583333  -0.0416667   0.0000000), wk =   0.0034722
        k(  337) = (  -0.4166667   0.0000000   0.0000000), wk =   0.0034722
        k(  338) = (  -0.4166667   0.0416667   0.0000000), wk =   0.0034722
        k(  339) = (  -0.4166667   0.0833333   0.0000000), wk =   0.0034722
        k(  340) = (  -0.4166667   0.1250000   0.0000000), wk =   0.0034722
        k(  341) = (  -0.4166667   0.1666667   0.0000000), wk =   0.0034722
        k(  342) = (  -0.4166667   0.2083333   0.0000000), wk =   0.0034722
        k(  343) = (  -0.4166667   0.2500000   0.0000000), wk =   0.0034722
        k(  344) = (  -0.4166667   0.2916667   0.0000000), wk =   0.0034722
        k(  345) = (  -0.4166667   0.3333333   0.0000000), wk =   0.0034722
        k(  346) = (  -0.4166667   0.3750000   0.0000000), wk =   0.0034722
        k(  347) = (  -0.4166667   0.4166667   0.0000000), wk =   0.0034722
        k(  348) = (  -0.4166667   0.4583333   0.0000000), wk =   0.0034722
        k(  349) = (  -0.4166667  -0.5000000   0.0000000), wk =   0.0034722
        k(  350) = (  -0.4166667  -0.4583333   0.0000000), wk =   0.0034722
        k(  351) = (  -0.4166667  -0.4166667   0.0000000), wk =   0.0034722
        k(  352) = (  -0.4166667  -0.3750000   0.0000000), wk =   0.0034722
        k(  353) = (  -0.4166667  -0.3333333   0.0000000), wk =   0.0034722
        k(  354) = (  -0.4166667  -0.2916667   0.0000000), wk =   0.0034722
        k(  355) = (  -0.4166667  -0.2500000   0.0000000), wk =   0.0034722
        k(  356) = (  -0.4166667  -0.2083333   0.0000000), wk =   0.0034722
        k(  357) = (  -0.4166667  -0.1666667   0.0000000), wk =   0.0034722
        k(  358) = (  -0.4166667  -0.1250000   0.0000000), wk =   0.0034722
        k(  359) = (  -0.4166667  -0.0833333   0.0000000), wk =   0.0034722
        k(  360) = (  -0.4166667  -0.0416667   0.0000000), wk =   0.0034722
        k(  361) = (  -0.3750000  -0.0000000   0.0000000), wk =   0.0034722
        k(  362) = (  -0.3750000   0.0416667   0.0000000), wk =   0.0034722
        k(  363) = (  -0.3750000   0.0833333   0.0000000), wk =   0.0034722
        k(  364) = (  -0.3750000   0.1250000   0.0000000), wk =   0.0034722
        k(  365) = (  -0.3750000   0.1666667   0.0000000), wk =   0.0034722
        k(  366) = (  -0.3750000   0.2083333   0.0000000), wk =   0.0034722
        k(  367) = (  -0.3750000   0.2500000   0.0000000), wk =   0.0034722
        k(  368) = (  -0.3750000   0.2916667   0.0000000), wk =   0.0034722
        k(  369) = (  -0.3750000   0.3333333   0.0000000), wk =   0.0034722
        k(  370) = (  -0.3750000   0.3750000   0.0000000), wk =   0.0034722
        k(  371) = (  -0.3750000   0.4166667   0.0000000), wk =   0.0034722
        k(  372) = (  -0.3750000   0.4583333   0.0000000), wk =   0.0034722
        k(  373) = (  -0.3750000  -0.5000000   0.0000000), wk =   0.0034722
        k(  374) = (  -0.3750000  -0.4583333   0.0000000), wk =   0.0034722
        k(  375) = (  -0.3750000  -0.4166667   0.0000000), wk =   0.0034722
        k(  376) = (  -0.3750000  -0.3750000   0.0000000), wk =   0.0034722
        k(  377) = (  -0.3750000  -0.3333333   0.0000000), wk =   0.0034722
        k(  378) = (  -0.3750000  -0.2916667   0.0000000), wk =   0.0034722
        k(  379) = (  -0.3750000  -0.2500000   0.0000000), wk =   0.0034722
        k(  380) = (  -0.3750000  -0.2083333   0.0000000), wk =   0.0034722
        k(  381) = (  -0.3750000  -0.1666667   0.0000000), wk =   0.0034722
        k(  382) = (  -0.3750000  -0.1250000   0.0000000), wk =   0.0034722
        k(  383) = (  -0.3750000  -0.0833333   0.0000000), wk =   0.0034722
        k(  384) = (  -0.3750000  -0.0416667   0.0000000), wk =   0.0034722
        k(  385) = (  -0.3333333   0.0000000   0.0000000), wk =   0.0034722
        k(  386) = (  -0.3333333   0.0416667   0.0000000), wk =   0.0034722
        k(  387) = (  -0.3333333   0.0833333   0.0000000), wk =   0.0034722
        k(  388) = (  -0.3333333   0.1250000   0.0000000), wk =   0.0034722
        k(  389) = (  -0.3333333   0.1666667   0.0000000), wk =   0.0034722
        k(  390) = (  -0.3333333   0.2083333   0.0000000), wk =   0.0034722
        k(  391) = (  -0.3333333   0.2500000   0.0000000), wk =   0.0034722
        k(  392) = (  -0.3333333   0.2916667   0.0000000), wk =   0.0034722
        k(  393) = (  -0.3333333   0.3333333   0.0000000), wk =   0.0034722
        k(  394) = (  -0.3333333   0.3750000   0.0000000), wk =   0.0034722
        k(  395) = (  -0.3333333   0.4166667   0.0000000), wk =   0.0034722
        k(  396) = (  -0.3333333   0.4583333   0.0000000), wk =   0.0034722
        k(  397) = (  -0.3333333  -0.5000000   0.0000000), wk =   0.0034722
        k(  398) = (  -0.3333333  -0.4583333   0.0000000), wk =   0.0034722
        k(  399) = (  -0.3333333  -0.4166667   0.0000000), wk =   0.0034722
        k(  400) = (  -0.3333333  -0.3750000   0.0000000), wk =   0.0034722
        k(  401) = (  -0.3333333  -0.3333333   0.0000000), wk =   0.0034722
        k(  402) = (  -0.3333333  -0.2916667   0.0000000), wk =   0.0034722
        k(  403) = (  -0.3333333  -0.2500000   0.0000000), wk =   0.0034722
        k(  404) = (  -0.3333333  -0.2083333   0.0000000), wk =   0.0034722
        k(  405) = (  -0.3333333  -0.1666667   0.0000000), wk =   0.0034722
        k(  406) = (  -0.3333333  -0.1250000   0.0000000), wk =   0.0034722
        k(  407) = (  -0.3333333  -0.0833333   0.0000000), wk =   0.0034722
        k(  408) = (  -0.3333333  -0.0416667   0.0000000), wk =   0.0034722
        k(  409) = (  -0.2916667   0.0000000   0.0000000), wk =   0.0034722
        k(  410) = (  -0.2916667   0.0416667   0.0000000), wk =   0.0034722
        k(  411) = (  -0.2916667   0.0833333   0.0000000), wk =   0.0034722
        k(  412) = (  -0.2916667   0.1250000   0.0000000), wk =   0.0034722
        k(  413) = (  -0.2916667   0.1666667   0.0000000), wk =   0.0034722
        k(  414) = (  -0.2916667   0.2083333   0.0000000), wk =   0.0034722
        k(  415) = (  -0.2916667   0.2500000   0.0000000), wk =   0.0034722
        k(  416) = (  -0.2916667   0.2916667   0.0000000), wk =   0.0034722
        k(  417) = (  -0.2916667   0.3333333   0.0000000), wk =   0.0034722
        k(  418) = (  -0.2916667   0.3750000   0.0000000), wk =   0.0034722
        k(  419) = (  -0.2916667   0.4166667   0.0000000), wk =   0.0034722
        k(  420) = (  -0.2916667   0.4583333   0.0000000), wk =   0.0034722
        k(  421) = (  -0.2916667  -0.5000000   0.0000000), wk =   0.0034722
        k(  422) = (  -0.2916667  -0.4583333   0.0000000), wk =   0.0034722
        k(  423) = (  -0.2916667  -0.4166667   0.0000000), wk =   0.0034722
        k(  424) = (  -0.2916667  -0.3750000   0.0000000), wk =   0.0034722
        k(  425) = (  -0.2916667  -0.3333333   0.0000000), wk =   0.0034722
        k(  426) = (  -0.2916667  -0.2916667   0.0000000), wk =   0.0034722
        k(  427) = (  -0.2916667  -0.2500000   0.0000000), wk =   0.0034722
        k(  428) = (  -0.2916667  -0.2083333   0.0000000), wk =   0.0034722
        k(  429) = (  -0.2916667  -0.1666667   0.0000000), wk =   0.0034722
        k(  430) = (  -0.2916667  -0.1250000   0.0000000), wk =   0.0034722
        k(  431) = (  -0.2916667  -0.0833333   0.0000000), wk =   0.0034722
        k(  432) = (  -0.2916667  -0.0416667   0.0000000), wk =   0.0034722
        k(  433) = (  -0.2500000   0.0000000   0.0000000), wk =   0.0034722
        k(  434) = (  -0.2500000   0.0416667   0.0000000), wk =   0.0034722
        k(  435) = (  -0.2500000   0.0833333   0.0000000), wk =   0.0034722
        k(  436) = (  -0.2500000   0.1250000   0.0000000), wk =   0.0034722
        k(  437) = (  -0.2500000   0.1666667   0.0000000), wk =   0.0034722
        k(  438) = (  -0.2500000   0.2083333   0.0000000), wk =   0.0034722
        k(  439) = (  -0.2500000   0.2500000   0.0000000), wk =   0.0034722
        k(  440) = (  -0.2500000   0.2916667   0.0000000), wk =   0.0034722
        k(  441) = (  -0.2500000   0.3333333   0.0000000), wk =   0.0034722
        k(  442) = (  -0.2500000   0.3750000   0.0000000), wk =   0.0034722
        k(  443) = (  -0.2500000   0.4166667   0.0000000), wk =   0.0034722
        k(  444) = (  -0.2500000   0.4583333   0.0000000), wk =   0.0034722
        k(  445) = (  -0.2500000  -0.5000000   0.0000000), wk =   0.0034722
        k(  446) = (  -0.2500000  -0.4583333   0.0000000), wk =   0.0034722
        k(  447) = (  -0.2500000  -0.4166667   0.0000000), wk =   0.0034722
        k(  448) = (  -0.2500000  -0.3750000   0.0000000), wk =   0.0034722
        k(  449) = (  -0.2500000  -0.3333333   0.0000000), wk =   0.0034722
        k(  450) = (  -0.2500000  -0.2916667   0.0000000), wk =   0.0034722
        k(  451) = (  -0.2500000  -0.2500000   0.0000000), wk =   0.0034722
        k(  452) = (  -0.2500000  -0.2083333   0.0000000), wk =   0.0034722
        k(  453) = (  -0.2500000  -0.1666667   0.0000000), wk =   0.0034722
        k(  454) = (  -0.2500000  -0.1250000   0.0000000), wk =   0.0034722
        k(  455) = (  -0.2500000  -0.0833333   0.0000000), wk =   0.0034722
        k(  456) = (  -0.2500000  -0.0416667   0.0000000), wk =   0.0034722
        k(  457) = (  -0.2083333  -0.0000000   0.0000000), wk =   0.0034722
        k(  458) = (  -0.2083333   0.0416667   0.0000000), wk =   0.0034722
        k(  459) = (  -0.2083333   0.0833333   0.0000000), wk =   0.0034722
        k(  460) = (  -0.2083333   0.1250000   0.0000000), wk =   0.0034722
        k(  461) = (  -0.2083333   0.1666667   0.0000000), wk =   0.0034722
        k(  462) = (  -0.2083333   0.2083333   0.0000000), wk =   0.0034722
        k(  463) = (  -0.2083333   0.2500000   0.0000000), wk =   0.0034722
        k(  464) = (  -0.2083333   0.2916667   0.0000000), wk =   0.0034722
        k(  465) = (  -0.2083333   0.3333333   0.0000000), wk =   0.0034722
        k(  466) = (  -0.2083333   0.3750000   0.0000000), wk =   0.0034722
        k(  467) = (  -0.2083333   0.4166667   0.0000000), wk =   0.0034722
        k(  468) = (  -0.2083333   0.4583333   0.0000000), wk =   0.0034722
        k(  469) = (  -0.2083333  -0.5000000   0.0000000), wk =   0.0034722
        k(  470) = (  -0.2083333  -0.4583333   0.0000000), wk =   0.0034722
        k(  471) = (  -0.2083333  -0.4166667   0.0000000), wk =   0.0034722
        k(  472) = (  -0.2083333  -0.3750000   0.0000000), wk =   0.0034722
        k(  473) = (  -0.2083333  -0.3333333   0.0000000), wk =   0.0034722
        k(  474) = (  -0.2083333  -0.2916667   0.0000000), wk =   0.0034722
        k(  475) = (  -0.2083333  -0.2500000   0.0000000), wk =   0.0034722
        k(  476) = (  -0.2083333  -0.2083333   0.0000000), wk =   0.0034722
        k(  477) = (  -0.2083333  -0.1666667   0.0000000), wk =   0.0034722
        k(  478) = (  -0.2083333  -0.1250000   0.0000000), wk =   0.0034722
        k(  479) = (  -0.2083333  -0.0833333   0.0000000), wk =   0.0034722
        k(  480) = (  -0.2083333  -0.0416667   0.0000000), wk =   0.0034722
        k(  481) = (  -0.1666667   0.0000000   0.0000000), wk =   0.0034722
        k(  482) = (  -0.1666667   0.0416667   0.0000000), wk =   0.0034722
        k(  483) = (  -0.1666667   0.0833333   0.0000000), wk =   0.0034722
        k(  484) = (  -0.1666667   0.1250000   0.0000000), wk =   0.0034722
        k(  485) = (  -0.1666667   0.1666667   0.0000000), wk =   0.0034722
        k(  486) = (  -0.1666667   0.2083333   0.0000000), wk =   0.0034722
        k(  487) = (  -0.1666667   0.2500000   0.0000000), wk =   0.0034722
        k(  488) = (  -0.1666667   0.2916667   0.0000000), wk =   0.0034722
        k(  489) = (  -0.1666667   0.3333333   0.0000000), wk =   0.0034722
        k(  490) = (  -0.1666667   0.3750000   0.0000000), wk =   0.0034722
        k(  491) = (  -0.1666667   0.4166667   0.0000000), wk =   0.0034722
        k(  492) = (  -0.1666667   0.4583333   0.0000000), wk =   0.0034722
        k(  493) = (  -0.1666667  -0.5000000   0.0000000), wk =   0.0034722
        k(  494) = (  -0.1666667  -0.4583333   0.0000000), wk =   0.0034722
        k(  495) = (  -0.1666667  -0.4166667   0.0000000), wk =   0.0034722
        k(  496) = (  -0.1666667  -0.3750000   0.0000000), wk =   0.0034722
        k(  497) = (  -0.1666667  -0.3333333   0.0000000), wk =   0.0034722
        k(  498) = (  -0.1666667  -0.2916667   0.0000000), wk =   0.0034722
        k(  499) = (  -0.1666667  -0.2500000   0.0000000), wk =   0.0034722
        k(  500) = (  -0.1666667  -0.2083333   0.0000000), wk =   0.0034722
        k(  501) = (  -0.1666667  -0.1666667   0.0000000), wk =   0.0034722
        k(  502) = (  -0.1666667  -0.1250000   0.0000000), wk =   0.0034722
        k(  503) = (  -0.1666667  -0.0833333   0.0000000), wk =   0.0034722
        k(  504) = (  -0.1666667  -0.0416667   0.0000000), wk =   0.0034722
        k(  505) = (  -0.1250000   0.0000000   0.0000000), wk =   0.0034722
        k(  506) = (  -0.1250000   0.0416667   0.0000000), wk =   0.0034722
        k(  507) = (  -0.1250000   0.0833333   0.0000000), wk =   0.0034722
        k(  508) = (  -0.1250000   0.1250000   0.0000000), wk =   0.0034722
        k(  509) = (  -0.1250000   0.1666667   0.0000000), wk =   0.0034722
        k(  510) = (  -0.1250000   0.2083333   0.0000000), wk =   0.0034722
        k(  511) = (  -0.1250000   0.2500000   0.0000000), wk =   0.0034722
        k(  512) = (  -0.1250000   0.2916667   0.0000000), wk =   0.0034722
        k(  513) = (  -0.1250000   0.3333333   0.0000000), wk =   0.0034722
        k(  514) = (  -0.1250000   0.3750000   0.0000000), wk =   0.0034722
        k(  515) = (  -0.1250000   0.4166667   0.0000000), wk =   0.0034722
        k(  516) = (  -0.1250000   0.4583333   0.0000000), wk =   0.0034722
        k(  517) = (  -0.1250000  -0.5000000   0.0000000), wk =   0.0034722
        k(  518) = (  -0.1250000  -0.4583333   0.0000000), wk =   0.0034722
        k(  519) = (  -0.1250000  -0.4166667   0.0000000), wk =   0.0034722
        k(  520) = (  -0.1250000  -0.3750000   0.0000000), wk =   0.0034722
        k(  521) = (  -0.1250000  -0.3333333   0.0000000), wk =   0.0034722
        k(  522) = (  -0.1250000  -0.2916667   0.0000000), wk =   0.0034722
        k(  523) = (  -0.1250000  -0.2500000   0.0000000), wk =   0.0034722
        k(  524) = (  -0.1250000  -0.2083333   0.0000000), wk =   0.0034722
        k(  525) = (  -0.1250000  -0.1666667   0.0000000), wk =   0.0034722
        k(  526) = (  -0.1250000  -0.1250000   0.0000000), wk =   0.0034722
        k(  527) = (  -0.1250000  -0.0833333   0.0000000), wk =   0.0034722
        k(  528) = (  -0.1250000  -0.0416667   0.0000000), wk =   0.0034722
        k(  529) = (  -0.0833333  -0.0000000   0.0000000), wk =   0.0034722
        k(  530) = (  -0.0833333   0.0416667   0.0000000), wk =   0.0034722
        k(  531) = (  -0.0833333   0.0833333   0.0000000), wk =   0.0034722
        k(  532) = (  -0.0833333   0.1250000   0.0000000), wk =   0.0034722
        k(  533) = (  -0.0833333   0.1666667   0.0000000), wk =   0.0034722
        k(  534) = (  -0.0833333   0.2083333   0.0000000), wk =   0.0034722
        k(  535) = (  -0.0833333   0.2500000   0.0000000), wk =   0.0034722
        k(  536) = (  -0.0833333   0.2916667   0.0000000), wk =   0.0034722
        k(  537) = (  -0.0833333   0.3333333   0.0000000), wk =   0.0034722
        k(  538) = (  -0.0833333   0.3750000   0.0000000), wk =   0.0034722
        k(  539) = (  -0.0833333   0.4166667   0.0000000), wk =   0.0034722
        k(  540) = (  -0.0833333   0.4583333   0.0000000), wk =   0.0034722
        k(  541) = (  -0.0833333  -0.5000000   0.0000000), wk =   0.0034722
        k(  542) = (  -0.0833333  -0.4583333   0.0000000), wk =   0.0034722
        k(  543) = (  -0.0833333  -0.4166667   0.0000000), wk =   0.0034722
        k(  544) = (  -0.0833333  -0.3750000   0.0000000), wk =   0.0034722
        k(  545) = (  -0.0833333  -0.3333333   0.0000000), wk =   0.0034722
        k(  546) = (  -0.0833333  -0.2916667   0.0000000), wk =   0.0034722
        k(  547) = (  -0.0833333  -0.2500000   0.0000000), wk =   0.0034722
        k(  548) = (  -0.0833333  -0.2083333   0.0000000), wk =   0.0034722
        k(  549) = (  -0.0833333  -0.1666667   0.0000000), wk =   0.0034722
        k(  550) = (  -0.0833333  -0.1250000   0.0000000), wk =   0.0034722
        k(  551) = (  -0.0833333  -0.0833333   0.0000000), wk =   0.0034722
        k(  552) = (  -0.0833333  -0.0416667   0.0000000), wk =   0.0034722
        k(  553) = (  -0.0416667   0.0000000   0.0000000), wk =   0.0034722
        k(  554) = (  -0.0416667   0.0416667   0.0000000), wk =   0.0034722
        k(  555) = (  -0.0416667   0.0833333   0.0000000), wk =   0.0034722
        k(  556) = (  -0.0416667   0.1250000   0.0000000), wk =   0.0034722
        k(  557) = (  -0.0416667   0.1666667   0.0000000), wk =   0.0034722
        k(  558) = (  -0.0416667   0.2083333   0.0000000), wk =   0.0034722
        k(  559) = (  -0.0416667   0.2500000   0.0000000), wk =   0.0034722
        k(  560) = (  -0.0416667   0.2916667   0.0000000), wk =   0.0034722
        k(  561) = (  -0.0416667   0.3333333   0.0000000), wk =   0.0034722
        k(  562) = (  -0.0416667   0.3750000   0.0000000), wk =   0.0034722
        k(  563) = (  -0.0416667   0.4166667   0.0000000), wk =   0.0034722
        k(  564) = (  -0.0416667   0.4583333   0.0000000), wk =   0.0034722
        k(  565) = (  -0.0416667  -0.5000000   0.0000000), wk =   0.0034722
        k(  566) = (  -0.0416667  -0.4583333   0.0000000), wk =   0.0034722
        k(  567) = (  -0.0416667  -0.4166667   0.0000000), wk =   0.0034722
        k(  568) = (  -0.0416667  -0.3750000   0.0000000), wk =   0.0034722
        k(  569) = (  -0.0416667  -0.3333333   0.0000000), wk =   0.0034722
        k(  570) = (  -0.0416667  -0.2916667   0.0000000), wk =   0.0034722
        k(  571) = (  -0.0416667  -0.2500000   0.0000000), wk =   0.0034722
        k(  572) = (  -0.0416667  -0.2083333   0.0000000), wk =   0.0034722
        k(  573) = (  -0.0416667  -0.1666667   0.0000000), wk =   0.0034722
        k(  574) = (  -0.0416667  -0.1250000   0.0000000), wk =   0.0034722
        k(  575) = (  -0.0416667  -0.0833333   0.0000000), wk =   0.0034722
        k(  576) = (  -0.0416667  -0.0416667   0.0000000), wk =   0.0034722

     Dense  grid:    19471 G-vectors     FFT dimensions: (  24,  20, 120)

     Dynamical RAM for                 wfc:       0.30 MB

     Dynamical RAM for     wfc (w. buffer):      21.64 MB

     Dynamical RAM for           str. fact:       0.30 MB

     Dynamical RAM for           local pot:       0.00 MB

     Dynamical RAM for          nlocal pot:       0.59 MB

     Dynamical RAM for                qrad:       0.29 MB

     Dynamical RAM for          rho,v,vnew:       2.21 MB

     Dynamical RAM for               rhoin:       0.74 MB

     Dynamical RAM for            rho*nmix:       4.75 MB

     Dynamical RAM for           G-vectors:       1.26 MB

     Dynamical RAM for          h,s,v(r/c):       0.01 MB

     Dynamical RAM for          <psi|beta>:       0.00 MB

     Dynamical RAM for                 psi:       0.59 MB

     Dynamical RAM for                hpsi:       0.59 MB

     Dynamical RAM for                spsi:       0.59 MB

     Dynamical RAM for      wfcinit/wfcrot:       0.59 MB

     Dynamical RAM for           addusdens:       1.93 MB

     Dynamical RAM for          addusforce:       1.90 MB

     Estimated static dynamical RAM per process >      29.82 MB

     Estimated max dynamical RAM per process >      36.50 MB

     Estimated total dynamical RAM >     258.73 MB

     Check: negative core charge=   -0.000014

     Initial potential from superposition of free atoms

     starting charge       7.9999, renormalised to       8.0000

     negative rho (up, down):  1.071E-03 0.000E+00
     Starting wfcs are    8 randomized atomic wfcs
     Checking if some PAW data can be deallocated... 

     total cpu time spent up to now is        1.7 secs

     per-process dynamical memory:    37.7 Mb

     Self-consistent Calculation

     iteration #  1     ecut=    40.00 Ry     beta= 0.70
     Davidson diagonalization with overlap

---- Real-time Memory Report at c_bands before calling an iterative solver
            69 MiB given to the printing process from OS
            37 MiB allocation reported by mallinfo(arena+hblkhd)
         25026 MiB available memory on the node where the printing process lives
------------------
     ethr =  1.00E-02,  avg # of iterations =  5.6

     negative rho (up, down):  1.778E-03 0.000E+00

     total cpu time spent up to now is        3.7 secs

     total energy              =     -36.83378969 Ry
     estimated scf accuracy    <       0.15817262 Ry

     iteration #  2     ecut=    40.00 Ry     beta= 0.70
     Davidson diagonalization with overlap

---- Real-time Memory Report at c_bands before calling an iterative solver
            79 MiB given to the printing process from OS
            46 MiB allocation reported by mallinfo(arena+hblkhd)
         24947 MiB available memory on the node where the printing process lives
------------------
     ethr =  1.98E-03,  avg # of iterations =  3.7

     negative rho (up, down):  1.969E-03 0.000E+00

     total cpu time spent up to now is        5.4 secs

     total energy              =     -36.85648383 Ry
     estimated scf accuracy    <       0.00207760 Ry

     iteration #  3     ecut=    40.00 Ry     beta= 0.70
     Davidson diagonalization with overlap

---- Real-time Memory Report at c_bands before calling an iterative solver
            79 MiB given to the printing process from OS
            47 MiB allocation reported by mallinfo(arena+hblkhd)
         24945 MiB available memory on the node where the printing process lives
------------------
     ethr =  2.60E-05,  avg # of iterations = 10.0

     negative rho (up, down):  2.054E-03 0.000E+00

     total cpu time spent up to now is        8.2 secs

     total energy              =     -36.85666281 Ry
     estimated scf accuracy    <       0.00016059 Ry

     iteration #  4     ecut=    40.00 Ry     beta= 0.70
     Davidson diagonalization with overlap

---- Real-time Memory Report at c_bands before calling an iterative solver
            80 MiB given to the printing process from OS
            47 MiB allocation reported by mallinfo(arena+hblkhd)
         24943 MiB available memory on the node where the printing process lives
------------------
     c_bands:  1 eigenvalues not converged
     ethr =  2.01E-06,  avg # of iterations =  4.5

     negative rho (up, down):  2.058E-03 0.000E+00

     total cpu time spent up to now is       10.1 secs

     total energy              =     -36.85666994 Ry
     estimated scf accuracy    <       0.00000453 Ry

     iteration #  5     ecut=    40.00 Ry     beta= 0.70
     Davidson diagonalization with overlap

---- Real-time Memory Report at c_bands before calling an iterative solver
            80 MiB given to the printing process from OS
            48 MiB allocation reported by mallinfo(arena+hblkhd)
         24952 MiB available memory on the node where the printing process lives
------------------
     ethr =  5.66E-08,  avg # of iterations =  2.0

     negative rho (up, down):  2.060E-03 0.000E+00

     total cpu time spent up to now is       11.4 secs

     total energy              =     -36.85667124 Ry
     estimated scf accuracy    <       0.00000039 Ry

     iteration #  6     ecut=    40.00 Ry     beta= 0.70
     Davidson diagonalization with overlap

---- Real-time Memory Report at c_bands before calling an iterative solver
            81 MiB given to the printing process from OS
            48 MiB allocation reported by mallinfo(arena+hblkhd)
         24952 MiB available memory on the node where the printing process lives
------------------
     ethr =  4.83E-09,  avg # of iterations =  2.0

     negative rho (up, down):  2.060E-03 0.000E+00

     total cpu time spent up to now is       12.6 secs

     End of self-consistent calculation

          k = 0.0000 0.0000 0.0000 (  2423 PWs)   bands (ev):

   -20.8699  -9.0824  -5.1448  -5.1115   1.2726   2.0449   2.3066   4.5620

     occupation numbers 
     1.0000   1.0000   1.0000   1.0000   0.0000   0.0000   0.0000   0.0000

          k = 0.0000 0.0538 0.0000 (  2428 PWs)   bands (ev):

   -20.8268  -9.0313  -5.2654  -5.2369   1.3316   2.1039   2.3658   4.3431

     occupation numbers 
     1.0000   1.0000   1.0000   1.0000   0.0000   0.0000   0.0000   0.0000

          k = 0.0000 0.1076 0.0000 (  2432 PWs)   bands (ev):

   -20.6975  -8.8783  -5.6027  -5.5960   1.5085   2.2812   2.5437   4.5178

     occupation numbers 
     1.0000   1.0000   1.0000   1.0000   0.0000   0.0000   0.0000   0.0000

          k = 0.0000 0.1614 0.0000 (  2430 PWs)   bands (ev):

   -20.4824  -8.6241  -6.1809  -6.0639   1.8033   2.5766   2.8401   4.5472

     occupation numbers 
     1.0000   1.0000   1.0000   1.0000   0.0000   0.0000   0.0000   0.0000

          k = 0.0000 0.2152 0.0000 (  2426 PWs)   bands (ev):

   -20.1823  -8.2707  -6.9321  -6.5964   2.2157   2.9894   3.2545   4.1296

     occupation numbers 
     1.0000   1.0000   1.0000   1.0000   0.0000   0.0000   0.0000   0.0000

          k = 0.0000 0.2691 0.0000 (  2424 PWs)   bands (ev):

   -19.7982  -7.8202  -7.8149  -7.1380   2.7452   3.5195   3.6781   3.8016

     occupation numbers 
     1.0000   1.0000   1.0000   1.0000   0.0000   0.0000   0.0000   0.0000

          k = 0.0000 0.3229 0.0000 (  2416 PWs)   bands (ev):

   -19.3312  -8.7887  -7.6510  -7.2764   3.2565   3.4046   4.1629   4.4430

     occupation numbers 
     1.0000   1.0000   1.0000   1.0000   0.0000   0.0000   0.0000   0.0000

          k = 0.0000 0.3767 0.0000 (  2420 PWs)   bands (ev):

   -18.7834  -9.8181  -8.1112  -6.6452   2.8889   3.6559   4.1593   4.9297

     occupation numbers 
     1.0000   1.0000   1.0000   1.0000   0.0000   0.0000   0.0000   0.0000

          k = 0.0000 0.4305 0.0000 (  2414 PWs)   bands (ev):

   -18.1569 -10.8729  -8.5028  -5.9353   2.5704   2.6199   5.0382   5.8024

     occupation numbers 
     1.0000   1.0000   1.0000   1.0000   0.0000   0.0000   0.0000   0.0000

          k = 0.0000 0.4843 0.0000 (  2414 PWs)   bands (ev):

   -17.4547 -11.9291  -8.8154  -5.1626   1.5717   2.3174   6.0314   6.7837

     occupation numbers 
     1.0000   1.0000   1.0000   1.0000   0.0000   0.0000   0.0000   0.0000

          k = 0.0000 0.5381 0.0000 (  2406 PWs)   bands (ev):

   -16.6804 -12.9668  -9.0426  -4.3613   0.5609   2.1347   7.1358   7.8624

     occupation numbers 
     1.0000   1.0000   1.0000   1.0000   0.0000   0.0000   0.0000   0.0000

          k = 0.0000 0.5919 0.0000 (  2404 PWs)   bands (ev):

   -15.8392 -13.9700  -9.1804  -3.6278  -0.3037   2.0244   8.3461   9.0076

     occupation numbers 
     1.0000   1.0000   1.0000   1.0000   0.0000   0.0000   0.0000   0.0000

          k = 0.0000-0.6457 0.0000 (  2410 PWs)   bands (ev):

   -15.0028 -14.8613  -9.2266  -3.2700  -0.7064   1.9876   9.6429   9.6599

     occupation numbers 
     1.0000   1.0000   1.0000   1.0000   0.0000   0.0000   0.0000   0.0000

          k = 0.0000-0.5919 0.0000 (  2404 PWs)   bands (ev):

   -15.8392 -13.9700  -9.1804  -3.6278  -0.3037   2.0244   8.3461   9.0082

     occupation numbers 
     1.0000   1.0000   1.0000   1.0000   0.0000   0.0000   0.0000   0.0000

          k = 0.0000-0.5381 0.0000 (  2406 PWs)   bands (ev):

   -16.6804 -12.9668  -9.0426  -4.3613   0.5609   2.1347   7.1358   7.8624

     occupation numbers 
     1.0000   1.0000   1.0000   1.0000   0.0000   0.0000   0.0000   0.0000

          k = 0.0000-0.4843 0.0000 (  2414 PWs)   bands (ev):

   -17.4547 -11.9291  -8.8154  -5.1626   1.5717   2.3174   6.0314   7.1057

     occupation numbers 
     1.0000   1.0000   1.0000   1.0000   0.0000   0.0000   0.0000   0.0000

          k = 0.0000-0.4305 0.0000 (  2414 PWs)   bands (ev):

   -18.1569 -10.8729  -8.5028  -5.9353   2.5704   2.6199   5.0382   5.8024

     occupation numbers 
     1.0000   1.0000   1.0000   1.0000   0.0000   0.0000   0.0000   0.0000

          k = 0.0000-0.3767 0.0000 (  2420 PWs)   bands (ev):

   -18.7834  -9.8181  -8.1112  -6.6452   2.8889   3.6559   4.1593   4.9296

     occupation numbers 
     1.0000   1.0000   1.0000   1.0000   0.0000   0.0000   0.0000   0.0000

          k = 0.0000-0.3229 0.0000 (  2416 PWs)   bands (ev):

   -19.3312  -8.7887  -7.6510  -7.2764   3.2565   3.4046   4.1628   4.4432

     occupation numbers 
     1.0000   1.0000   1.0000   1.0000   0.0000   0.0000   0.0000   0.0000

          k = 0.0000-0.2691 0.0000 (  2424 PWs)   bands (ev):

   -19.7982  -7.8202  -7.8149  -7.1380   2.7452   3.5195   3.6781   3.8016

     occupation numbers 
     1.0000   1.0000   1.0000   1.0000   0.0000   0.0000   0.0000   0.0000

          k = 0.0000-0.2152 0.0000 (  2426 PWs)   bands (ev):

   -20.1823  -8.2707  -6.9321  -6.5964   2.2157   2.9894   3.2545   4.1296

     occupation numbers 
     1.0000   1.0000   1.0000   1.0000   0.0000   0.0000   0.0000   0.0000

          k = 0.0000-0.1614 0.0000 (  2430 PWs)   bands (ev):

   -20.4824  -8.6241  -6.1809  -6.0639   1.8033   2.5765   2.8401   4.5471

     occupation numbers 
     1.0000   1.0000   1.0000   1.0000   0.0000   0.0000   0.0000   0.0000

          k = 0.0000-0.1076 0.0000 (  2432 PWs)   bands (ev):

   -20.6975  -8.8783  -5.6027  -5.5960   1.5085   2.2812   2.5437   4.5170

     occupation numbers 
     1.0000   1.0000   1.0000   1.0000   0.0000   0.0000   0.0000   0.0000

          k = 0.0000-0.0538 0.0000 (  2428 PWs)   bands (ev):

   -20.8268  -9.0313  -5.2654  -5.2369   1.3316   2.1040   2.3658   4.7747

     occupation numbers 
     1.0000   1.0000   1.0000   1.0000   0.0000   0.0000   0.0000   0.0000

          k = 0.0417-0.0269 0.0000 (  2425 PWs)   bands (ev):

   -20.8334  -9.0396  -5.3226  -5.1819   1.3222   2.0950   2.3564   4.3344

     occupation numbers 
     1.0000   1.0000   1.0000   1.0000   0.0000   0.0000   0.0000   0.0000

          k = 0.0417 0.0269 0.0000 (  2425 PWs)   bands (ev):

   -20.8334  -9.0396  -5.3228  -5.1817   1.3222   2.0950   2.3564   4.3344

     occupation numbers 
     1.0000   1.0000   1.0000   1.0000   0.0000   0.0000   0.0000   0.0000

          k = 0.0417 0.0807 0.0000 (  2432 PWs)   bands (ev):

   -20.7472  -8.9376  -5.6611  -5.3103   1.4402   2.2132   2.4751   4.4502

     occupation numbers 
     1.0000   1.0000   1.0000   1.0000   0.0000   0.0000   0.0000   0.0000

          k = 0.0417 0.1345 0.0000 (  2434 PWs)   bands (ev):

   -20.5750  -8.7341  -6.1674  -5.6691   1.6763   2.4494   2.7124   4.6815

     occupation numbers 
     1.0000   1.0000   1.0000   1.0000   0.0000   0.0000   0.0000   0.0000

          k = 0.0417 0.1883 0.0000 (  2436 PWs)   bands (ev):

   -20.3174  -8.4304  -6.7949  -6.2018   2.0301   2.8034   3.0681   4.4937

     occupation numbers 
     1.0000   1.0000   1.0000   1.0000   0.0000   0.0000   0.0000   0.0000

          k = 0.0417 0.2422 0.0000 (  2420 PWs)   bands (ev):

   -19.9753  -8.0285  -7.5336  -6.8147   2.5013   3.2747   3.5412   4.0637

     occupation numbers 
     1.0000   1.0000   1.0000   1.0000   0.0000   0.0000   0.0000   0.0000

          k = 0.0417 0.2960 0.0000 (  2421 PWs)   bands (ev):

   -19.5498  -8.3910  -7.5315  -7.4128   3.0886   3.6289   3.8615   4.1389

     occupation numbers 
     1.0000   1.0000   1.0000   1.0000   0.0000   0.0000   0.0000   0.0000

          k = 0.0417 0.3498 0.0000 (  2414 PWs)   bands (ev):

   -19.0425  -9.3475  -7.9453  -6.9438   3.2263   3.7992   4.0943   4.5737

     occupation numbers 
     1.0000   1.0000   1.0000   1.0000   0.0000   0.0000   0.0000   0.0000

          k = 0.0417 0.4036 0.0000 (  2413 PWs)   bands (ev):

   -18.4555 -10.3642  -8.3979  -6.2725   2.8799   3.0931   4.6194   5.3861

     occupation numbers 
     1.0000   1.0000   1.0000   1.0000   0.0000   0.0000   0.0000   0.0000

          k = 0.0417 0.4574 0.0000 (  2412 PWs)   bands (ev):

   -17.7913 -11.4054  -8.7652  -5.5294   2.0575   2.5943   5.5556   6.3125

     occupation numbers 
     1.0000   1.0000   1.0000   1.0000   0.0000   0.0000   0.0000   0.0000

          k = 0.0417 0.5112 0.0000 (  2406 PWs)   bands (ev):

   -17.0534 -12.4443  -9.0440  -4.7365   1.0286   2.3766   6.6045   7.3414

     occupation numbers 
     1.0000   1.0000   1.0000   1.0000   0.0000   0.0000   0.0000   0.0000

          k = 0.0417 0.5650 0.0000 (  2408 PWs)   bands (ev):

   -16.2462 -13.4602  -9.2314  -3.9482   0.0745   2.2302   7.7622   8.4527

     occupation numbers 
     1.0000   1.0000   1.0000   1.0000   0.0000   0.0000   0.0000   0.0000

          k = 0.0417-0.6726 0.0000 (  2410 PWs)   bands (ev):

   -15.3776 -14.4354  -9.3254  -3.3398  -0.6195   2.1567   9.0208   9.5581

     occupation numbers 
     1.0000   1.0000   1.0000   1.0000   0.0000   0.0000   0.0000   0.0000

          k = 0.0417-0.6188 0.0000 (  2410 PWs)   bands (ev):

   -15.3776 -14.4354  -9.3254  -3.3398  -0.6195   2.1567   9.0208   9.5581

     occupation numbers 
     1.0000   1.0000   1.0000   1.0000   0.0000   0.0000   0.0000   0.0000

          k = 0.0417-0.5650 0.0000 (  2408 PWs)   bands (ev):

   -16.2462 -13.4602  -9.2314  -3.9482   0.0745   2.2302   7.7623   8.4527

     occupation numbers 
     1.0000   1.0000   1.0000   1.0000   0.0000   0.0000   0.0000   0.0000

          k = 0.0417-0.5112 0.0000 (  2406 PWs)   bands (ev):

   -17.0534 -12.4443  -9.0440  -4.7365   1.0286   2.3766   6.6045   7.3423

     occupation numbers 
     1.0000   1.0000   1.0000   1.0000   0.0000   0.0000   0.0000   0.0000

          k = 0.0417-0.4574 0.0000 (  2412 PWs)   bands (ev):

   -17.7913 -11.4054  -8.7653  -5.5294   2.0575   2.5943   5.5556   6.3125

     occupation numbers 
     1.0000   1.0000   1.0000   1.0000   0.0000   0.0000   0.0000   0.0000

          k = 0.0417-0.4036 0.0000 (  2413 PWs)   bands (ev):

   -18.4555 -10.3642  -8.3979  -6.2725   2.8799   3.0931   4.6194   5.6765

     occupation numbers 
     1.0000   1.0000   1.0000   1.0000   0.0000   0.0000   0.0000   0.0000

          k = 0.0417-0.3498 0.0000 (  2414 PWs)   bands (ev):

   -19.0425  -9.3475  -7.9453  -6.9438   3.2263   3.7992   4.0944   4.5738

     occupation numbers 
     1.0000   1.0000   1.0000   1.0000   0.0000   0.0000   0.0000   0.0000

          k = 0.0417-0.2960 0.0000 (  2421 PWs)   bands (ev):

   -19.5498  -8.3909  -7.5315  -7.4129   3.0886   3.6289   3.8615   4.1389

     occupation numbers 
     1.0000   1.0000   1.0000   1.0000   0.0000   0.0000   0.0000   0.0000

          k = 0.0417-0.2422 0.0000 (  2420 PWs)   bands (ev):

   -19.9753  -8.0285  -7.5335  -6.8148   2.5013   3.2747   3.5412   4.0637

     occupation numbers 
     1.0000   1.0000   1.0000   1.0000   0.0000   0.0000   0.0000   0.0000

          k = 0.0417-0.1883 0.0000 (  2436 PWs)   bands (ev):

   -20.3174  -8.4304  -6.7947  -6.2020   2.0301   2.8034   3.0681   4.4936

     occupation numbers 
     1.0000   1.0000   1.0000   1.0000   0.0000   0.0000   0.0000   0.0000

          k = 0.0417-0.1345 0.0000 (  2434 PWs)   bands (ev):

   -20.5750  -8.7341  -6.1671  -5.6693   1.6763   2.4494   2.7125   4.6817

     occupation numbers 
     1.0000   1.0000   1.0000   1.0000   0.0000   0.0000   0.0000   0.0000

          k = 0.0417-0.0807 0.0000 (  2432 PWs)   bands (ev):

   -20.7472  -8.9376  -5.6608  -5.3105   1.4402   2.2132   2.4751   4.4502

     occupation numbers 
     1.0000   1.0000   1.0000   1.0000   0.0000   0.0000   0.0000   0.0000

          k = 0.0833-0.0538 0.0000 (  2419 PWs)   bands (ev):

   -20.7240  -8.9117  -5.8464  -5.3522   1.4712   2.2454   2.5064   4.4817

     occupation numbers 
     1.0000   1.0000   1.0000   1.0000   0.0000   0.0000   0.0000   0.0000

          k = 0.0833-0.0000 0.0000 (  2415 PWs)   bands (ev):

   -20.7670  -8.9626  -5.5658  -5.4162   1.4120   2.1863   2.4468   4.4243

     occupation numbers 
     1.0000   1.0000   1.0000   1.0000   0.0000   0.0000   0.0000   0.0000

          k = 0.0833 0.0538 0.0000 (  2419 PWs)   bands (ev):

   -20.7240  -8.9117  -5.8466  -5.3520   1.4712   2.2454   2.5064   4.4818

     occupation numbers 
     1.0000   1.0000   1.0000   1.0000   0.0000   0.0000   0.0000   0.0000

          k = 0.0833 0.1076 0.0000 (  2429 PWs)   bands (ev):

   -20.5949  -8.7593  -6.3409  -5.4838   1.6486   2.4224   2.6848   4.6548

     occupation numbers 
     1.0000   1.0000   1.0000   1.0000   0.0000   0.0000   0.0000   0.0000

          k = 0.0833 0.1614 0.0000 (  2435 PWs)   bands (ev):

   -20.3802  -8.5064  -6.9360  -5.8578   1.9439   2.7172   2.9818   4.9417

     occupation numbers 
     1.0000   1.0000   1.0000   1.0000   0.0000   0.0000   0.0000   0.0000

          k = 0.0833 0.2152 0.0000 (  2431 PWs)   bands (ev):

   -20.0806  -8.1545  -7.5924  -6.4228   2.3568   3.1291   3.3970   4.7161

     occupation numbers 
     1.0000   1.0000   1.0000   1.0000   0.0000   0.0000   0.0000   0.0000

          k = 0.0833 0.2691 0.0000 (  2423 PWs)   bands (ev):

   -19.6971  -8.3029  -7.7061  -7.0929   2.8869   3.6568   3.9289   4.2883

     occupation numbers 
     1.0000   1.0000   1.0000   1.0000   0.0000   0.0000   0.0000   0.0000

          k = 0.0833 0.3229 0.0000 (  2416 PWs)   bands (ev):

   -19.2313  -9.0887  -7.7652  -7.1651   3.5320   3.8729   4.2550   4.4347

     occupation numbers 
     1.0000   1.0000   1.0000   1.0000   0.0000   0.0000   0.0000   0.0000

          k = 0.0833 0.3767 0.0000 (  2410 PWs)   bands (ev):

   -18.6850  -9.9694  -8.3552  -6.5370   3.4352   3.4977   4.3000   5.0690

     occupation numbers 
     1.0000   1.0000   1.0000   1.0000   0.0000   0.0000   0.0000   0.0000

          k = 0.0833 0.4305 0.0000 (  2418 PWs)   bands (ev):

   -18.0607 -10.9280  -8.8301  -5.8306   2.4468   3.1833   5.1782   5.9364

     occupation numbers 
     1.0000   1.0000   1.0000   1.0000   0.0000   0.0000   0.0000   0.0000

          k = 0.0833 0.4843 0.0000 (  2406 PWs)   bands (ev):

   -17.3615 -11.9256  -9.1913  -5.0609   1.4393   2.9331   6.1705   6.9090

     occupation numbers 
     1.0000   1.0000   1.0000   1.0000   0.0000   0.0000   0.0000   0.0000

          k = 0.0833 0.5381 0.0000 (  2401 PWs)   bands (ev):

   -16.5917 -12.9279  -9.4454  -4.2596   0.4573   2.7520   7.2733   7.9670

     occupation numbers 
     1.0000   1.0000   1.0000   1.0000   0.0000   0.0000   0.0000   0.0000

          k = 0.0833-0.6996 0.0000 (  2420 PWs)   bands (ev):

   -15.7575 -13.9086  -9.5968  -3.5176  -0.3982   2.6424   8.4803   9.0493

     occupation numbers 
     1.0000   1.0000   1.0000   1.0000   0.0000   0.0000   0.0000   0.0000

          k = 0.0833-0.6457 0.0000 (  2418 PWs)   bands (ev):

   -14.9462 -14.7698  -9.6471  -3.1465  -0.8079   2.6058   9.7698   9.7852

     occupation numbers 
     1.0000   1.0000   1.0000   1.0000   0.0000   0.0000   0.0000   0.0000

          k = 0.0833-0.5919 0.0000 (  2420 PWs)   bands (ev):

   -15.7575 -13.9086  -9.5968  -3.5176  -0.3982   2.6424   8.4803   9.0493

     occupation numbers 
     1.0000   1.0000   1.0000   1.0000   0.0000   0.0000   0.0000   0.0000

          k = 0.0833-0.5381 0.0000 (  2401 PWs)   bands (ev):

   -16.5916 -12.9279  -9.4454  -4.2596   0.4573   2.7519   7.2732   7.9671

     occupation numbers 
     1.0000   1.0000   1.0000   1.0000   0.0000   0.0000   0.0000   0.0000

          k = 0.0833-0.4843 0.0000 (  2406 PWs)   bands (ev):

   -17.3615 -11.9256  -9.1913  -5.0609   1.4394   2.9331   6.1705   6.9089

     occupation numbers 
     1.0000   1.0000   1.0000   1.0000   0.0000   0.0000   0.0000   0.0000

          k = 0.0833-0.4305 0.0000 (  2418 PWs)   bands (ev):

   -18.0607 -10.9280  -8.8301  -5.8306   2.4468   3.1833   5.1782   5.9365

     occupation numbers 
     1.0000   1.0000   1.0000   1.0000   0.0000   0.0000   0.0000   0.0000

          k = 0.0833-0.3767 0.0000 (  2410 PWs)   bands (ev):

   -18.6850  -9.9694  -8.3553  -6.5370   3.4352   3.4976   4.3000   5.0691

     occupation numbers 
     1.0000   1.0000   1.0000   1.0000   0.0000   0.0000   0.0000   0.0000

          k = 0.0833-0.3229 0.0000 (  2416 PWs)   bands (ev):

   -19.2313  -9.0886  -7.7653  -7.1651   3.5321   3.8728   4.2550   4.4344

     occupation numbers 
     1.0000   1.0000   1.0000   1.0000   0.0000   0.0000   0.0000   0.0000

          k = 0.0833-0.2691 0.0000 (  2423 PWs)   bands (ev):

   -19.6971  -8.3028  -7.7061  -7.0930   2.8869   3.6569   3.9288   4.2882

     occupation numbers 
     1.0000   1.0000   1.0000   1.0000   0.0000   0.0000   0.0000   0.0000

          k = 0.0833-0.2152 0.0000 (  2431 PWs)   bands (ev):

   -20.0806  -8.1545  -7.5923  -6.4230   2.3568   3.1292   3.3970   4.7160

     occupation numbers 
     1.0000   1.0000   1.0000   1.0000   0.0000   0.0000   0.0000   0.0000

          k = 0.0833-0.1614 0.0000 (  2435 PWs)   bands (ev):

   -20.3802  -8.5064  -6.9358  -5.8580   1.9439   2.7172   2.9818   5.1216

     occupation numbers 
     1.0000   1.0000   1.0000   1.0000   0.0000   0.0000   0.0000   0.0000

          k = 0.0833-0.1076 0.0000 (  2429 PWs)   bands (ev):

   -20.5949  -8.7593  -6.3407  -5.4840   1.6486   2.4224   2.6848   4.6550

     occupation numbers 
     1.0000   1.0000   1.0000   1.0000   0.0000   0.0000   0.0000   0.0000

          k = 0.1250-0.0807 0.0000 (  2424 PWs)   bands (ev):

   -20.5420  -8.6996  -6.6165  -5.6047   1.7202   2.4957   2.7569   4.7261

     occupation numbers 
     1.0000   1.0000   1.0000   1.0000   0.0000   0.0000   0.0000   0.0000

          k = 0.1250-0.0269 0.0000 (  2415 PWs)   bands (ev):

   -20.6279  -8.8007  -6.1429  -5.7067   1.6016   2.3779   2.6377   4.6118

     occupation numbers 
     1.0000   1.0000   1.0000   1.0000   0.0000   0.0000   0.0000   0.0000

          k = 0.1250 0.0269 0.0000 (  2415 PWs)   bands (ev):

   -20.6279  -8.8007  -6.1431  -5.7065   1.6016   2.3779   2.6376   4.6120

     occupation numbers 
     1.0000   1.0000   1.0000   1.0000   0.0000   0.0000   0.0000   0.0000

          k = 0.1250 0.0807 0.0000 (  2424 PWs)   bands (ev):

   -20.5420  -8.6996  -6.6167  -5.6045   1.7202   2.4957   2.7569   4.7267

     occupation numbers 
     1.0000   1.0000   1.0000   1.0000   0.0000   0.0000   0.0000   0.0000

          k = 0.1250 0.1345 0.0000 (  2422 PWs)   bands (ev):

   -20.3703  -8.4979  -7.2016  -5.7424   1.9570   2.7310   2.9951   4.9526

     occupation numbers 
     1.0000   1.0000   1.0000   1.0000   0.0000   0.0000   0.0000   0.0000

          k = 0.1250 0.1883 0.0000 (  2418 PWs)   bands (ev):

   -20.1136  -8.1970  -7.8337  -6.1339   2.3116   3.0832   3.3518   5.2769

     occupation numbers 
     1.0000   1.0000   1.0000   1.0000   0.0000   0.0000   0.0000   0.0000

          k = 0.1250 0.2422 0.0000 (  2426 PWs)   bands (ev):

   -19.7728  -8.4844  -7.7991  -6.7296   2.7835   3.5502   3.8266   5.1791

     occupation numbers 
     1.0000   1.0000   1.0000   1.0000   0.0000   0.0000   0.0000   0.0000

          k = 0.1250 0.2960 0.0000 (  2417 PWs)   bands (ev):

   -19.3492  -9.1491  -7.4471  -7.3071   3.3722   4.1053   4.4185   4.5197

     occupation numbers 
     1.0000   1.0000   1.0000   1.0000   0.0000   0.0000   0.0000   0.0000

          k = 0.1250 0.3498 0.0000 (  2411 PWs)   bands (ev):

   -18.8446  -9.8496  -8.1870  -6.7258   3.6063   4.0757   4.3732   4.8574

     occupation numbers 
     1.0000   1.0000   1.0000   1.0000   0.0000   0.0000   0.0000   0.0000

          k = 0.1250 0.4036 0.0000 (  2413 PWs)   bands (ev):

   -18.2613 -10.6247  -8.8482  -6.0619   2.6973   4.0300   4.9000   5.6618

     occupation numbers 
     1.0000   1.0000   1.0000   1.0000   0.0000   0.0000   0.0000   0.0000

          k = 0.1250 0.4574 0.0000 (  2408 PWs)   bands (ev):

   -17.6026 -11.4905  -9.3671  -5.3263   1.7484   3.7498   5.8347   6.5737

     occupation numbers 
     1.0000   1.0000   1.0000   1.0000   0.0000   0.0000   0.0000   0.0000

          k = 0.1250 0.5112 0.0000 (  2407 PWs)   bands (ev):

   -16.8727 -12.4193  -9.7363  -4.5382   0.7901   3.5354   6.8811   7.5724

     occupation numbers 
     1.0000   1.0000   1.0000   1.0000   0.0000   0.0000   0.0000   0.0000

          k = 0.1250-0.7265 0.0000 (  2425 PWs)   bands (ev):

   -16.0776 -13.3683  -9.9718  -3.7439  -0.1236   3.3907   8.0340   8.5959

     occupation numbers 
     1.0000   1.0000   1.0000   1.0000   0.0000   0.0000   0.0000   0.0000

          k = 0.1250-0.6726 0.0000 (  2423 PWs)   bands (ev):

   -15.2309 -14.2978 -10.0867  -3.1045  -0.8245   3.3179   9.2819   9.3873

     occupation numbers 
     1.0000   1.0000   1.0000   1.0000   0.0000   0.0000   0.0000   0.0000

          k = 0.1250-0.6188 0.0000 (  2423 PWs)   bands (ev):

   -15.2309 -14.2978 -10.0867  -3.1045  -0.8245   3.3179   9.2819   9.3871

     occupation numbers 
     1.0000   1.0000   1.0000   1.0000   0.0000   0.0000   0.0000   0.0000

          k = 0.1250-0.5650 0.0000 (  2425 PWs)   bands (ev):

   -16.0775 -13.3683  -9.9718  -3.7439  -0.1236   3.3907   8.0340   8.5960

     occupation numbers 
     1.0000   1.0000   1.0000   1.0000   0.0000   0.0000   0.0000   0.0000

          k = 0.1250-0.5112 0.0000 (  2407 PWs)   bands (ev):

   -16.8726 -12.4193  -9.7363  -4.5382   0.7901   3.5354   6.8812   7.5725

     occupation numbers 
     1.0000   1.0000   1.0000   1.0000   0.0000   0.0000   0.0000   0.0000

          k = 0.1250-0.4574 0.0000 (  2408 PWs)   bands (ev):

   -17.6026 -11.4905  -9.3671  -5.3263   1.7484   3.7498   5.8347   6.5737

     occupation numbers 
     1.0000   1.0000   1.0000   1.0000   0.0000   0.0000   0.0000   0.0000

          k = 0.1250-0.4036 0.0000 (  2413 PWs)   bands (ev):

   -18.2613 -10.6246  -8.8483  -6.0619   2.6973   4.0300   4.9000   5.6613

     occupation numbers 
     1.0000   1.0000   1.0000   1.0000   0.0000   0.0000   0.0000   0.0000

          k = 0.1250-0.3498 0.0000 (  2411 PWs)   bands (ev):

   -18.8445  -9.8496  -8.1871  -6.7258   3.6063   4.0757   4.3732   4.8572

     occupation numbers 
     1.0000   1.0000   1.0000   1.0000   0.0000   0.0000   0.0000   0.0000

          k = 0.1250-0.2960 0.0000 (  2417 PWs)   bands (ev):

   -19.3492  -9.1490  -7.4473  -7.3071   3.3722   4.1053   4.4185   4.5198

     occupation numbers 
     1.0000   1.0000   1.0000   1.0000   0.0000   0.0000   0.0000   0.0000

          k = 0.1250-0.2422 0.0000 (  2426 PWs)   bands (ev):

   -19.7728  -8.4842  -7.7991  -6.7297   2.7835   3.5502   3.8266   5.1791

     occupation numbers 
     1.0000   1.0000   1.0000   1.0000   0.0000   0.0000   0.0000   0.0000

          k = 0.1250-0.1883 0.0000 (  2418 PWs)   bands (ev):

   -20.1136  -8.1970  -7.8336  -6.1341   2.3116   3.0832   3.3517   5.2768

     occupation numbers 
     1.0000   1.0000   1.0000   1.0000   0.0000   0.0000   0.0000   0.0000

          k = 0.1250-0.1345 0.0000 (  2422 PWs)   bands (ev):

   -20.3703  -8.4979  -7.2014  -5.7426   1.9570   2.7310   2.9951   4.9527

     occupation numbers 
     1.0000   1.0000   1.0000   1.0000   0.0000   0.0000   0.0000   0.0000

          k = 0.1667-0.1076 0.0000 (  2420 PWs)   bands (ev):

   -20.2882  -8.4051  -7.5395  -5.9079   2.0692   2.8448   3.1082   5.0603

     occupation numbers 
     1.0000   1.0000   1.0000   1.0000   0.0000   0.0000   0.0000   0.0000

          k = 0.1667-0.0538 0.0000 (  2412 PWs)   bands (ev):

   -20.4167  -8.5553  -6.9615  -6.0196   1.8912   2.6691   2.9293   4.8964

     occupation numbers 
     1.0000   1.0000   1.0000   1.0000   0.0000   0.0000   0.0000   0.0000

          k = 0.1667-0.0000 0.0000 (  2415 PWs)   bands (ev):

   -20.4596  -8.6055  -6.6053  -6.2217   1.8319   2.6104   2.8696   4.8402

     occupation numbers 
     1.0000   1.0000   1.0000   1.0000   0.0000   0.0000   0.0000   0.0000

          k = 0.1667 0.0538 0.0000 (  2412 PWs)   bands (ev):

   -20.4167  -8.5553  -6.9617  -6.0193   1.8912   2.6691   2.9293   4.8958

     occupation numbers 
     1.0000   1.0000   1.0000   1.0000   0.0000   0.0000   0.0000   0.0000

          k = 0.1667 0.1076 0.0000 (  2420 PWs)   bands (ev):

   -20.2882  -8.4051  -7.5397  -5.9077   2.0692   2.8448   3.1082   5.0602

     occupation numbers 
     1.0000   1.0000   1.0000   1.0000   0.0000   0.0000   0.0000   0.0000

          k = 0.1667 0.1614 0.0000 (  2426 PWs)   bands (ev):

   -20.0746  -8.1685  -8.1560  -6.0525   2.3653   3.1366   3.4061   5.3001

     occupation numbers 
     1.0000   1.0000   1.0000   1.0000   0.0000   0.0000   0.0000   0.0000

          k = 0.1667 0.2152 0.0000 (  2422 PWs)   bands (ev):

   -19.7767  -8.8052  -7.8096  -6.4603   2.7789   3.5410   3.8223   5.0997

     occupation numbers 
     1.0000   1.0000   1.0000   1.0000   0.0000   0.0000   0.0000   0.0000

          k = 0.1667 0.2691 0.0000 (  2428 PWs)   bands (ev):

   -19.3958  -9.4301  -7.3686  -7.0815   3.3096   4.0128   4.3566   4.4663

     occupation numbers 
     1.0000   1.0000   1.0000   1.0000   0.0000   0.0000   0.0000   0.0000

          k = 0.1667 0.3229 0.0000 (  2434 PWs)   bands (ev):

   -18.9336 -10.0398  -7.8361  -6.8372   3.5914   3.9566   4.7523   5.0082

     occupation numbers 
     1.0000   1.0000   1.0000   1.0000   0.0000   0.0000   0.0000   0.0000

          k = 0.1667 0.3767 0.0000 (  2416 PWs)   bands (ev):

   -18.3925 -10.6514  -8.6308  -6.2206   2.7777   4.7184   5.0718   5.4905

     occupation numbers 
     1.0000   1.0000   1.0000   1.0000   0.0000   0.0000   0.0000   0.0000

          k = 0.1667 0.4305 0.0000 (  2414 PWs)   bands (ev):

   -17.7756 -11.3063  -9.3640  -5.5273   1.9147   4.7614   5.5979   6.3424

     occupation numbers 
     1.0000   1.0000   1.0000   1.0000   0.0000   0.0000   0.0000   0.0000

          k = 0.1667 0.4843 0.0000 (  2406 PWs)   bands (ev):

   -17.0875 -12.0493  -9.9446  -4.7700   1.0226   4.5152   6.5871   7.2809

     occupation numbers 
     1.0000   1.0000   1.0000   1.0000   0.0000   0.0000   0.0000   0.0000

          k = 0.1667-0.7534 0.0000 (  2425 PWs)   bands (ev):

   -16.3347 -12.8811 -10.3376  -3.9731   0.1270   4.3358   7.6844   8.2402

     occupation numbers 
     1.0000   1.0000   1.0000   1.0000   0.0000   0.0000   0.0000   0.0000

          k = 0.1667-0.6996 0.0000 (  2425 PWs)   bands (ev):

   -15.5288 -13.7558 -10.5585  -3.2044  -0.7024   4.2273   8.8798   8.9776

     occupation numbers 
     1.0000   1.0000   1.0000   1.0000   0.0000   0.0000   0.0000   0.0000

          k = 0.1667-0.6457 0.0000 (  2431 PWs)   bands (ev):

   -14.8155 -14.4958 -10.6295  -2.7783  -1.1492   4.1909   9.1974  10.1427

     occupation numbers 
     1.0000   1.0000   1.0000   1.0055   0.0000   0.0000   0.0000   0.0000

          k = 0.1667-0.5919 0.0000 (  2425 PWs)   bands (ev):

   -15.5287 -13.7558 -10.5585  -3.2044  -0.7024   4.2273   8.8798   8.9777

     occupation numbers 
     1.0000   1.0000   1.0000   1.0000   0.0000   0.0000   0.0000   0.0000

          k = 0.1667-0.5381 0.0000 (  2425 PWs)   bands (ev):

   -16.3346 -12.8811 -10.3376  -3.9732   0.1270   4.3358   7.6844   8.2401

     occupation numbers 
     1.0000   1.0000   1.0000   1.0000   0.0000   0.0000   0.0000   0.0000

          k = 0.1667-0.4843 0.0000 (  2406 PWs)   bands (ev):

   -17.0875 -12.0493  -9.9446  -4.7700   1.0226   4.5151   6.5871   7.2809

     occupation numbers 
     1.0000   1.0000   1.0000   1.0000   0.0000   0.0000   0.0000   0.0000

          k = 0.1667-0.4305 0.0000 (  2414 PWs)   bands (ev):

   -17.7756 -11.3063  -9.3640  -5.5273   1.9148   4.7613   5.5979   6.3424

     occupation numbers 
     1.0000   1.0000   1.0000   1.0000   0.0000   0.0000   0.0000   0.0000

          k = 0.1667-0.3767 0.0000 (  2416 PWs)   bands (ev):

   -18.3924 -10.6513  -8.6309  -6.2206   2.7778   4.7183   5.0717   5.4905

     occupation numbers 
     1.0000   1.0000   1.0000   1.0000   0.0000   0.0000   0.0000   0.0000

          k = 0.1667-0.3229 0.0000 (  2434 PWs)   bands (ev):

   -18.9336 -10.0398  -7.8362  -6.8372   3.5915   3.9566   4.7530   5.0084

     occupation numbers 
     1.0000   1.0000   1.0000   1.0000   0.0000   0.0000   0.0000   0.0000

          k = 0.1667-0.2691 0.0000 (  2428 PWs)   bands (ev):

   -19.3958  -9.4300  -7.3687  -7.0817   3.3096   4.0128   4.3567   4.4663

     occupation numbers 
     1.0000   1.0000   1.0000   1.0000   0.0000   0.0000   0.0000   0.0000

          k = 0.1667-0.2152 0.0000 (  2422 PWs)   bands (ev):

   -19.7767  -8.8050  -7.8096  -6.4605   2.7789   3.5409   3.8223   5.0997

     occupation numbers 
     1.0000   1.0000   1.0000   1.0000   0.0000   0.0000   0.0000   0.0000

          k = 0.1667-0.1614 0.0000 (  2426 PWs)   bands (ev):

   -20.0746  -8.1683  -8.1560  -6.0527   2.3653   3.1367   3.4060   5.3001

     occupation numbers 
     1.0000   1.0000   1.0000   1.0000   0.0000   0.0000   0.0000   0.0000

          k = 0.2083-0.1345 0.0000 (  2423 PWs)   bands (ev):

   -19.9637  -8.5456  -8.0316  -6.2313   2.5180   3.2891   3.5600   5.2852

     occupation numbers 
     1.0000   1.0000   1.0000   1.0000   0.0000   0.0000   0.0000   0.0000

          k = 0.2083-0.0807 0.0000 (  2426 PWs)   bands (ev):

   -20.1341  -8.2289  -7.9136  -6.3483   2.2810   3.0585   3.3217   5.2580

     occupation numbers 
     1.0000   1.0000   1.0000   1.0000   0.0000   0.0000   0.0000   0.0000

          k = 0.2083-0.0269 0.0000 (  2405 PWs)   bands (ev):

   -20.2195  -8.3278  -7.3646  -6.6487   2.1624   2.9424   3.2025   5.1634

     occupation numbers 
     1.0000   1.0000   1.0000   1.0000   0.0000   0.0000   0.0000   0.0000

          k = 0.2083 0.0269 0.0000 (  2405 PWs)   bands (ev):

   -20.2195  -8.3278  -7.3647  -6.6485   2.1624   2.9425   3.2026   5.1635

     occupation numbers 
     1.0000   1.0000   1.0000   1.0000   0.0000   0.0000   0.0000   0.0000

          k = 0.2083 0.0807 0.0000 (  2426 PWs)   bands (ev):

   -20.1341  -8.2289  -7.9137  -6.3481   2.2809   3.0586   3.3216   5.2582

     occupation numbers 
     1.0000   1.0000   1.0000   1.0000   0.0000   0.0000   0.0000   0.0000

          k = 0.2083 0.1345 0.0000 (  2423 PWs)   bands (ev):

   -19.9637  -8.5458  -8.0316  -6.2311   2.5180   3.2891   3.5600   5.2852

     occupation numbers 
     1.0000   1.0000   1.0000   1.0000   0.0000   0.0000   0.0000   0.0000

          k = 0.2083 0.1883 0.0000 (  2429 PWs)   bands (ev):

   -19.7090  -9.1873  -7.7376  -6.3817   2.8732   3.6264   3.9173   4.8296

     occupation numbers 
     1.0000   1.0000   1.0000   1.0000   0.0000   0.0000   0.0000   0.0000

          k = 0.2083 0.2422 0.0000 (  2434 PWs)   bands (ev):

   -19.3712  -9.8095  -7.3493  -6.8026   3.3457   3.9383   4.3461   4.3932

     occupation numbers 
     1.0000   1.0000   1.0000   1.0000   0.0000   0.0000   0.0000   0.0000

          k = 0.2083 0.2960 0.0000 (  2440 PWs)   bands (ev):

   -18.9520 -10.3975  -7.4422  -6.8702   3.4167   3.9347   4.7458   4.9870

     occupation numbers 
     1.0000   1.0000   1.0000   1.0000   0.0000   0.0000   0.0000   0.0000

          k = 0.2083 0.3498 0.0000 (  2429 PWs)   bands (ev):

   -18.4539 -10.9485  -8.2217  -6.3052   2.6884   4.6394   5.4236   5.6978

     occupation numbers 
     1.0000   1.0000   1.0000   1.0000   0.0000   0.0000   0.0000   0.0000

          k = 0.2083 0.4036 0.0000 (  2424 PWs)   bands (ev):

   -17.8801 -11.4740  -9.0547  -5.6612   1.9185   5.4580   5.9059   6.2170

     occupation numbers 
     1.0000   1.0000   1.0000   1.0000   0.0000   0.0000   0.0000   0.0000

          k = 0.2083 0.4574 0.0000 (  2426 PWs)   bands (ev):

   -17.2357 -12.0076  -9.8477  -4.9478   1.1183   5.6268   6.3920   7.0990

     occupation numbers 
     1.0000   1.0000   1.0000   1.0000   0.0000   0.0000   0.0000   0.0000

          k = 0.2083-0.7803 0.0000 (  2426 PWs)   bands (ev):

   -16.5280 -12.6055 -10.4977  -4.1797   0.2941   5.4139   7.4325   8.0029

     occupation numbers 
     1.0000   1.0000   1.0000   1.0000   0.0000   0.0000   0.0000   0.0000

          k = 0.2083-0.7265 0.0000 (  2423 PWs)   bands (ev):

   -15.7702 -13.3050 -10.9289  -3.3838  -0.5347   5.2693   8.5737   8.6776

     occupation numbers 
     1.0000   1.0000   1.0000   1.0000   0.0000   0.0000   0.0000   0.0000

          k = 0.2083-0.6726 0.0000 (  2429 PWs)   bands (ev):

   -15.0050 -14.0555 -11.1338  -2.6620  -1.2720   5.1963   8.8720   9.7931

     occupation numbers 
     1.0000   1.0000   1.0000   1.0222   0.0000   0.0000   0.0000   0.0000

          k = 0.2083-0.6188 0.0000 (  2429 PWs)   bands (ev):

   -15.0050 -14.0555 -11.1338  -2.6620  -1.2720   5.1963   8.8720   9.7932

     occupation numbers 
     1.0000   1.0000   1.0000   1.0222   0.0000   0.0000   0.0000   0.0000

          k = 0.2083-0.5650 0.0000 (  2423 PWs)   bands (ev):

   -15.7702 -13.3050 -10.9290  -3.3838  -0.5347   5.2693   8.5737   8.6775

     occupation numbers 
     1.0000   1.0000   1.0000   1.0000   0.0000   0.0000   0.0000   0.0000

          k = 0.2083-0.5112 0.0000 (  2426 PWs)   bands (ev):

   -16.5280 -12.6055 -10.4977  -4.1797   0.2941   5.4138   7.4325   8.0029

     occupation numbers 
     1.0000   1.0000   1.0000   1.0000   0.0000   0.0000   0.0000   0.0000

          k = 0.2083-0.4574 0.0000 (  2426 PWs)   bands (ev):

   -17.2357 -12.0076  -9.8477  -4.9478   1.1183   5.6267   6.3920   7.0990

     occupation numbers 
     1.0000   1.0000   1.0000   1.0000   0.0000   0.0000   0.0000   0.0000

          k = 0.2083-0.4036 0.0000 (  2424 PWs)   bands (ev):

   -17.8801 -11.4739  -9.0548  -5.6612   1.9186   5.4580   5.9059   6.2170

     occupation numbers 
     1.0000   1.0000   1.0000   1.0000   0.0000   0.0000   0.0000   0.0000

          k = 0.2083-0.3498 0.0000 (  2429 PWs)   bands (ev):

   -18.4538 -10.9484  -8.2218  -6.3052   2.6884   4.6394   5.4236   5.6983

     occupation numbers 
     1.0000   1.0000   1.0000   1.0000   0.0000   0.0000   0.0000   0.0000

          k = 0.2083-0.2960 0.0000 (  2440 PWs)   bands (ev):

   -18.9520 -10.3974  -7.4423  -6.8702   3.4167   3.9347   4.7457   4.9870

     occupation numbers 
     1.0000   1.0000   1.0000   1.0000   0.0000   0.0000   0.0000   0.0000

          k = 0.2083-0.2422 0.0000 (  2434 PWs)   bands (ev):

   -19.3712  -9.8094  -7.3493  -6.8028   3.3457   3.9383   4.3460   4.3933

     occupation numbers 
     1.0000   1.0000   1.0000   1.0000   0.0000   0.0000   0.0000   0.0000

          k = 0.2083-0.1883 0.0000 (  2429 PWs)   bands (ev):

   -19.7090  -9.1872  -7.7376  -6.3819   2.8732   3.6264   3.9174   4.8297

     occupation numbers 
     1.0000   1.0000   1.0000   1.0000   0.0000   0.0000   0.0000   0.0000

          k = 0.2500-0.1614 0.0000 (  2427 PWs)   bands (ev):

   -19.5702  -9.5863  -7.5838  -6.5496   3.0661   3.7908   4.1119   4.4774

     occupation numbers 
     1.0000   1.0000   1.0000   1.0000   0.0000   0.0000   0.0000   0.0000

          k = 0.2500-0.1076 0.0000 (  2419 PWs)   bands (ev):

   -19.7816  -8.9327  -7.8249  -6.6708   2.7702   3.5390   3.8144   4.9355

     occupation numbers 
     1.0000   1.0000   1.0000   1.0000   0.0000   0.0000   0.0000   0.0000

          k = 0.2500-0.0538 0.0000 (  2421 PWs)   bands (ev):

   -19.9089  -8.3016  -7.9705  -7.0056   2.5927   3.3718   3.6361   5.2780

     occupation numbers 
     1.0000   1.0000   1.0000   1.0000   0.0000   0.0000   0.0000   0.0000

          k = 0.2500 0.0000 0.0000 (  2411 PWs)   bands (ev):

   -19.9514  -8.0191  -7.9019  -7.3117   2.5336   3.3150   3.5767   5.4300

     occupation numbers 
     1.0000   1.0000   1.0000   1.0000   0.0000   0.0000   0.0000   0.0000

          k = 0.2500 0.0538 0.0000 (  2421 PWs)   bands (ev):

   -19.9089  -8.3018  -7.9705  -7.0055   2.5927   3.3718   3.6361   5.2778

     occupation numbers 
     1.0000   1.0000   1.0000   1.0000   0.0000   0.0000   0.0000   0.0000

          k = 0.2500 0.1076 0.0000 (  2419 PWs)   bands (ev):

   -19.7816  -8.9329  -7.8249  -6.6706   2.7702   3.5390   3.8143   4.9354

     occupation numbers 
     1.0000   1.0000   1.0000   1.0000   0.0000   0.0000   0.0000   0.0000

          k = 0.2500 0.1614 0.0000 (  2427 PWs)   bands (ev):

   -19.5702  -9.5864  -7.5838  -6.5494   3.0661   3.7908   4.1117   4.4773

     occupation numbers 
     1.0000   1.0000   1.0000   1.0000   0.0000   0.0000   0.0000   0.0000

          k = 0.2500 0.2152 0.0000 (  2424 PWs)   bands (ev):

   -19.2758 -10.2209  -7.2492  -6.7046   3.4800   3.7211   4.3613   4.5285

     occupation numbers 
     1.0000   1.0000   1.0000   1.0000   0.0000   0.0000   0.0000   0.0000

          k = 0.2500 0.2691 0.0000 (  2436 PWs)   bands (ev):

   -18.9002 -10.8157  -7.1343  -6.8247   3.1270   4.0111   4.8307   5.0640

     occupation numbers 
     1.0000   1.0000   1.0000   1.0000   0.0000   0.0000   0.0000   0.0000

          k = 0.2500 0.3229 0.0000 (  2433 PWs)   bands (ev):

   -18.4458 -11.3600  -7.7845  -6.3151   2.4616   4.6580   5.4562   5.7172

     occupation numbers 
     1.0000   1.0000   1.0000   1.0000   0.0000   0.0000   0.0000   0.0000

          k = 0.2500 0.3767 0.0000 (  2440 PWs)   bands (ev):

   -17.9164 -11.8501  -8.5775  -5.7266   1.7735   5.4195   6.1948   6.4869

     occupation numbers 
     1.0000   1.0000   1.0000   1.0000   0.0000   0.0000   0.0000   0.0000

          k = 0.2500 0.4305 0.0000 (  2431 PWs)   bands (ev):

   -17.3177 -12.2916  -9.4318  -5.0681   1.0696   6.2927   6.8013   7.0256

     occupation numbers 
     1.0000   1.0000   1.0000   1.0000   0.0000   0.0000   0.0000   0.0000

          k = 0.2500-0.8072 0.0000 (  2432 PWs)   bands (ev):

   -16.6586 -12.7061 -10.2644  -4.3511   0.3462   6.5546   7.2800   7.8894

     occupation numbers 
     1.0000   1.0000   1.0000   1.0000   0.0000   0.0000   0.0000   0.0000

          k = 0.2500-0.7534 0.0000 (  2426 PWs)   bands (ev):

   -15.9557 -13.1414 -10.9743  -3.5905  -0.4003   6.3755   8.3653   8.5367

     occupation numbers 
     1.0000   1.0000   1.0000   1.0000   0.0000   0.0000   0.0000   0.0000

          k = 0.2500-0.6996 0.0000 (  2433 PWs)   bands (ev):

   -15.2504 -13.6496 -11.4454  -2.8081  -1.1662   6.2658   8.6604   9.5343

     occupation numbers 
     1.0000   1.0000   1.0000   1.0036   0.0000   0.0000   0.0000   0.0000

          k = 0.2500-0.6457 0.0000 (  2439 PWs)   bands (ev):

   -14.7917 -14.0404 -11.6060  -2.1695  -1.7980   6.2288   8.6341  10.7257

     occupation numbers 
     1.0000   1.0000   1.0000   0.7258   0.0385   0.0000   0.0000   0.0000

          k = 0.2500-0.5919 0.0000 (  2433 PWs)   bands (ev):

   -15.2503 -13.6497 -11.4454  -2.8081  -1.1661   6.2657   8.6605   9.5342

     occupation numbers 
     1.0000   1.0000   1.0000   1.0036   0.0000   0.0000   0.0000   0.0000

          k = 0.2500-0.5381 0.0000 (  2426 PWs)   bands (ev):

   -15.9557 -13.1414 -10.9744  -3.5905  -0.4003   6.3754   8.3653   8.5367

     occupation numbers 
     1.0000   1.0000   1.0000   1.0000   0.0000   0.0000   0.0000   0.0000

          k = 0.2500-0.4843 0.0000 (  2432 PWs)   bands (ev):

   -16.6585 -12.7061 -10.2645  -4.3511   0.3463   6.5546   7.2800   7.8896

     occupation numbers 
     1.0000   1.0000   1.0000   1.0000   0.0000   0.0000   0.0000   0.0000

          k = 0.2500-0.4305 0.0000 (  2431 PWs)   bands (ev):

   -17.3176 -12.2915  -9.4319  -5.0681   1.0696   6.2927   6.8012   7.0256

     occupation numbers 
     1.0000   1.0000   1.0000   1.0000   0.0000   0.0000   0.0000   0.0000

          k = 0.2500-0.3767 0.0000 (  2440 PWs)   bands (ev):

   -17.9164 -11.8500  -8.5776  -5.7266   1.7736   5.4195   6.1951   6.4869

     occupation numbers 
     1.0000   1.0000   1.0000   1.0000   0.0000   0.0000   0.0000   0.0000

          k = 0.2500-0.3229 0.0000 (  2433 PWs)   bands (ev):

   -18.4458 -11.3599  -7.7846  -6.3151   2.4616   4.6581   5.4562   5.7172

     occupation numbers 
     1.0000   1.0000   1.0000   1.0000   0.0000   0.0000   0.0000   0.0000

          k = 0.2500-0.2691 0.0000 (  2436 PWs)   bands (ev):

   -18.9002 -10.8156  -7.1345  -6.8248   3.1270   4.0111   4.8307   5.0640

     occupation numbers 
     1.0000   1.0000   1.0000   1.0000   0.0000   0.0000   0.0000   0.0000

          k = 0.2500-0.2152 0.0000 (  2424 PWs)   bands (ev):

   -19.2758 -10.2208  -7.2492  -6.7048   3.4801   3.7211   4.3613   4.5286

     occupation numbers 
     1.0000   1.0000   1.0000   1.0000   0.0000   0.0000   0.0000   0.0000

          k = 0.2917-0.1883 0.0000 (  2432 PWs)   bands (ev):

   -19.1106 -10.6280  -7.0696  -6.8441   3.3545   3.7125   4.5537   4.7618

     occupation numbers 
     1.0000   1.0000   1.0000   1.0000   0.0000   0.0000   0.0000   0.0000

          k = 0.2917-0.1345 0.0000 (  2439 PWs)   bands (ev):

   -19.3613  -9.9750  -7.3495  -6.9691   3.3582   3.8347   4.2670   4.4064

     occupation numbers 
     1.0000   1.0000   1.0000   1.0000   0.0000   0.0000   0.0000   0.0000

          k = 0.2917-0.0807 0.0000 (  2427 PWs)   bands (ev):

   -19.5294  -9.3089  -7.5378  -7.3233   3.1222   3.8751   4.1697   4.4245

     occupation numbers 
     1.0000   1.0000   1.0000   1.0000   0.0000   0.0000   0.0000   0.0000

          k = 0.2917-0.0269 0.0000 (  2421 PWs)   bands (ev):

   -19.6137  -8.7092  -7.7826  -7.6325   3.0042   3.7840   4.0513   4.6471

     occupation numbers 
     1.0000   1.0000   1.0000   1.0000   0.0000   0.0000   0.0000   0.0000

          k = 0.2917 0.0269 0.0000 (  2421 PWs)   bands (ev):

   -19.6137  -8.7093  -7.7825  -7.6324   3.0042   3.7839   4.0513   4.6470

     occupation numbers 
     1.0000   1.0000   1.0000   1.0000   0.0000   0.0000   0.0000   0.0000

          k = 0.2917 0.0807 0.0000 (  2427 PWs)   bands (ev):

   -19.5294  -9.3090  -7.5378  -7.3231   3.1222   3.8751   4.1697   4.4246

     occupation numbers 
     1.0000   1.0000   1.0000   1.0000   0.0000   0.0000   0.0000   0.0000

          k = 0.2917 0.1345 0.0000 (  2439 PWs)   bands (ev):

   -19.3614  -9.9751  -7.3495  -6.9689   3.3582   3.8347   4.2670   4.4065

     occupation numbers 
     1.0000   1.0000   1.0000   1.0000   0.0000   0.0000   0.0000   0.0000

          k = 0.2917 0.1883 0.0000 (  2432 PWs)   bands (ev):

   -19.1106 -10.6281  -7.0696  -6.8439   3.3545   3.7125   4.5537   4.7619

     occupation numbers 
     1.0000   1.0000   1.0000   1.0000   0.0000   0.0000   0.0000   0.0000

          k = 0.2917 0.2422 0.0000 (  2431 PWs)   bands (ev):

   -18.7789 -11.2413  -7.0015  -6.7017   2.7637   4.1848   5.0085   5.2369

     occupation numbers 
     1.0000   1.0000   1.0000   1.0000   0.0000   0.0000   0.0000   0.0000

          k = 0.2917 0.2960 0.0000 (  2427 PWs)   bands (ev):

   -18.3691 -11.7994  -7.4356  -6.2508   2.1436   4.7742   5.5844   5.8324

     occupation numbers 
     1.0000   1.0000   1.0000   1.0000   0.0000   0.0000   0.0000   0.0000

          k = 0.2917 0.3498 0.0000 (  2431 PWs)   bands (ev):

   -17.8855 -12.2928  -8.0897  -5.7238   1.5202   5.4784   6.2712   6.5461

     occupation numbers 
     1.0000   1.0000   1.0000   1.0000   0.0000   0.0000   0.0000   0.0000

          k = 0.2917 0.4036 0.0000 (  2445 PWs)   bands (ev):

   -17.3349 -12.7156  -8.8862  -5.1303   0.9017   6.2951   7.0542   7.3745

     occupation numbers 
     1.0000   1.0000   1.0000   1.0000   0.0000   0.0000   0.0000   0.0000

          k = 0.2917-0.8341 0.0000 (  2438 PWs)   bands (ev):

   -16.7290 -13.0651  -9.7477  -4.4830   0.2865   7.2176   7.6427   7.8883

     occupation numbers 
     1.0000   1.0000   1.0000   1.0000   0.0000   0.0000   0.0000   0.0000

          k = 0.2917-0.7803 0.0000 (  2436 PWs)   bands (ev):

   -16.0910 -13.3437 -10.5986  -3.7982  -0.3342   7.4446   8.2577   8.5552

     occupation numbers 
     1.0000   1.0000   1.0000   1.0000   0.0000   0.0000   0.0000   0.0000

          k = 0.2917-0.7265 0.0000 (  2425 PWs)   bands (ev):

   -15.4734 -13.5611 -11.3430  -3.0978  -0.9682   7.3056   8.6327   9.3733

     occupation numbers 
     1.0000   1.0000   1.0000   1.0000   0.0000   0.0000   0.0000   0.0000

          k = 0.2917-0.6726 0.0000 (  2443 PWs)   bands (ev):

   -15.0186 -13.7179 -11.8181  -2.4308  -1.5940   7.2328   8.5033  10.5241

     occupation numbers 
     1.0000   1.0000   1.0000   1.0833   0.0018   0.0000   0.0000   0.0000

          k = 0.2917-0.6188 0.0000 (  2443 PWs)   bands (ev):

   -15.0186 -13.7179 -11.8181  -2.4308  -1.5939   7.2328   8.5033  10.5241

     occupation numbers 
     1.0000   1.0000   1.0000   1.0833   0.0018   0.0000   0.0000   0.0000

          k = 0.2917-0.5650 0.0000 (  2425 PWs)   bands (ev):

   -15.4733 -13.5611 -11.3431  -3.0979  -0.9681   7.3056   8.6326   9.3733

     occupation numbers 
     1.0000   1.0000   1.0000   1.0000   0.0000   0.0000   0.0000   0.0000

          k = 0.2917-0.5112 0.0000 (  2436 PWs)   bands (ev):

   -16.0910 -13.3437 -10.5987  -3.7982  -0.3342   7.4445   8.2577   8.5553

     occupation numbers 
     1.0000   1.0000   1.0000   1.0000   0.0000   0.0000   0.0000   0.0000

          k = 0.2917-0.4574 0.0000 (  2438 PWs)   bands (ev):

   -16.7290 -13.0651  -9.7478  -4.4830   0.2865   7.2177   7.6427   7.8883

     occupation numbers 
     1.0000   1.0000   1.0000   1.0000   0.0000   0.0000   0.0000   0.0000

          k = 0.2917-0.4036 0.0000 (  2445 PWs)   bands (ev):

   -17.3348 -12.7155  -8.8864  -5.1304   0.9017   6.2951   7.0542   7.3745

     occupation numbers 
     1.0000   1.0000   1.0000   1.0000   0.0000   0.0000   0.0000   0.0000

          k = 0.2917-0.3498 0.0000 (  2431 PWs)   bands (ev):

   -17.8855 -12.2928  -8.0898  -5.7238   1.5202   5.4784   6.2712   6.5461

     occupation numbers 
     1.0000   1.0000   1.0000   1.0000   0.0000   0.0000   0.0000   0.0000

          k = 0.2917-0.2960 0.0000 (  2427 PWs)   bands (ev):

   -18.3691 -11.7994  -7.4357  -6.2508   2.1437   4.7742   5.5845   5.8323

     occupation numbers 
     1.0000   1.0000   1.0000   1.0000   0.0000   0.0000   0.0000   0.0000

          k = 0.2917-0.2422 0.0000 (  2431 PWs)   bands (ev):

   -18.7789 -11.2413  -7.0016  -6.7017   2.7637   4.1848   5.0085   5.2369

     occupation numbers 
     1.0000   1.0000   1.0000   1.0000   0.0000   0.0000   0.0000   0.0000

          k = 0.3333-0.2152 0.0000 (  2431 PWs)   bands (ev):

   -18.5896 -11.6454  -7.1003  -6.5026   2.3593   4.4547   5.2814   5.4963

     occupation numbers 
     1.0000   1.0000   1.0000   1.0000   0.0000   0.0000   0.0000   0.0000

          k = 0.3333-0.1614 0.0000 (  2430 PWs)   bands (ev):

   -18.8767 -11.0091  -7.2291  -6.8121   2.9196   4.0433   4.8680   5.0949

     occupation numbers 
     1.0000   1.0000   1.0000   1.0000   0.0000   0.0000   0.0000   0.0000

          k = 0.3333-0.1076 0.0000 (  2436 PWs)   bands (ev):

   -19.0837 -10.3360  -7.5981  -7.0368   3.4108   3.7496   4.5662   4.8022

     occupation numbers 
     1.0000   1.0000   1.0000   1.0000   0.0000   0.0000   0.0000   0.0000

          k = 0.3333-0.0538 0.0000 (  2431 PWs)   bands (ev):

   -19.2086  -9.6661  -8.1146  -7.1730   3.5734   3.7685   4.3722   4.6257

     occupation numbers 
     1.0000   1.0000   1.0000   1.0000   0.0000   0.0000   0.0000   0.0000

          k = 0.3333-0.0000 0.0000 (  2429 PWs)   bands (ev):

   -19.2503  -9.2328  -8.5020  -7.2186   3.5147   3.9114   4.2952   4.5668

     occupation numbers 
     1.0000   1.0000   1.0000   1.0000   0.0000   0.0000   0.0000   0.0000

          k = 0.3333 0.0538 0.0000 (  2431 PWs)   bands (ev):

   -19.2086  -9.6662  -8.1144  -7.1730   3.5734   3.7685   4.3721   4.6257

     occupation numbers 
     1.0000   1.0000   1.0000   1.0000   0.0000   0.0000   0.0000   0.0000

          k = 0.3333 0.1076 0.0000 (  2436 PWs)   bands (ev):

   -19.0837 -10.3361  -7.5980  -7.0368   3.4108   3.7496   4.5663   4.8023

     occupation numbers 
     1.0000   1.0000   1.0000   1.0000   0.0000   0.0000   0.0000   0.0000

          k = 0.3333 0.1614 0.0000 (  2430 PWs)   bands (ev):

   -18.8768 -11.0092  -7.2290  -6.8121   2.9196   4.0433   4.8680   5.0950

     occupation numbers 
     1.0000   1.0000   1.0000   1.0000   0.0000   0.0000   0.0000   0.0000

          k = 0.3333 0.2152 0.0000 (  2431 PWs)   bands (ev):

   -18.5896 -11.6455  -7.1001  -6.5026   2.3592   4.4547   5.2816   5.4964

     occupation numbers 
     1.0000   1.0000   1.0000   1.0000   0.0000   0.0000   0.0000   0.0000

          k = 0.3333 0.2691 0.0000 (  2433 PWs)   bands (ev):

   -18.2254 -12.2256  -7.2584  -6.1140   1.7773   4.9843   5.8073   5.9163

     occupation numbers 
     1.0000   1.0000   1.0000   1.0000   0.0000   0.0000   0.0000   0.0000

          k = 0.3333 0.3229 0.0000 (  2437 PWs)   bands (ev):

   -17.7893 -12.7360  -7.6933  -5.6548   1.2049   5.6318   6.3939   6.4430

     occupation numbers 
     1.0000   1.0000   1.0000   1.0000   0.0000   0.0000   0.0000   0.0000

          k = 0.3333 0.3767 0.0000 (  2441 PWs)   bands (ev):

   -17.2902 -13.1650  -8.3456  -5.1366   0.6594   6.3933   7.1211   7.1787

     occupation numbers 
     1.0000   1.0000   1.0000   1.0000   0.0000   0.0000   0.0000   0.0000

          k = 0.3333-0.8610 0.0000 (  2440 PWs)   bands (ev):

   -16.7448 -13.4979  -9.1375  -4.5764   0.1478   7.2623   7.9171   7.9838

     occupation numbers 
     1.0000   1.0000   1.0000   1.0000   0.0000   0.0000   0.0000   0.0000

          k = 0.3333-0.8072 0.0000 (  2430 PWs)   bands (ev):

   -16.1873 -13.7092  -9.9945  -3.9978  -0.3299   8.1537   8.3022   8.6946

     occupation numbers 
     1.0000   1.0000   1.0000   1.0000   0.0000   0.0000   0.0000   0.0000

          k = 0.3333-0.7534 0.0000 (  2436 PWs)   bands (ev):

   -15.6907 -13.7501 -10.8452  -3.4377  -0.7726   8.1293   8.7817   9.3134

     occupation numbers 
     1.0000   1.0000   1.0000   1.0000   0.0000   0.0000   0.0000   0.0000

          k = 0.3333-0.6996 0.0000 (  2423 PWs)   bands (ev):

   -15.3669 -13.5795 -11.5876  -2.9657  -1.1508   8.0409   8.5318  10.4218

     occupation numbers 
     1.0000   1.0000   1.0000   1.0003   0.0000   0.0000   0.0000   0.0000

          k = 0.3333-0.6457 0.0000 (  2431 PWs)   bands (ev):

   -15.2651 -13.4059 -11.9475  -2.7520  -1.3288   8.0075   8.4187  10.7401

     occupation numbers 
     1.0000   1.0000   1.0000   1.0078   0.0000   0.0000   0.0000   0.0000

          k = 0.3333-0.5919 0.0000 (  2423 PWs)   bands (ev):

   -15.3669 -13.5795 -11.5876  -2.9657  -1.1508   8.0409   8.5317  10.4216

     occupation numbers 
     1.0000   1.0000   1.0000   1.0003   0.0000   0.0000   0.0000   0.0000

          k = 0.3333-0.5381 0.0000 (  2436 PWs)   bands (ev):

   -15.6906 -13.7501 -10.8453  -3.4377  -0.7726   8.1293   8.7817   9.3133

     occupation numbers 
     1.0000   1.0000   1.0000   1.0000   0.0000   0.0000   0.0000   0.0000

          k = 0.3333-0.4843 0.0000 (  2430 PWs)   bands (ev):

   -16.1873 -13.7092  -9.9946  -3.9978  -0.3299   8.1537   8.3022   8.6944

     occupation numbers 
     1.0000   1.0000   1.0000   1.0000   0.0000   0.0000   0.0000   0.0000

          k = 0.3333-0.4305 0.0000 (  2440 PWs)   bands (ev):

   -16.7447 -13.4978  -9.1377  -4.5764   0.1478   7.2623   7.9171   7.9839

     occupation numbers 
     1.0000   1.0000   1.0000   1.0000   0.0000   0.0000   0.0000   0.0000

          k = 0.3333-0.3767 0.0000 (  2441 PWs)   bands (ev):

   -17.2902 -13.1650  -8.3457  -5.1366   0.6594   6.3933   7.1211   7.4797

     occupation numbers 
     1.0000   1.0000   1.0000   1.0000   0.0000   0.0000   0.0000   0.0000

          k = 0.3333-0.3229 0.0000 (  2437 PWs)   bands (ev):

   -17.7892 -12.7360  -7.6934  -5.6548   1.2050   5.6319   6.3938   6.4429

     occupation numbers 
     1.0000   1.0000   1.0000   1.0000   0.0000   0.0000   0.0000   0.0000

          k = 0.3333-0.2691 0.0000 (  2433 PWs)   bands (ev):

   -18.2253 -12.2255  -7.2586  -6.1140   1.7774   4.9843   5.8073   5.9165

     occupation numbers 
     1.0000   1.0000   1.0000   1.0000   0.0000   0.0000   0.0000   0.0000

          k = 0.3750-0.2422 0.0000 (  2436 PWs)   bands (ev):

   -18.0167 -12.6156  -7.3083  -5.9075   1.3944   5.2787   5.8035   6.1240

     occupation numbers 
     1.0000   1.0000   1.0000   1.0000   0.0000   0.0000   0.0000   0.0000

          k = 0.3750-0.1883 0.0000 (  2438 PWs)   bands (ev):

   -18.3341 -12.0110  -7.4416  -6.2298   1.9360   4.8210   5.6493   5.8405

     occupation numbers 
     1.0000   1.0000   1.0000   1.0000   0.0000   0.0000   0.0000   0.0000

          k = 0.3750-0.1345 0.0000 (  2438 PWs)   bands (ev):

   -18.5762 -11.3504  -7.8230  -6.4793   2.4488   4.4728   5.2857   5.5301

     occupation numbers 
     1.0000   1.0000   1.0000   1.0000   0.0000   0.0000   0.0000   0.0000

          k = 0.3750-0.0807 0.0000 (  2433 PWs)   bands (ev):

   -18.7394 -10.6600  -8.3712  -6.6491   2.8687   4.2395   5.0342   5.2985

     occupation numbers 
     1.0000   1.0000   1.0000   1.0000   0.0000   0.0000   0.0000   0.0000

          k = 0.3750-0.0269 0.0000 (  2431 PWs)   bands (ev):

   -18.8214 -10.0223  -8.9521  -6.7350   3.1138   4.1226   4.9020   5.1815

     occupation numbers 
     1.0000   1.0000   1.0000   1.0000   0.0000   0.0000   0.0000   0.0000

          k = 0.3750 0.0269 0.0000 (  2431 PWs)   bands (ev):

   -18.8214 -10.0223  -8.9520  -6.7350   3.1138   4.1226   4.9021   5.1815

     occupation numbers 
     1.0000   1.0000   1.0000   1.0000   0.0000   0.0000   0.0000   0.0000

          k = 0.3750 0.0807 0.0000 (  2433 PWs)   bands (ev):

   -18.7394 -10.6601  -8.3711  -6.6491   2.8687   4.2395   5.0343   5.2985

     occupation numbers 
     1.0000   1.0000   1.0000   1.0000   0.0000   0.0000   0.0000   0.0000

          k = 0.3750 0.1345 0.0000 (  2438 PWs)   bands (ev):

   -18.5763 -11.3505  -7.8228  -6.4793   2.4488   4.4728   5.2856   5.5300

     occupation numbers 
     1.0000   1.0000   1.0000   1.0000   0.0000   0.0000   0.0000   0.0000

          k = 0.3750 0.1883 0.0000 (  2438 PWs)   bands (ev):

   -18.3341 -12.0111  -7.4414  -6.2298   1.9359   4.8211   5.6498   5.8414

     occupation numbers 
     1.0000   1.0000   1.0000   1.0000   0.0000   0.0000   0.0000   0.0000

          k = 0.3750 0.2422 0.0000 (  2436 PWs)   bands (ev):

   -18.0168 -12.6157  -7.3081  -5.9075   1.3944   5.2787   5.8035   6.1240

     occupation numbers 
     1.0000   1.0000   1.0000   1.0000   0.0000   0.0000   0.0000   0.0000

          k = 0.3750 0.2960 0.0000 (  2436 PWs)   bands (ev):

   -17.6308 -13.1473  -7.4653  -5.5228   0.8687   5.7995   5.9852   6.7081

     occupation numbers 
     1.0000   1.0000   1.0000   1.0000   0.0000   0.0000   0.0000   0.0000

          k = 0.3750 0.3498 0.0000 (  2443 PWs)   bands (ev):

   -17.1887 -13.5884  -7.8979  -5.0915   0.3893   6.3449   6.6073   7.3960

     occupation numbers 
     1.0000   1.0000   1.0000   1.0000   0.0000   0.0000   0.0000   0.0000

          k = 0.3750-0.8879 0.0000 (  2445 PWs)   bands (ev):

   -16.7157 -13.9128  -8.5438  -4.6363  -0.0234   7.1019   7.4032   8.1666

     occupation numbers 
     1.0000   1.0000   1.0000   1.0000   0.0000   0.0000   0.0000   0.0000

          k = 0.3750-0.8341 0.0000 (  2444 PWs)   bands (ev):

   -16.2651 -14.0704  -9.3252  -4.1892  -0.3549   7.9407   8.3131   8.9085

     occupation numbers 
     1.0000   1.0000   1.0000   1.0000   0.0000   0.0000   0.0000   0.0000

          k = 0.3750-0.7803 0.0000 (  2438 PWs)   bands (ev):

   -15.9299 -13.9784 -10.1688  -3.7922  -0.5967   8.3681   9.0222   9.3280

     occupation numbers 
     1.0000   1.0000   1.0000   1.0000   0.0000   0.0000   0.0000   0.0000

          k = 0.3750-0.7265 0.0000 (  2431 PWs)   bands (ev):

   -15.7685 -13.6067 -11.0021  -3.4930  -0.7479   8.3400   8.6604   9.8971

     occupation numbers 
     1.0000   1.0000   1.0000   1.0000   0.0000   0.0000   0.0000   0.0000

          k = 0.3750-0.6726 0.0000 (  2423 PWs)   bands (ev):

   -15.7218 -13.1283 -11.6834  -3.3323  -0.8173   8.2788   8.4146   9.8725

     occupation numbers 
     1.0000   1.0000   1.0000   1.0000   0.0000   0.0000   0.0000   0.0000

          k = 0.3750-0.6188 0.0000 (  2423 PWs)   bands (ev):

   -15.7218 -13.1283 -11.6834  -3.3323  -0.8173   8.2788   8.4145   9.8725

     occupation numbers 
     1.0000   1.0000   1.0000   1.0000   0.0000   0.0000   0.0000   0.0000

          k = 0.3750-0.5650 0.0000 (  2431 PWs)   bands (ev):

   -15.7684 -13.6066 -11.0022  -3.4930  -0.7478   8.3401   8.6604   9.8971

     occupation numbers 
     1.0000   1.0000   1.0000   1.0000   0.0000   0.0000   0.0000   0.0000

          k = 0.3750-0.5112 0.0000 (  2438 PWs)   bands (ev):

   -15.9298 -13.9784 -10.1689  -3.7923  -0.5966   8.3681   9.0221   9.3281

     occupation numbers 
     1.0000   1.0000   1.0000   1.0000   0.0000   0.0000   0.0000   0.0000

          k = 0.3750-0.4574 0.0000 (  2444 PWs)   bands (ev):

   -16.2650 -14.0703  -9.3253  -4.1892  -0.3549   7.9407   8.3131   8.9085

     occupation numbers 
     1.0000   1.0000   1.0000   1.0000   0.0000   0.0000   0.0000   0.0000

          k = 0.3750-0.4036 0.0000 (  2445 PWs)   bands (ev):

   -16.7156 -13.9127  -8.5439  -4.6363  -0.0234   7.1018   7.4032   8.1667

     occupation numbers 
     1.0000   1.0000   1.0000   1.0000   0.0000   0.0000   0.0000   0.0000

          k = 0.3750-0.3498 0.0000 (  2443 PWs)   bands (ev):

   -17.1887 -13.5883  -7.8981  -5.0915   0.3893   6.3449   6.6073   7.3959

     occupation numbers 
     1.0000   1.0000   1.0000   1.0000   0.0000   0.0000   0.0000   0.0000

          k = 0.3750-0.2960 0.0000 (  2436 PWs)   bands (ev):

   -17.6308 -13.1472  -7.4655  -5.5228   0.8688   5.7995   5.9852   6.7082

     occupation numbers 
     1.0000   1.0000   1.0000   1.0000   0.0000   0.0000   0.0000   0.0000

          k = 0.4167-0.2691 0.0000 (  2449 PWs)   bands (ev):

   -17.4149 -13.5068  -7.4614  -5.3327   0.5415   5.6990   6.2716   7.0658

     occupation numbers 
     1.0000   1.0000   1.0000   1.0000   0.0000   0.0000   0.0000   0.0000

          k = 0.4167-0.2152 0.0000 (  2439 PWs)   bands (ev):

   -17.7467 -12.9552  -7.5992  -5.6347   1.0154   5.6504   6.0349   6.5330

     occupation numbers 
     1.0000   1.0000   1.0000   1.0000   0.0000   0.0000   0.0000   0.0000

          k = 0.4167-0.1614 0.0000 (  2440 PWs)   bands (ev):

   -18.0154 -12.3265  -7.9918  -5.8868   1.5063   5.2852   6.1096   6.3121

     occupation numbers 
     1.0000   1.0000   1.0000   1.0000   0.0000   0.0000   0.0000   0.0000

          k = 0.4167-0.1076 0.0000 (  2438 PWs)   bands (ev):

   -18.2119 -11.6436  -8.5634  -6.0751   1.9529   4.9992   5.7980   6.0659

     occupation numbers 
     1.0000   1.0000   1.0000   1.0000   0.0000   0.0000   0.0000   0.0000

          k = 0.4167-0.0538 0.0000 (  2436 PWs)   bands (ev):

   -18.3313 -10.9477  -9.2174  -6.1914   2.2768   4.8255   5.6036   5.8936

     occupation numbers 
     1.0000   1.0000   1.0000   1.0000   0.0000   0.0000   0.0000   0.0000

          k = 0.4167-0.0000 0.0000 (  2431 PWs)   bands (ev):

   -18.3714 -10.4896  -9.6659  -6.2306   2.3971   4.7675   5.5366   5.8355

     occupation numbers 
     1.0000   1.0000   1.0000   1.0000   0.0000   0.0000   0.0000   0.0000

          k = 0.4167 0.0538 0.0000 (  2436 PWs)   bands (ev):

   -18.3313 -10.9478  -9.2172  -6.1914   2.2768   4.8255   5.6036   5.8936

     occupation numbers 
     1.0000   1.0000   1.0000   1.0000   0.0000   0.0000   0.0000   0.0000

          k = 0.4167 0.1076 0.0000 (  2438 PWs)   bands (ev):

   -18.2119 -11.6437  -8.5632  -6.0751   1.9529   4.9992   5.7980   6.0659

     occupation numbers 
     1.0000   1.0000   1.0000   1.0000   0.0000   0.0000   0.0000   0.0000

          k = 0.4167 0.1614 0.0000 (  2440 PWs)   bands (ev):

   -18.0154 -12.3266  -7.9916  -5.8868   1.5062   5.2852   6.3117   6.6539

     occupation numbers 
     1.0000   1.0000   1.0000   1.0000   0.0000   0.0000   0.0000   0.0000

          k = 0.4167 0.2152 0.0000 (  2439 PWs)   bands (ev):

   -17.7467 -12.9553  -7.5990  -5.6347   1.0153   5.6504   6.0349   6.5331

     occupation numbers 
     1.0000   1.0000   1.0000   1.0000   0.0000   0.0000   0.0000   0.0000

          k = 0.4167 0.2691 0.0000 (  2449 PWs)   bands (ev):

   -17.4149 -13.5068  -7.4612  -5.3327   0.5414   5.6990   6.2717   7.0658

     occupation numbers 
     1.0000   1.0000   1.0000   1.0000   0.0000   0.0000   0.0000   0.0000

          k = 0.4167 0.3229 0.0000 (  2450 PWs)   bands (ev):

   -17.0388 -13.9558  -7.6159  -5.0015   0.1303   5.8501   6.8927   7.7041

     occupation numbers 
     1.0000   1.0000   1.0000   1.0000   0.0000   0.0000   0.0000   0.0000

          k = 0.4167-0.9148 0.0000 (  2445 PWs)   bands (ev):

   -16.6587 -14.2592  -8.0435  -4.6702  -0.1817   6.3461   7.6369   8.4348

     occupation numbers 
     1.0000   1.0000   1.0000   1.0000   0.0000   0.0000   0.0000   0.0000

          k = 0.4167-0.8610 0.0000 (  2446 PWs)   bands (ev):

   -16.3544 -14.3383  -8.6795  -4.3743  -0.3690   7.1052   8.4714   8.9003

     occupation numbers 
     1.0000   1.0000   1.0000   1.0000   0.0000   0.0000   0.0000   0.0000

          k = 0.4167-0.8072 0.0000 (  2444 PWs)   bands (ev):

   -16.2100 -14.1141  -9.4456  -4.1460  -0.4256   7.8840   8.6428   9.0604

     occupation numbers 
     1.0000   1.0000   1.0000   1.0000   0.0000   0.0000   0.0000   0.0000

          k = 0.4167-0.7534 0.0000 (  2436 PWs)   bands (ev):

   -16.1990 -13.6267 -10.2681  -3.9991  -0.3821   7.9968   8.6327   9.0708

     occupation numbers 
     1.0000   1.0000   1.0000   1.0000   0.0000   0.0000   0.0000   0.0000

          k = 0.4167-0.6996 0.0000 (  2424 PWs)   bands (ev):

   -16.2289 -13.0111 -11.0633  -3.9238  -0.3060   7.8794   8.3169   9.1082

     occupation numbers 
     1.0000   1.0000   1.0000   1.0000   0.0000   0.0000   0.0000   0.0000

          k = 0.4167-0.6457 0.0000 (  2417 PWs)   bands (ev):

   -16.2440 -12.5963 -11.5353  -3.9014  -0.2702   7.8323   8.1994   9.0686

     occupation numbers 
     1.0000   1.0000   1.0000   1.0000   0.0000   0.0000   0.0000   0.0000

          k = 0.4167-0.5919 0.0000 (  2424 PWs)   bands (ev):

   -16.2289 -13.0111 -11.0634  -3.9238  -0.3060   7.8794   8.3167   9.1081

     occupation numbers 
     1.0000   1.0000   1.0000   1.0000   0.0000   0.0000   0.0000   0.0000

          k = 0.4167-0.5381 0.0000 (  2436 PWs)   bands (ev):

   -16.1990 -13.6266 -10.2682  -3.9991  -0.3821   7.9968   8.6326   9.0709

     occupation numbers 
     1.0000   1.0000   1.0000   1.0000   0.0000   0.0000   0.0000   0.0000

          k = 0.4167-0.4843 0.0000 (  2444 PWs)   bands (ev):

   -16.2100 -14.1141  -9.4457  -4.1460  -0.4256   7.8840   8.6428   9.0602

     occupation numbers 
     1.0000   1.0000   1.0000   1.0000   0.0000   0.0000   0.0000   0.0000

          k = 0.4167-0.4305 0.0000 (  2446 PWs)   bands (ev):

   -16.3543 -14.3383  -8.6796  -4.3743  -0.3690   7.1052   8.4715   8.9001

     occupation numbers 
     1.0000   1.0000   1.0000   1.0000   0.0000   0.0000   0.0000   0.0000

          k = 0.4167-0.3767 0.0000 (  2445 PWs)   bands (ev):

   -16.6586 -14.2592  -8.0436  -4.6702  -0.1817   6.3460   7.6369   8.4347

     occupation numbers 
     1.0000   1.0000   1.0000   1.0000   0.0000   0.0000   0.0000   0.0000

          k = 0.4167-0.3229 0.0000 (  2450 PWs)   bands (ev):

   -17.0388 -13.9558  -7.6161  -5.0015   0.1304   5.8501   6.8927   7.7041

     occupation numbers 
     1.0000   1.0000   1.0000   1.0000   0.0000   0.0000   0.0000   0.0000

          k = 0.4583-0.2960 0.0000 (  2452 PWs)   bands (ev):

   -16.8547 -14.2427  -7.5549  -4.8753  -0.0881   5.6784   7.2790   8.1016

     occupation numbers 
     1.0000   1.0000   1.0000   1.0000   0.0000   0.0000   0.0000   0.0000

          k = 0.4583-0.2422 0.0000 (  2441 PWs)   bands (ev):

   -17.1492 -13.7994  -7.6974  -5.0910   0.2426   5.8847   6.7176   7.5123

     occupation numbers 
     1.0000   1.0000   1.0000   1.0000   0.0000   0.0000   0.0000   0.0000

          k = 0.4583-0.1883 0.0000 (  2435 PWs)   bands (ev):

   -17.4202 -13.2338  -8.1003  -5.3007   0.6507   6.1321   6.5605   7.0290

     occupation numbers 
     1.0000   1.0000   1.0000   1.0000   0.0000   0.0000   0.0000   0.0000

          k = 0.4583-0.1345 0.0000 (  2438 PWs)   bands (ev):

   -17.6377 -12.5846  -8.6914  -5.4779   1.0733   5.8440   6.6549   6.9000

     occupation numbers 
     1.0000   1.0000   1.0000   1.0000   0.0000   0.0000   0.0000   0.0000

          k = 0.4583-0.0807 0.0000 (  2430 PWs)   bands (ev):

   -17.7877 -11.8857  -9.3856  -5.6048   1.4334   5.6184   6.3949   6.6988

     occupation numbers 
     1.0000   1.0000   1.0000   1.0000   0.0000   0.0000   0.0000   0.0000

          k = 0.4583-0.0269 0.0000 (  2425 PWs)   bands (ev):

   -17.8641 -11.2260 -10.0533  -5.6708   1.6453   5.5037   6.2592   6.5851

     occupation numbers 
     1.0000   1.0000   1.0000   1.0000   0.0000   0.0000   0.0000   0.0000

          k = 0.4583 0.0269 0.0000 (  2425 PWs)   bands (ev):

   -17.8641 -11.2261 -10.0532  -5.6708   1.6453   5.5037   6.2591   6.5850

     occupation numbers 
     1.0000   1.0000   1.0000   1.0000   0.0000   0.0000   0.0000   0.0000

          k = 0.4583 0.0807 0.0000 (  2430 PWs)   bands (ev):

   -17.7877 -11.8858  -9.3854  -5.6048   1.4334   5.6184   6.3949   6.6988

     occupation numbers 
     1.0000   1.0000   1.0000   1.0000   0.0000   0.0000   0.0000   0.0000

          k = 0.4583 0.1345 0.0000 (  2438 PWs)   bands (ev):

   -17.6377 -12.5847  -8.6913  -5.4779   1.0733   5.8440   6.6549   6.9000

     occupation numbers 
     1.0000   1.0000   1.0000   1.0000   0.0000   0.0000   0.0000   0.0000

          k = 0.4583 0.1883 0.0000 (  2435 PWs)   bands (ev):

   -17.4203 -13.2339  -8.1001  -5.3007   0.6507   6.1321   6.5606   7.0290

     occupation numbers 
     1.0000   1.0000   1.0000   1.0000   0.0000   0.0000   0.0000   0.0000

          k = 0.4583 0.2422 0.0000 (  2441 PWs)   bands (ev):

   -17.1492 -13.7995  -7.6972  -5.0910   0.2426   5.8848   6.7176   7.5123

     occupation numbers 
     1.0000   1.0000   1.0000   1.0000   0.0000   0.0000   0.0000   0.0000

          k = 0.4583 0.2960 0.0000 (  2452 PWs)   bands (ev):

   -16.8547 -14.2427  -7.5547  -4.8752  -0.0881   5.6784   7.2790   8.1015

     occupation numbers 
     1.0000   1.0000   1.0000   1.0000   0.0000   0.0000   0.0000   0.0000

          k = 0.4583-0.9417 0.0000 (  2448 PWs)   bands (ev):

   -16.6013 -14.4949  -7.7060  -4.6860  -0.2918   5.8433   7.9608   8.8620

     occupation numbers 
     1.0000   1.0000   1.0000   1.0000   0.0000   0.0000   0.0000   0.0000

          k = 0.4583-0.8879 0.0000 (  2455 PWs)   bands (ev):

   -16.4845 -14.4602  -8.1267  -4.5532  -0.3396   6.3587   8.2864   8.7835

     occupation numbers 
     1.0000   1.0000   1.0000   1.0000   0.0000   0.0000   0.0000   0.0000

          k = 0.4583-0.8341 0.0000 (  2450 PWs)   bands (ev):

   -16.5241 -14.1217  -8.7499  -4.4876  -0.2381   7.0998   7.8981   8.6089

     occupation numbers 
     1.0000   1.0000   1.0000   1.0000   0.0000   0.0000   0.0000   0.0000

          k = 0.4583-0.7803 0.0000 (  2438 PWs)   bands (ev):

   -16.6323 -13.5753  -9.4966  -4.4750  -0.0381   7.3724   8.1798   8.1928

     occupation numbers 
     1.0000   1.0000   1.0000   1.0000   0.0000   0.0000   0.0000   0.0000

          k = 0.4583-0.7265 0.0000 (  2423 PWs)   bands (ev):

   -16.7324 -12.9180 -10.2895  -4.4877   0.1767   7.1917   7.8832   8.3227

     occupation numbers 
     1.0000   1.0000   1.0000   1.0000   0.0000   0.0000   0.0000   0.0000

          k = 0.4583-0.6726 0.0000 (  2416 PWs)   bands (ev):

   -16.7889 -12.2753 -11.0023  -4.5008   0.3153   7.0852   7.7114   8.2264

     occupation numbers 
     1.0000   1.0000   1.0000   1.0000   0.0000   0.0000   0.0000   0.0000

          k = 0.4583-0.6188 0.0000 (  2416 PWs)   bands (ev):

   -16.7889 -12.2752 -11.0024  -4.5008   0.3153   7.0853   7.7114   8.2264

     occupation numbers 
     1.0000   1.0000   1.0000   1.0000   0.0000   0.0000   0.0000   0.0000

          k = 0.4583-0.5650 0.0000 (  2423 PWs)   bands (ev):

   -16.7324 -12.9179 -10.2896  -4.4877   0.1768   7.1917   7.8835   8.3228

     occupation numbers 
     1.0000   1.0000   1.0000   1.0000   0.0000   0.0000   0.0000   0.0000

          k = 0.4583-0.5112 0.0000 (  2438 PWs)   bands (ev):

   -16.6322 -13.5753  -9.4967  -4.4750  -0.0381   7.3724   8.1797   8.1928

     occupation numbers 
     1.0000   1.0000   1.0000   1.0000   0.0000   0.0000   0.0000   0.0000

          k = 0.4583-0.4574 0.0000 (  2450 PWs)   bands (ev):

   -16.5240 -14.1217  -8.7500  -4.4877  -0.2381   7.0998   7.8981   8.6089

     occupation numbers 
     1.0000   1.0000   1.0000   1.0000   0.0000   0.0000   0.0000   0.0000

          k = 0.4583-0.4036 0.0000 (  2455 PWs)   bands (ev):

   -16.4844 -14.4602  -8.1269  -4.5532  -0.3395   6.3586   8.2865   8.7834

     occupation numbers 
     1.0000   1.0000   1.0000   1.0000   0.0000   0.0000   0.0000   0.0000

          k = 0.4583-0.3498 0.0000 (  2448 PWs)   bands (ev):

   -16.6013 -14.4948  -7.7062  -4.6860  -0.2917   5.8432   7.9609   8.8620

     occupation numbers 
     1.0000   1.0000   1.0000   1.0000   0.0000   0.0000   0.0000   0.0000

          k =-0.5000 0.3229 0.0000 (  2458 PWs)   bands (ev):

   -16.5766 -14.5796  -7.5864  -4.6905  -0.3310   5.6671   8.2931   8.4735

     occupation numbers 
     1.0000   1.0000   1.0000   1.0000   0.0000   0.0000   0.0000   0.0000

          k =-0.5000 0.3767 0.0000 (  2448 PWs)   bands (ev):

   -16.6595 -14.4213  -7.7333  -4.7227  -0.2474   5.8580   7.7520   8.5815

     occupation numbers 
     1.0000   1.0000   1.0000   1.0000   0.0000   0.0000   0.0000   0.0000

          k =-0.5000 0.4305 0.0000 (  2445 PWs)   bands (ev):

   -16.8459 -14.0103  -8.1457  -4.8061  -0.0178   6.3791   7.2611   8.0381

     occupation numbers 
     1.0000   1.0000   1.0000   1.0000   0.0000   0.0000   0.0000   0.0000

          k =-0.5000 0.4843 0.0000 (  2437 PWs)   bands (ev):

   -17.0449 -13.4429  -8.7540  -4.9116   0.3017   6.7223   7.3010   7.5980

     occupation numbers 
     1.0000   1.0000   1.0000   1.0000   0.0000   0.0000   0.0000   0.0000

          k =-0.5000 0.5381 0.0000 (  2427 PWs)   bands (ev):

   -17.2069 -12.7813  -9.4771  -5.0091   0.6333   6.4876   7.2664   7.5751

     occupation numbers 
     1.0000   1.0000   1.0000   1.0000   0.0000   0.0000   0.0000   0.0000

          k =-0.5000 0.5919 0.0000 (  2418 PWs)   bands (ev):

   -17.3099 -12.0835 -10.2264  -5.0760   0.8876   6.3214   7.0542   7.4233

     occupation numbers 
     1.0000   1.0000   1.0000   1.0000   0.0000   0.0000   0.0000   0.0000

          k =-0.5000 0.6457 0.0000 (  2425 PWs)   bands (ev):

   -17.3452 -11.6196 -10.7101  -5.0998   0.9838   6.2650   6.9798   7.3675

     occupation numbers 
     1.0000   1.0000   1.0000   1.0000   0.0000   0.0000   0.0000   0.0000

          k =-0.5000 0.6996 0.0000 (  2418 PWs)   bands (ev):

   -17.3100 -12.0836 -10.2263  -5.0760   0.8876   6.3214   7.0541   7.4232

     occupation numbers 
     1.0000   1.0000   1.0000   1.0000   0.0000   0.0000   0.0000   0.0000

          k =-0.5000 0.7534 0.0000 (  2427 PWs)   bands (ev):

   -17.2069 -12.7814  -9.4770  -5.0091   0.6332   6.4876   7.2664   7.5751

     occupation numbers 
     1.0000   1.0000   1.0000   1.0000   0.0000   0.0000   0.0000   0.0000

          k =-0.5000 0.8072 0.0000 (  2437 PWs)   bands (ev):

   -17.0450 -13.4430  -8.7539  -4.9116   0.3016   6.7222   7.3011   7.5980

     occupation numbers 
     1.0000   1.0000   1.0000   1.0000   0.0000   0.0000   0.0000   0.0000

          k =-0.5000 0.8610 0.0000 (  2445 PWs)   bands (ev):

   -16.8460 -14.0103  -8.1456  -4.8061  -0.0178   6.3792   7.2611   8.0381

     occupation numbers 
     1.0000   1.0000   1.0000   1.0000   0.0000   0.0000   0.0000   0.0000

          k =-0.5000 0.9148 0.0000 (  2448 PWs)   bands (ev):

   -16.6596 -14.4213  -7.7332  -4.7226  -0.2474   5.8580   7.7519   8.5814

     occupation numbers 
     1.0000   1.0000   1.0000   1.0000   0.0000   0.0000   0.0000   0.0000

          k =-0.5000-0.3229 0.0000 (  2458 PWs)   bands (ev):

   -16.5767 -14.5796  -7.5862  -4.6905  -0.3310   5.6672   8.2928   8.4738

     occupation numbers 
     1.0000   1.0000   1.0000   1.0000   0.0000   0.0000   0.0000   0.0000

          k =-0.5000-0.2691 0.0000 (  2448 PWs)   bands (ev):

   -16.6596 -14.4213  -7.7332  -4.7226  -0.2474   5.8580   7.7519   8.5814

     occupation numbers 
     1.0000   1.0000   1.0000   1.0000   0.0000   0.0000   0.0000   0.0000

          k =-0.5000-0.2152 0.0000 (  2445 PWs)   bands (ev):

   -16.8460 -14.0103  -8.1456  -4.8061  -0.0178   6.3792   7.2611   8.0381

     occupation numbers 
     1.0000   1.0000   1.0000   1.0000   0.0000   0.0000   0.0000   0.0000

          k =-0.5000-0.1614 0.0000 (  2437 PWs)   bands (ev):

   -17.0450 -13.4430  -8.7539  -4.9116   0.3016   6.7223   7.3011   7.5980

     occupation numbers 
     1.0000   1.0000   1.0000   1.0000   0.0000   0.0000   0.0000   0.0000

          k =-0.5000-0.1076 0.0000 (  2427 PWs)   bands (ev):

   -17.2069 -12.7814  -9.4770  -5.0091   0.6332   6.4875   7.2664   7.5751

     occupation numbers 
     1.0000   1.0000   1.0000   1.0000   0.0000   0.0000   0.0000   0.0000

          k =-0.5000-0.0538 0.0000 (  2418 PWs)   bands (ev):

   -17.3100 -12.0836 -10.2263  -5.0760   0.8876   6.3214   7.0541   7.4232

     occupation numbers 
     1.0000   1.0000   1.0000   1.0000   0.0000   0.0000   0.0000   0.0000

          k =-0.5000 0.0000 0.0000 (  2425 PWs)   bands (ev):

   -17.3452 -11.6196 -10.7101  -5.0998   0.9838   6.2649   6.9798   7.3674

     occupation numbers 
     1.0000   1.0000   1.0000   1.0000   0.0000   0.0000   0.0000   0.0000

          k =-0.5000 0.0538 0.0000 (  2418 PWs)   bands (ev):

   -17.3099 -12.0835 -10.2264  -5.0760   0.8876   6.3214   7.0542   7.4233

     occupation numbers 
     1.0000   1.0000   1.0000   1.0000   0.0000   0.0000   0.0000   0.0000

          k =-0.5000 0.1076 0.0000 (  2427 PWs)   bands (ev):

   -17.2069 -12.7813  -9.4771  -5.0091   0.6333   6.4876   7.2663   7.5751

     occupation numbers 
     1.0000   1.0000   1.0000   1.0000   0.0000   0.0000   0.0000   0.0000

          k =-0.5000 0.1614 0.0000 (  2437 PWs)   bands (ev):

   -17.0449 -13.4429  -8.7540  -4.9116   0.3017   6.7223   7.3010   7.5983

     occupation numbers 
     1.0000   1.0000   1.0000   1.0000   0.0000   0.0000   0.0000   0.0000

          k =-0.5000 0.2152 0.0000 (  2445 PWs)   bands (ev):

   -16.8459 -14.0103  -8.1457  -4.8061  -0.0178   6.3791   7.2611   8.0379

     occupation numbers 
     1.0000   1.0000   1.0000   1.0000   0.0000   0.0000   0.0000   0.0000

          k =-0.5000 0.2691 0.0000 (  2448 PWs)   bands (ev):

   -16.6595 -14.4213  -7.7333  -4.7227  -0.2474   5.8580   7.7520   8.5813

     occupation numbers 
     1.0000   1.0000   1.0000   1.0000   0.0000   0.0000   0.0000   0.0000

          k =-0.4583 0.2960 0.0000 (  2452 PWs)   bands (ev):

   -16.8547 -14.2427  -7.5549  -4.8753  -0.0881   5.6784   7.2791   8.1017

     occupation numbers 
     1.0000   1.0000   1.0000   1.0000   0.0000   0.0000   0.0000   0.0000

          k =-0.4583 0.3498 0.0000 (  2448 PWs)   bands (ev):

   -16.6013 -14.4948  -7.7062  -4.6860  -0.2917   5.8432   7.9609   8.8620

     occupation numbers 
     1.0000   1.0000   1.0000   1.0000   0.0000   0.0000   0.0000   0.0000

          k =-0.4583 0.4036 0.0000 (  2455 PWs)   bands (ev):

   -16.4844 -14.4602  -8.1269  -4.5532  -0.3395   6.3586   8.2865   8.7834

     occupation numbers 
     1.0000   1.0000   1.0000   1.0000   0.0000   0.0000   0.0000   0.0000

          k =-0.4583 0.4574 0.0000 (  2450 PWs)   bands (ev):

   -16.5240 -14.1217  -8.7500  -4.4877  -0.2381   7.0998   7.8981   8.6088

     occupation numbers 
     1.0000   1.0000   1.0000   1.0000   0.0000   0.0000   0.0000   0.0000

          k =-0.4583 0.5112 0.0000 (  2438 PWs)   bands (ev):

   -16.6322 -13.5753  -9.4967  -4.4750  -0.0381   7.3724   8.1797   8.1928

     occupation numbers 
     1.0000   1.0000   1.0000   1.0000   0.0000   0.0000   0.0000   0.0000

          k =-0.4583 0.5650 0.0000 (  2423 PWs)   bands (ev):

   -16.7324 -12.9179 -10.2896  -4.4877   0.1768   7.1917   7.8832   8.3227

     occupation numbers 
     1.0000   1.0000   1.0000   1.0000   0.0000   0.0000   0.0000   0.0000

          k =-0.4583 0.6188 0.0000 (  2416 PWs)   bands (ev):

   -16.7889 -12.2752 -11.0024  -4.5008   0.3153   7.0853   7.7114   8.2265

     occupation numbers 
     1.0000   1.0000   1.0000   1.0000   0.0000   0.0000   0.0000   0.0000

          k =-0.4583 0.6726 0.0000 (  2416 PWs)   bands (ev):

   -16.7889 -12.2753 -11.0023  -4.5008   0.3153   7.0852   7.7114   8.2264

     occupation numbers 
     1.0000   1.0000   1.0000   1.0000   0.0000   0.0000   0.0000   0.0000

          k =-0.4583 0.7265 0.0000 (  2423 PWs)   bands (ev):

   -16.7324 -12.9180 -10.2895  -4.4877   0.1767   7.1917   7.8832   8.3227

     occupation numbers 
     1.0000   1.0000   1.0000   1.0000   0.0000   0.0000   0.0000   0.0000

          k =-0.4583 0.7803 0.0000 (  2438 PWs)   bands (ev):

   -16.6323 -13.5753  -9.4966  -4.4750  -0.0381   7.3724   8.1798   8.1929

     occupation numbers 
     1.0000   1.0000   1.0000   1.0000   0.0000   0.0000   0.0000   0.0000

          k =-0.4583 0.8341 0.0000 (  2450 PWs)   bands (ev):

   -16.5241 -14.1217  -8.7499  -4.4876  -0.2381   7.0998   7.8981   8.6089

     occupation numbers 
     1.0000   1.0000   1.0000   1.0000   0.0000   0.0000   0.0000   0.0000

          k =-0.4583 0.8879 0.0000 (  2455 PWs)   bands (ev):

   -16.4845 -14.4602  -8.1267  -4.5532  -0.3396   6.3587   8.2864   8.7835

     occupation numbers 
     1.0000   1.0000   1.0000   1.0000   0.0000   0.0000   0.0000   0.0000

          k =-0.4583-0.3498 0.0000 (  2448 PWs)   bands (ev):

   -16.6013 -14.4949  -7.7060  -4.6860  -0.2918   5.8433   7.9608   8.8619

     occupation numbers 
     1.0000   1.0000   1.0000   1.0000   0.0000   0.0000   0.0000   0.0000

          k =-0.4583-0.2960 0.0000 (  2452 PWs)   bands (ev):

   -16.8547 -14.2427  -7.5547  -4.8752  -0.0881   5.6784   7.2790   8.1015

     occupation numbers 
     1.0000   1.0000   1.0000   1.0000   0.0000   0.0000   0.0000   0.0000

          k =-0.4583-0.2422 0.0000 (  2441 PWs)   bands (ev):

   -17.1492 -13.7995  -7.6972  -5.0910   0.2426   5.8848   6.7176   7.5123

     occupation numbers 
     1.0000   1.0000   1.0000   1.0000   0.0000   0.0000   0.0000   0.0000

          k =-0.4583-0.1883 0.0000 (  2435 PWs)   bands (ev):

   -17.4203 -13.2339  -8.1001  -5.3007   0.6507   6.1321   6.5606   7.0290

     occupation numbers 
     1.0000   1.0000   1.0000   1.0000   0.0000   0.0000   0.0000   0.0000

          k =-0.4583-0.1345 0.0000 (  2438 PWs)   bands (ev):

   -17.6377 -12.5847  -8.6913  -5.4779   1.0733   5.8440   6.6549   6.9001

     occupation numbers 
     1.0000   1.0000   1.0000   1.0000   0.0000   0.0000   0.0000   0.0000

          k =-0.4583-0.0807 0.0000 (  2430 PWs)   bands (ev):

   -17.7877 -11.8858  -9.3854  -5.6048   1.4334   5.6184   6.3949   6.6988

     occupation numbers 
     1.0000   1.0000   1.0000   1.0000   0.0000   0.0000   0.0000   0.0000

          k =-0.4583-0.0269 0.0000 (  2425 PWs)   bands (ev):

   -17.8641 -11.2261 -10.0532  -5.6708   1.6453   5.5037   6.2592   6.5851

     occupation numbers 
     1.0000   1.0000   1.0000   1.0000   0.0000   0.0000   0.0000   0.0000

          k =-0.4583 0.0269 0.0000 (  2425 PWs)   bands (ev):

   -17.8641 -11.2260 -10.0533  -5.6708   1.6453   5.5037   6.2592   6.5850

     occupation numbers 
     1.0000   1.0000   1.0000   1.0000   0.0000   0.0000   0.0000   0.0000

          k =-0.4583 0.0807 0.0000 (  2430 PWs)   bands (ev):

   -17.7877 -11.8857  -9.3856  -5.6048   1.4334   5.6184   6.3949   6.6988

     occupation numbers 
     1.0000   1.0000   1.0000   1.0000   0.0000   0.0000   0.0000   0.0000

          k =-0.4583 0.1345 0.0000 (  2438 PWs)   bands (ev):

   -17.6377 -12.5846  -8.6914  -5.4779   1.0733   5.8440   6.6550   6.9001

     occupation numbers 
     1.0000   1.0000   1.0000   1.0000   0.0000   0.0000   0.0000   0.0000

          k =-0.4583 0.1883 0.0000 (  2435 PWs)   bands (ev):

   -17.4202 -13.2338  -8.1003  -5.3007   0.6507   6.1321   6.5605   7.0290

     occupation numbers 
     1.0000   1.0000   1.0000   1.0000   0.0000   0.0000   0.0000   0.0000

          k =-0.4583 0.2422 0.0000 (  2441 PWs)   bands (ev):

   -17.1492 -13.7994  -7.6974  -5.0910   0.2426   5.8847   6.7176   7.5123

     occupation numbers 
     1.0000   1.0000   1.0000   1.0000   0.0000   0.0000   0.0000   0.0000

          k =-0.4167 0.2691 0.0000 (  2449 PWs)   bands (ev):

   -17.4149 -13.5068  -7.4614  -5.3327   0.5415   5.6990   6.2716   7.0658

     occupation numbers 
     1.0000   1.0000   1.0000   1.0000   0.0000   0.0000   0.0000   0.0000

          k =-0.4167 0.3229 0.0000 (  2450 PWs)   bands (ev):

   -17.0388 -13.9558  -7.6161  -5.0015   0.1304   5.8501   6.8927   7.7041

     occupation numbers 
     1.0000   1.0000   1.0000   1.0000   0.0000   0.0000   0.0000   0.0000

          k =-0.4167 0.3767 0.0000 (  2445 PWs)   bands (ev):

   -16.6586 -14.2592  -8.0436  -4.6702  -0.1817   6.3460   7.6369   8.4347

     occupation numbers 
     1.0000   1.0000   1.0000   1.0000   0.0000   0.0000   0.0000   0.0000

          k =-0.4167 0.4305 0.0000 (  2446 PWs)   bands (ev):

   -16.3543 -14.3383  -8.6796  -4.3743  -0.3690   7.1052   8.4715   8.9001

     occupation numbers 
     1.0000   1.0000   1.0000   1.0000   0.0000   0.0000   0.0000   0.0000

          k =-0.4167 0.4843 0.0000 (  2444 PWs)   bands (ev):

   -16.2100 -14.1141  -9.4457  -4.1460  -0.4256   7.8840   8.6428   9.0601

     occupation numbers 
     1.0000   1.0000   1.0000   1.0000   0.0000   0.0000   0.0000   0.0000

          k =-0.4167 0.5381 0.0000 (  2436 PWs)   bands (ev):

   -16.1990 -13.6266 -10.2682  -3.9991  -0.3821   7.9968   8.6326   9.0709

     occupation numbers 
     1.0000   1.0000   1.0000   1.0000   0.0000   0.0000   0.0000   0.0000

          k =-0.4167 0.5919 0.0000 (  2424 PWs)   bands (ev):

   -16.2289 -13.0111 -11.0634  -3.9238  -0.3060   7.8794   8.3167   9.1081

     occupation numbers 
     1.0000   1.0000   1.0000   1.0000   0.0000   0.0000   0.0000   0.0000

          k =-0.4167 0.6457 0.0000 (  2417 PWs)   bands (ev):

   -16.2440 -12.5963 -11.5353  -3.9014  -0.2702   7.8323   8.1994   9.0687

     occupation numbers 
     1.0000   1.0000   1.0000   1.0000   0.0000   0.0000   0.0000   0.0000

          k =-0.4167 0.6996 0.0000 (  2424 PWs)   bands (ev):

   -16.2289 -13.0111 -11.0633  -3.9238  -0.3060   7.8794   8.3167   9.1081

     occupation numbers 
     1.0000   1.0000   1.0000   1.0000   0.0000   0.0000   0.0000   0.0000

          k =-0.4167 0.7534 0.0000 (  2436 PWs)   bands (ev):

   -16.1990 -13.6267 -10.2681  -3.9991  -0.3821   7.9968   8.6327   9.0707

     occupation numbers 
     1.0000   1.0000   1.0000   1.0000   0.0000   0.0000   0.0000   0.0000

          k =-0.4167 0.8072 0.0000 (  2444 PWs)   bands (ev):

   -16.2100 -14.1141  -9.4456  -4.1460  -0.4256   7.8840   8.6428   9.0602

     occupation numbers 
     1.0000   1.0000   1.0000   1.0000   0.0000   0.0000   0.0000   0.0000

          k =-0.4167 0.8610 0.0000 (  2446 PWs)   bands (ev):

   -16.3544 -14.3383  -8.6795  -4.3743  -0.3690   7.1052   8.4714   8.9003

     occupation numbers 
     1.0000   1.0000   1.0000   1.0000   0.0000   0.0000   0.0000   0.0000

          k =-0.4167-0.3767 0.0000 (  2445 PWs)   bands (ev):

   -16.6587 -14.2592  -8.0435  -4.6702  -0.1817   6.3461   7.6369   8.4348

     occupation numbers 
     1.0000   1.0000   1.0000   1.0000   0.0000   0.0000   0.0000   0.0000

          k =-0.4167-0.3229 0.0000 (  2450 PWs)   bands (ev):

   -17.0388 -13.9558  -7.6159  -5.0015   0.1303   5.8501   6.8927   7.7042

     occupation numbers 
     1.0000   1.0000   1.0000   1.0000   0.0000   0.0000   0.0000   0.0000

          k =-0.4167-0.2691 0.0000 (  2449 PWs)   bands (ev):

   -17.4149 -13.5068  -7.4612  -5.3327   0.5414   5.6990   6.2716   7.0658

     occupation numbers 
     1.0000   1.0000   1.0000   1.0000   0.0000   0.0000   0.0000   0.0000

          k =-0.4167-0.2152 0.0000 (  2439 PWs)   bands (ev):

   -17.7467 -12.9553  -7.5990  -5.6347   1.0153   5.6504   6.0349   6.5329

     occupation numbers 
     1.0000   1.0000   1.0000   1.0000   0.0000   0.0000   0.0000   0.0000

          k =-0.4167-0.1614 0.0000 (  2440 PWs)   bands (ev):

   -18.0154 -12.3266  -7.9916  -5.8868   1.5062   5.2852   6.1095   6.3119

     occupation numbers 
     1.0000   1.0000   1.0000   1.0000   0.0000   0.0000   0.0000   0.0000

          k =-0.4167-0.1076 0.0000 (  2438 PWs)   bands (ev):

   -18.2119 -11.6437  -8.5632  -6.0751   1.9529   4.9992   5.7980   6.0659

     occupation numbers 
     1.0000   1.0000   1.0000   1.0000   0.0000   0.0000   0.0000   0.0000

          k =-0.4167-0.0538 0.0000 (  2436 PWs)   bands (ev):

   -18.3313 -10.9478  -9.2172  -6.1914   2.2768   4.8255   5.6036   5.8936

     occupation numbers 
     1.0000   1.0000   1.0000   1.0000   0.0000   0.0000   0.0000   0.0000

          k =-0.4167-0.0000 0.0000 (  2431 PWs)   bands (ev):

   -18.3714 -10.4896  -9.6659  -6.2306   2.3971   4.7675   5.5366   5.8355

     occupation numbers 
     1.0000   1.0000   1.0000   1.0000   0.0000   0.0000   0.0000   0.0000

          k =-0.4167 0.0538 0.0000 (  2436 PWs)   bands (ev):

   -18.3313 -10.9477  -9.2174  -6.1914   2.2768   4.8255   5.6036   5.8936

     occupation numbers 
     1.0000   1.0000   1.0000   1.0000   0.0000   0.0000   0.0000   0.0000

          k =-0.4167 0.1076 0.0000 (  2438 PWs)   bands (ev):

   -18.2119 -11.6436  -8.5634  -6.0751   1.9529   4.9992   5.7980   6.0659

     occupation numbers 
     1.0000   1.0000   1.0000   1.0000   0.0000   0.0000   0.0000   0.0000

          k =-0.4167 0.1614 0.0000 (  2440 PWs)   bands (ev):

   -18.0154 -12.3265  -7.9918  -5.8868   1.5063   5.2852   6.1097   6.3124

     occupation numbers 
     1.0000   1.0000   1.0000   1.0000   0.0000   0.0000   0.0000   0.0000

          k =-0.4167 0.2152 0.0000 (  2439 PWs)   bands (ev):

   -17.7467 -12.9552  -7.5992  -5.6347   1.0154   5.6504   6.0349   6.5331

     occupation numbers 
     1.0000   1.0000   1.0000   1.0000   0.0000   0.0000   0.0000   0.0000

          k =-0.3750 0.2422 0.0000 (  2436 PWs)   bands (ev):

   -18.0167 -12.6156  -7.3083  -5.9075   1.3944   5.2787   5.8035   6.1240

     occupation numbers 
     1.0000   1.0000   1.0000   1.0000   0.0000   0.0000   0.0000   0.0000

          k =-0.3750 0.2960 0.0000 (  2436 PWs)   bands (ev):

   -17.6308 -13.1472  -7.4655  -5.5228   0.8688   5.7995   5.9852   6.7081

     occupation numbers 
     1.0000   1.0000   1.0000   1.0000   0.0000   0.0000   0.0000   0.0000

          k =-0.3750 0.3498 0.0000 (  2443 PWs)   bands (ev):

   -17.1887 -13.5883  -7.8981  -5.0915   0.3893   6.3448   6.6073   7.3958

     occupation numbers 
     1.0000   1.0000   1.0000   1.0000   0.0000   0.0000   0.0000   0.0000

          k =-0.3750 0.4036 0.0000 (  2445 PWs)   bands (ev):

   -16.7156 -13.9127  -8.5439  -4.6363  -0.0234   7.1018   7.4032   8.1666

     occupation numbers 
     1.0000   1.0000   1.0000   1.0000   0.0000   0.0000   0.0000   0.0000

          k =-0.3750 0.4574 0.0000 (  2444 PWs)   bands (ev):

   -16.2650 -14.0703  -9.3253  -4.1892  -0.3549   7.9407   8.3131   8.9083

     occupation numbers 
     1.0000   1.0000   1.0000   1.0000   0.0000   0.0000   0.0000   0.0000

          k =-0.3750 0.5112 0.0000 (  2438 PWs)   bands (ev):

   -15.9298 -13.9784 -10.1689  -3.7923  -0.5966   8.3681   9.0221   9.3281

     occupation numbers 
     1.0000   1.0000   1.0000   1.0000   0.0000   0.0000   0.0000   0.0000

          k =-0.3750 0.5650 0.0000 (  2431 PWs)   bands (ev):

   -15.7684 -13.6066 -11.0022  -3.4930  -0.7478   8.3401   8.6603   9.8971

     occupation numbers 
     1.0000   1.0000   1.0000   1.0000   0.0000   0.0000   0.0000   0.0000

          k =-0.3750 0.6188 0.0000 (  2423 PWs)   bands (ev):

   -15.7218 -13.1283 -11.6834  -3.3323  -0.8173   8.2788   8.4145   9.8724

     occupation numbers 
     1.0000   1.0000   1.0000   1.0000   0.0000   0.0000   0.0000   0.0000

          k =-0.3750 0.6726 0.0000 (  2423 PWs)   bands (ev):

   -15.7218 -13.1283 -11.6834  -3.3323  -0.8173   8.2788   8.4145   9.8726

     occupation numbers 
     1.0000   1.0000   1.0000   1.0000   0.0000   0.0000   0.0000   0.0000

          k =-0.3750 0.7265 0.0000 (  2431 PWs)   bands (ev):

   -15.7685 -13.6067 -11.0021  -3.4930  -0.7479   8.3400   8.6604   9.8971

     occupation numbers 
     1.0000   1.0000   1.0000   1.0000   0.0000   0.0000   0.0000   0.0000

          k =-0.3750 0.7803 0.0000 (  2438 PWs)   bands (ev):

   -15.9299 -13.9784 -10.1688  -3.7922  -0.5967   8.3681   9.0222   9.3281

     occupation numbers 
     1.0000   1.0000   1.0000   1.0000   0.0000   0.0000   0.0000   0.0000

          k =-0.3750 0.8341 0.0000 (  2444 PWs)   bands (ev):

   -16.2651 -14.0704  -9.3252  -4.1892  -0.3549   7.9407   8.3131   8.9086

     occupation numbers 
     1.0000   1.0000   1.0000   1.0000   0.0000   0.0000   0.0000   0.0000

          k =-0.3750-0.4036 0.0000 (  2445 PWs)   bands (ev):

   -16.7157 -13.9128  -8.5438  -4.6363  -0.0234   7.1019   7.4032   8.1667

     occupation numbers 
     1.0000   1.0000   1.0000   1.0000   0.0000   0.0000   0.0000   0.0000

          k =-0.3750-0.3498 0.0000 (  2443 PWs)   bands (ev):

   -17.1887 -13.5884  -7.8979  -5.0915   0.3893   6.3449   6.6073   7.3961

     occupation numbers 
     1.0000   1.0000   1.0000   1.0000   0.0000   0.0000   0.0000   0.0000

          k =-0.3750-0.2960 0.0000 (  2436 PWs)   bands (ev):

   -17.6308 -13.1473  -7.4653  -5.5228   0.8687   5.7995   5.9852   6.7082

     occupation numbers 
     1.0000   1.0000   1.0000   1.0000   0.0000   0.0000   0.0000   0.0000

          k =-0.3750-0.2422 0.0000 (  2436 PWs)   bands (ev):

   -18.0168 -12.6157  -7.3081  -5.9075   1.3944   5.2787   5.8036   6.1240

     occupation numbers 
     1.0000   1.0000   1.0000   1.0000   0.0000   0.0000   0.0000   0.0000

          k =-0.3750-0.1883 0.0000 (  2438 PWs)   bands (ev):

   -18.3341 -12.0111  -7.4414  -6.2298   1.9359   4.8211   5.6497   5.8410

     occupation numbers 
     1.0000   1.0000   1.0000   1.0000   0.0000   0.0000   0.0000   0.0000

          k =-0.3750-0.1345 0.0000 (  2438 PWs)   bands (ev):

   -18.5763 -11.3505  -7.8228  -6.4793   2.4488   4.4728   5.2856   5.5300

     occupation numbers 
     1.0000   1.0000   1.0000   1.0000   0.0000   0.0000   0.0000   0.0000

          k =-0.3750-0.0807 0.0000 (  2433 PWs)   bands (ev):

   -18.7394 -10.6601  -8.3711  -6.6491   2.8687   4.2395   5.0342   5.2985

     occupation numbers 
     1.0000   1.0000   1.0000   1.0000   0.0000   0.0000   0.0000   0.0000

          k =-0.3750-0.0269 0.0000 (  2431 PWs)   bands (ev):

   -18.8214 -10.0223  -8.9520  -6.7350   3.1138   4.1226   4.9021   5.1815

     occupation numbers 
     1.0000   1.0000   1.0000   1.0000   0.0000   0.0000   0.0000   0.0000

          k =-0.3750 0.0269 0.0000 (  2431 PWs)   bands (ev):

   -18.8214 -10.0223  -8.9521  -6.7350   3.1138   4.1226   4.9021   5.1815

     occupation numbers 
     1.0000   1.0000   1.0000   1.0000   0.0000   0.0000   0.0000   0.0000

          k =-0.3750 0.0807 0.0000 (  2433 PWs)   bands (ev):

   -18.7394 -10.6600  -8.3712  -6.6491   2.8687   4.2395   5.0342   5.2985

     occupation numbers 
     1.0000   1.0000   1.0000   1.0000   0.0000   0.0000   0.0000   0.0000

          k =-0.3750 0.1345 0.0000 (  2438 PWs)   bands (ev):

   -18.5762 -11.3504  -7.8230  -6.4793   2.4488   4.4728   5.2857   5.5300

     occupation numbers 
     1.0000   1.0000   1.0000   1.0000   0.0000   0.0000   0.0000   0.0000

          k =-0.3750 0.1883 0.0000 (  2438 PWs)   bands (ev):

   -18.3341 -12.0110  -7.4416  -6.2298   1.9360   4.8211   5.6497   5.8406

     occupation numbers 
     1.0000   1.0000   1.0000   1.0000   0.0000   0.0000   0.0000   0.0000

          k =-0.3333 0.2152 0.0000 (  2431 PWs)   bands (ev):

   -18.5896 -11.6454  -7.1003  -6.5026   2.3593   4.4547   5.2815   5.4966

     occupation numbers 
     1.0000   1.0000   1.0000   1.0000   0.0000   0.0000   0.0000   0.0000

          k =-0.3333 0.2691 0.0000 (  2433 PWs)   bands (ev):

   -18.2253 -12.2255  -7.2586  -6.1140   1.7774   4.9843   5.8076   5.9157

     occupation numbers 
     1.0000   1.0000   1.0000   1.0000   0.0000   0.0000   0.0000   0.0000

          k =-0.3333 0.3229 0.0000 (  2437 PWs)   bands (ev):

   -17.7892 -12.7360  -7.6934  -5.6548   1.2050   5.6319   6.3938   6.4427

     occupation numbers 
     1.0000   1.0000   1.0000   1.0000   0.0000   0.0000   0.0000   0.0000

          k =-0.3333 0.3767 0.0000 (  2441 PWs)   bands (ev):

   -17.2902 -13.1650  -8.3457  -5.1366   0.6594   6.3933   7.1211   7.1787

     occupation numbers 
     1.0000   1.0000   1.0000   1.0000   0.0000   0.0000   0.0000   0.0000

          k =-0.3333 0.4305 0.0000 (  2440 PWs)   bands (ev):

   -16.7447 -13.4978  -9.1377  -4.5764   0.1478   7.2623   7.9171   7.9838

     occupation numbers 
     1.0000   1.0000   1.0000   1.0000   0.0000   0.0000   0.0000   0.0000

          k =-0.3333 0.4843 0.0000 (  2430 PWs)   bands (ev):

   -16.1873 -13.7092  -9.9946  -3.9978  -0.3299   8.1537   8.3021   8.6944

     occupation numbers 
     1.0000   1.0000   1.0000   1.0000   0.0000   0.0000   0.0000   0.0000

          k =-0.3333 0.5381 0.0000 (  2436 PWs)   bands (ev):

   -15.6906 -13.7501 -10.8453  -3.4377  -0.7726   8.1293   8.7817   9.3134

     occupation numbers 
     1.0000   1.0000   1.0000   1.0000   0.0000   0.0000   0.0000   0.0000

          k =-0.3333 0.5919 0.0000 (  2423 PWs)   bands (ev):

   -15.3669 -13.5795 -11.5876  -2.9657  -1.1508   8.0409   8.5317  10.4217

     occupation numbers 
     1.0000   1.0000   1.0000   1.0003   0.0000   0.0000   0.0000   0.0000

          k =-0.3333 0.6457 0.0000 (  2431 PWs)   bands (ev):

   -15.2651 -13.4059 -11.9475  -2.7520  -1.3288   8.0075   8.4187  10.7403

     occupation numbers 
     1.0000   1.0000   1.0000   1.0078   0.0000   0.0000   0.0000   0.0000

          k =-0.3333 0.6996 0.0000 (  2423 PWs)   bands (ev):

   -15.3669 -13.5795 -11.5876  -2.9657  -1.1508   8.0409   8.5318  10.4214

     occupation numbers 
     1.0000   1.0000   1.0000   1.0003   0.0000   0.0000   0.0000   0.0000

          k =-0.3333 0.7534 0.0000 (  2436 PWs)   bands (ev):

   -15.6907 -13.7501 -10.8452  -3.4377  -0.7726   8.1293   8.7817   9.3133

     occupation numbers 
     1.0000   1.0000   1.0000   1.0000   0.0000   0.0000   0.0000   0.0000

          k =-0.3333 0.8072 0.0000 (  2430 PWs)   bands (ev):

   -16.1873 -13.7092  -9.9945  -3.9978  -0.3299   8.1537   8.3021   8.6944

     occupation numbers 
     1.0000   1.0000   1.0000   1.0000   0.0000   0.0000   0.0000   0.0000

          k =-0.3333-0.4305 0.0000 (  2440 PWs)   bands (ev):

   -16.7448 -13.4979  -9.1375  -4.5764   0.1478   7.2623   7.9171   7.9838

     occupation numbers 
     1.0000   1.0000   1.0000   1.0000   0.0000   0.0000   0.0000   0.0000

          k =-0.3333-0.3767 0.0000 (  2441 PWs)   bands (ev):

   -17.2902 -13.1650  -8.3456  -5.1366   0.6594   6.3933   7.1211   7.1787

     occupation numbers 
     1.0000   1.0000   1.0000   1.0000   0.0000   0.0000   0.0000   0.0000

          k =-0.3333-0.3229 0.0000 (  2437 PWs)   bands (ev):

   -17.7893 -12.7360  -7.6933  -5.6548   1.2049   5.6318   6.3939   6.4428

     occupation numbers 
     1.0000   1.0000   1.0000   1.0000   0.0000   0.0000   0.0000   0.0000

          k =-0.3333-0.2691 0.0000 (  2433 PWs)   bands (ev):

   -18.2254 -12.2256  -7.2584  -6.1140   1.7773   4.9843   5.8073   5.9154

     occupation numbers 
     1.0000   1.0000   1.0000   1.0000   0.0000   0.0000   0.0000   0.0000

          k =-0.3333-0.2152 0.0000 (  2431 PWs)   bands (ev):

   -18.5896 -11.6455  -7.1001  -6.5026   2.3592   4.4547   5.2815   5.4966

     occupation numbers 
     1.0000   1.0000   1.0000   1.0000   0.0000   0.0000   0.0000   0.0000

          k =-0.3333-0.1614 0.0000 (  2430 PWs)   bands (ev):

   -18.8768 -11.0092  -7.2290  -6.8121   2.9196   4.0433   4.8683   5.0950

     occupation numbers 
     1.0000   1.0000   1.0000   1.0000   0.0000   0.0000   0.0000   0.0000

          k =-0.3333-0.1076 0.0000 (  2436 PWs)   bands (ev):

   -19.0837 -10.3361  -7.5980  -7.0368   3.4108   3.7496   4.5662   4.8022

     occupation numbers 
     1.0000   1.0000   1.0000   1.0000   0.0000   0.0000   0.0000   0.0000

          k =-0.3333-0.0538 0.0000 (  2431 PWs)   bands (ev):

   -19.2086  -9.6662  -8.1144  -7.1730   3.5734   3.7685   4.3721   4.6257

     occupation numbers 
     1.0000   1.0000   1.0000   1.0000   0.0000   0.0000   0.0000   0.0000

          k =-0.3333 0.0000 0.0000 (  2429 PWs)   bands (ev):

   -19.2503  -9.2328  -8.5020  -7.2186   3.5147   3.9114   4.2952   4.5668

     occupation numbers 
     1.0000   1.0000   1.0000   1.0000   0.0000   0.0000   0.0000   0.0000

          k =-0.3333 0.0538 0.0000 (  2431 PWs)   bands (ev):

   -19.2086  -9.6661  -8.1146  -7.1730   3.5734   3.7685   4.3721   4.6257

     occupation numbers 
     1.0000   1.0000   1.0000   1.0000   0.0000   0.0000   0.0000   0.0000

          k =-0.3333 0.1076 0.0000 (  2436 PWs)   bands (ev):

   -19.0837 -10.3360  -7.5981  -7.0368   3.4108   3.7496   4.5662   4.8023

     occupation numbers 
     1.0000   1.0000   1.0000   1.0000   0.0000   0.0000   0.0000   0.0000

          k =-0.3333 0.1614 0.0000 (  2430 PWs)   bands (ev):

   -18.8767 -11.0091  -7.2291  -6.8121   2.9196   4.0433   4.8680   5.0949

     occupation numbers 
     1.0000   1.0000   1.0000   1.0000   0.0000   0.0000   0.0000   0.0000

          k =-0.2917 0.1883 0.0000 (  2432 PWs)   bands (ev):

   -19.1106 -10.6280  -7.0696  -6.8441   3.3545   3.7125   4.5537   4.7619

     occupation numbers 
     1.0000   1.0000   1.0000   1.0000   0.0000   0.0000   0.0000   0.0000

          k =-0.2917 0.2422 0.0000 (  2431 PWs)   bands (ev):

   -18.7789 -11.2413  -7.0016  -6.7017   2.7637   4.1848   5.0087   5.2376

     occupation numbers 
     1.0000   1.0000   1.0000   1.0000   0.0000   0.0000   0.0000   0.0000

          k =-0.2917 0.2960 0.0000 (  2427 PWs)   bands (ev):

   -18.3691 -11.7994  -7.4357  -6.2508   2.1437   4.7742   5.5844   5.8323

     occupation numbers 
     1.0000   1.0000   1.0000   1.0000   0.0000   0.0000   0.0000   0.0000

          k =-0.2917 0.3498 0.0000 (  2431 PWs)   bands (ev):

   -17.8855 -12.2928  -8.0898  -5.7238   1.5202   5.4784   6.2711   6.5461

     occupation numbers 
     1.0000   1.0000   1.0000   1.0000   0.0000   0.0000   0.0000   0.0000

          k =-0.2917 0.4036 0.0000 (  2445 PWs)   bands (ev):

   -17.3348 -12.7155  -8.8864  -5.1304   0.9017   6.2951   7.0543   7.3745

     occupation numbers 
     1.0000   1.0000   1.0000   1.0000   0.0000   0.0000   0.0000   0.0000

          k =-0.2917 0.4574 0.0000 (  2438 PWs)   bands (ev):

   -16.7290 -13.0651  -9.7478  -4.4830   0.2865   7.2177   7.6427   7.8884

     occupation numbers 
     1.0000   1.0000   1.0000   1.0000   0.0000   0.0000   0.0000   0.0000

          k =-0.2917 0.5112 0.0000 (  2436 PWs)   bands (ev):

   -16.0910 -13.3437 -10.5987  -3.7982  -0.3342   7.4445   8.2577   8.5552

     occupation numbers 
     1.0000   1.0000   1.0000   1.0000   0.0000   0.0000   0.0000   0.0000

          k =-0.2917 0.5650 0.0000 (  2425 PWs)   bands (ev):

   -15.4733 -13.5611 -11.3431  -3.0979  -0.9681   7.3056   8.6326   9.3733

     occupation numbers 
     1.0000   1.0000   1.0000   1.0000   0.0000   0.0000   0.0000   0.0000

          k =-0.2917 0.6188 0.0000 (  2443 PWs)   bands (ev):

   -15.0186 -13.7179 -11.8181  -2.4308  -1.5939   7.2328   8.5034  10.5241

     occupation numbers 
     1.0000   1.0000   1.0000   1.0833   0.0018   0.0000   0.0000   0.0000

          k =-0.2917 0.6726 0.0000 (  2443 PWs)   bands (ev):

   -15.0186 -13.7179 -11.8181  -2.4308  -1.5940   7.2328   8.5034  10.5242

     occupation numbers 
     1.0000   1.0000   1.0000   1.0833   0.0018   0.0000   0.0000   0.0000

          k =-0.2917 0.7265 0.0000 (  2425 PWs)   bands (ev):

   -15.4734 -13.5611 -11.3430  -3.0978  -0.9682   7.3056   8.6326   9.3734

     occupation numbers 
     1.0000   1.0000   1.0000   1.0000   0.0000   0.0000   0.0000   0.0000

          k =-0.2917 0.7803 0.0000 (  2436 PWs)   bands (ev):

   -16.0910 -13.3437 -10.5986  -3.7982  -0.3342   7.4446   8.2577   8.5552

     occupation numbers 
     1.0000   1.0000   1.0000   1.0000   0.0000   0.0000   0.0000   0.0000

          k =-0.2917-0.4574 0.0000 (  2438 PWs)   bands (ev):

   -16.7290 -13.0651  -9.7477  -4.4830   0.2865   7.2176   7.6427   7.8883

     occupation numbers 
     1.0000   1.0000   1.0000   1.0000   0.0000   0.0000   0.0000   0.0000

          k =-0.2917-0.4036 0.0000 (  2445 PWs)   bands (ev):

   -17.3349 -12.7156  -8.8862  -5.1303   0.9017   6.2951   7.0542   7.3745

     occupation numbers 
     1.0000   1.0000   1.0000   1.0000   0.0000   0.0000   0.0000   0.0000

          k =-0.2917-0.3498 0.0000 (  2431 PWs)   bands (ev):

   -17.8855 -12.2928  -8.0897  -5.7238   1.5202   5.4785   6.5444   7.1578

     occupation numbers 
     1.0000   1.0000   1.0000   1.0000   0.0000   0.0000   0.0000   0.0000

          k =-0.2917-0.2960 0.0000 (  2427 PWs)   bands (ev):

   -18.3691 -11.7994  -7.4356  -6.2508   2.1436   4.7742   5.5845   5.8324

     occupation numbers 
     1.0000   1.0000   1.0000   1.0000   0.0000   0.0000   0.0000   0.0000

          k =-0.2917-0.2422 0.0000 (  2431 PWs)   bands (ev):

   -18.7789 -11.2413  -7.0015  -6.7017   2.7637   4.1848   5.0086   5.2369

     occupation numbers 
     1.0000   1.0000   1.0000   1.0000   0.0000   0.0000   0.0000   0.0000

          k =-0.2917-0.1883 0.0000 (  2432 PWs)   bands (ev):

   -19.1106 -10.6281  -7.0696  -6.8439   3.3545   3.7125   4.5537   4.7619

     occupation numbers 
     1.0000   1.0000   1.0000   1.0000   0.0000   0.0000   0.0000   0.0000

          k =-0.2917-0.1345 0.0000 (  2439 PWs)   bands (ev):

   -19.3614  -9.9751  -7.3495  -6.9689   3.3582   3.8347   4.2670   4.4064

     occupation numbers 
     1.0000   1.0000   1.0000   1.0000   0.0000   0.0000   0.0000   0.0000

          k =-0.2917-0.0807 0.0000 (  2427 PWs)   bands (ev):

   -19.5294  -9.3090  -7.5378  -7.3231   3.1222   3.8752   4.1697   4.4246

     occupation numbers 
     1.0000   1.0000   1.0000   1.0000   0.0000   0.0000   0.0000   0.0000

          k =-0.2917-0.0269 0.0000 (  2421 PWs)   bands (ev):

   -19.6137  -8.7093  -7.7825  -7.6324   3.0042   3.7841   4.0514   4.6470

     occupation numbers 
     1.0000   1.0000   1.0000   1.0000   0.0000   0.0000   0.0000   0.0000

          k =-0.2917 0.0269 0.0000 (  2421 PWs)   bands (ev):

   -19.6137  -8.7092  -7.7826  -7.6325   3.0042   3.7840   4.0513   4.6470

     occupation numbers 
     1.0000   1.0000   1.0000   1.0000   0.0000   0.0000   0.0000   0.0000

          k =-0.2917 0.0807 0.0000 (  2427 PWs)   bands (ev):

   -19.5294  -9.3089  -7.5378  -7.3233   3.1222   3.8752   4.1698   4.4246

     occupation numbers 
     1.0000   1.0000   1.0000   1.0000   0.0000   0.0000   0.0000   0.0000

          k =-0.2917 0.1345 0.0000 (  2439 PWs)   bands (ev):

   -19.3613  -9.9750  -7.3495  -6.9691   3.3582   3.8348   4.2671   4.4064

     occupation numbers 
     1.0000   1.0000   1.0000   1.0000   0.0000   0.0000   0.0000   0.0000

          k =-0.2500 0.1614 0.0000 (  2427 PWs)   bands (ev):

   -19.5702  -9.5863  -7.5838  -6.5496   3.0661   3.7908   4.1117   4.4774

     occupation numbers 
     1.0000   1.0000   1.0000   1.0000   0.0000   0.0000   0.0000   0.0000

          k =-0.2500 0.2152 0.0000 (  2424 PWs)   bands (ev):

   -19.2758 -10.2208  -7.2492  -6.7048   3.4800   3.7211   4.3612   4.5284

     occupation numbers 
     1.0000   1.0000   1.0000   1.0000   0.0000   0.0000   0.0000   0.0000

          k =-0.2500 0.2691 0.0000 (  2436 PWs)   bands (ev):

   -18.9002 -10.8156  -7.1345  -6.8248   3.1270   4.0111   4.8307   5.0640

     occupation numbers 
     1.0000   1.0000   1.0000   1.0000   0.0000   0.0000   0.0000   0.0000

          k =-0.2500 0.3229 0.0000 (  2433 PWs)   bands (ev):

   -18.4458 -11.3599  -7.7846  -6.3151   2.4616   4.6581   5.4562   5.7172

     occupation numbers 
     1.0000   1.0000   1.0000   1.0000   0.0000   0.0000   0.0000   0.0000

          k =-0.2500 0.3767 0.0000 (  2440 PWs)   bands (ev):

   -17.9164 -11.8500  -8.5776  -5.7266   1.7736   5.4195   6.1947   6.4868

     occupation numbers 
     1.0000   1.0000   1.0000   1.0000   0.0000   0.0000   0.0000   0.0000

          k =-0.2500 0.4305 0.0000 (  2431 PWs)   bands (ev):

   -17.3176 -12.2915  -9.4319  -5.0681   1.0696   6.2927   6.8012   7.0256

     occupation numbers 
     1.0000   1.0000   1.0000   1.0000   0.0000   0.0000   0.0000   0.0000

          k =-0.2500 0.4843 0.0000 (  2432 PWs)   bands (ev):

   -16.6585 -12.7061 -10.2645  -4.3511   0.3463   6.5546   7.2800   7.8894

     occupation numbers 
     1.0000   1.0000   1.0000   1.0000   0.0000   0.0000   0.0000   0.0000

          k =-0.2500 0.5381 0.0000 (  2426 PWs)   bands (ev):

   -15.9557 -13.1414 -10.9744  -3.5905  -0.4003   6.3754   8.3653   8.5367

     occupation numbers 
     1.0000   1.0000   1.0000   1.0000   0.0000   0.0000   0.0000   0.0000

          k =-0.2500 0.5919 0.0000 (  2433 PWs)   bands (ev):

   -15.2503 -13.6497 -11.4454  -2.8081  -1.1661   6.2657   8.6605   9.5343

     occupation numbers 
     1.0000   1.0000   1.0000   1.0036   0.0000   0.0000   0.0000   0.0000

          k =-0.2500 0.6457 0.0000 (  2439 PWs)   bands (ev):

   -14.7917 -14.0404 -11.6060  -2.1695  -1.7980   6.2288   8.6341  10.7273

     occupation numbers 
     1.0000   1.0000   1.0000   0.7258   0.0385   0.0000   0.0000   0.0000

          k =-0.2500 0.6996 0.0000 (  2433 PWs)   bands (ev):

   -15.2504 -13.6496 -11.4454  -2.8081  -1.1662   6.2658   8.6605   9.5343

     occupation numbers 
     1.0000   1.0000   1.0000   1.0036   0.0000   0.0000   0.0000   0.0000

          k =-0.2500 0.7534 0.0000 (  2426 PWs)   bands (ev):

   -15.9557 -13.1414 -10.9743  -3.5905  -0.4003   6.3755   8.3653   8.5367

     occupation numbers 
     1.0000   1.0000   1.0000   1.0000   0.0000   0.0000   0.0000   0.0000

          k =-0.2500-0.4843 0.0000 (  2432 PWs)   bands (ev):

   -16.6586 -12.7061 -10.2644  -4.3511   0.3462   6.5546   7.2800   7.8894

     occupation numbers 
     1.0000   1.0000   1.0000   1.0000   0.0000   0.0000   0.0000   0.0000

          k =-0.2500-0.4305 0.0000 (  2431 PWs)   bands (ev):

   -17.3177 -12.2916  -9.4318  -5.0681   1.0696   6.2927   6.8013   7.0256

     occupation numbers 
     1.0000   1.0000   1.0000   1.0000   0.0000   0.0000   0.0000   0.0000

          k =-0.2500-0.3767 0.0000 (  2440 PWs)   bands (ev):

   -17.9164 -11.8501  -8.5775  -5.7266   1.7735   5.4195   6.1949   6.4869

     occupation numbers 
     1.0000   1.0000   1.0000   1.0000   0.0000   0.0000   0.0000   0.0000

          k =-0.2500-0.3229 0.0000 (  2433 PWs)   bands (ev):

   -18.4458 -11.3600  -7.7845  -6.3151   2.4616   4.6581   5.4561   5.7173

     occupation numbers 
     1.0000   1.0000   1.0000   1.0000   0.0000   0.0000   0.0000   0.0000

          k =-0.2500-0.2691 0.0000 (  2436 PWs)   bands (ev):

   -18.9002 -10.8157  -7.1343  -6.8247   3.1270   4.0111   4.8307   5.0640

     occupation numbers 
     1.0000   1.0000   1.0000   1.0000   0.0000   0.0000   0.0000   0.0000

          k =-0.2500-0.2152 0.0000 (  2424 PWs)   bands (ev):

   -19.2758 -10.2209  -7.2492  -6.7046   3.4801   3.7211   4.3613   4.5286

     occupation numbers 
     1.0000   1.0000   1.0000   1.0000   0.0000   0.0000   0.0000   0.0000

          k =-0.2500-0.1614 0.0000 (  2427 PWs)   bands (ev):

   -19.5702  -9.5864  -7.5838  -6.5494   3.0661   3.7908   4.1118   4.4773

     occupation numbers 
     1.0000   1.0000   1.0000   1.0000   0.0000   0.0000   0.0000   0.0000

          k =-0.2500-0.1076 0.0000 (  2419 PWs)   bands (ev):

   -19.7816  -8.9329  -7.8249  -6.6706   2.7702   3.5390   3.8143   4.9354

     occupation numbers 
     1.0000   1.0000   1.0000   1.0000   0.0000   0.0000   0.0000   0.0000

          k =-0.2500-0.0538 0.0000 (  2421 PWs)   bands (ev):

   -19.9089  -8.3018  -7.9705  -7.0055   2.5927   3.3718   3.6361   5.2778

     occupation numbers 
     1.0000   1.0000   1.0000   1.0000   0.0000   0.0000   0.0000   0.0000

          k =-0.2500 0.0000 0.0000 (  2411 PWs)   bands (ev):

   -19.9514  -8.0191  -7.9019  -7.3117   2.5336   3.3150   3.5767   5.4300

     occupation numbers 
     1.0000   1.0000   1.0000   1.0000   0.0000   0.0000   0.0000   0.0000

          k =-0.2500 0.0538 0.0000 (  2421 PWs)   bands (ev):

   -19.9089  -8.3016  -7.9705  -7.0056   2.5927   3.3718   3.6361   5.2784

     occupation numbers 
     1.0000   1.0000   1.0000   1.0000   0.0000   0.0000   0.0000   0.0000

          k =-0.2500 0.1076 0.0000 (  2419 PWs)   bands (ev):

   -19.7816  -8.9327  -7.8249  -6.6708   2.7702   3.5390   3.8143   4.9355

     occupation numbers 
     1.0000   1.0000   1.0000   1.0000   0.0000   0.0000   0.0000   0.0000

          k =-0.2083 0.1345 0.0000 (  2423 PWs)   bands (ev):

   -19.9637  -8.5456  -8.0316  -6.2313   2.5180   3.2891   3.5600   5.2853

     occupation numbers 
     1.0000   1.0000   1.0000   1.0000   0.0000   0.0000   0.0000   0.0000

          k =-0.2083 0.1883 0.0000 (  2429 PWs)   bands (ev):

   -19.7090  -9.1872  -7.7376  -6.3819   2.8732   3.6264   3.9174   4.8297

     occupation numbers 
     1.0000   1.0000   1.0000   1.0000   0.0000   0.0000   0.0000   0.0000

          k =-0.2083 0.2422 0.0000 (  2434 PWs)   bands (ev):

   -19.3712  -9.8094  -7.3493  -6.8028   3.3457   3.9383   4.3460   4.3932

     occupation numbers 
     1.0000   1.0000   1.0000   1.0000   0.0000   0.0000   0.0000   0.0000

          k =-0.2083 0.2960 0.0000 (  2440 PWs)   bands (ev):

   -18.9520 -10.3974  -7.4423  -6.8702   3.4167   3.9347   4.7457   4.9870

     occupation numbers 
     1.0000   1.0000   1.0000   1.0000   0.0000   0.0000   0.0000   0.0000

          k =-0.2083 0.3498 0.0000 (  2429 PWs)   bands (ev):

   -18.4538 -10.9484  -8.2218  -6.3052   2.6884   4.6394   5.4236   5.6978

     occupation numbers 
     1.0000   1.0000   1.0000   1.0000   0.0000   0.0000   0.0000   0.0000

          k =-0.2083 0.4036 0.0000 (  2424 PWs)   bands (ev):

   -17.8801 -11.4739  -9.0548  -5.6612   1.9186   5.4580   5.9059   6.2170

     occupation numbers 
     1.0000   1.0000   1.0000   1.0000   0.0000   0.0000   0.0000   0.0000

          k =-0.2083 0.4574 0.0000 (  2426 PWs)   bands (ev):

   -17.2357 -12.0076  -9.8477  -4.9478   1.1183   5.6267   6.3920   7.0992

     occupation numbers 
     1.0000   1.0000   1.0000   1.0000   0.0000   0.0000   0.0000   0.0000

          k =-0.2083 0.5112 0.0000 (  2426 PWs)   bands (ev):

   -16.5280 -12.6055 -10.4977  -4.1797   0.2941   5.4138   7.4325   8.0031

     occupation numbers 
     1.0000   1.0000   1.0000   1.0000   0.0000   0.0000   0.0000   0.0000

          k =-0.2083 0.5650 0.0000 (  2423 PWs)   bands (ev):

   -15.7702 -13.3050 -10.9290  -3.3838  -0.5347   5.2693   8.5737   8.6775

     occupation numbers 
     1.0000   1.0000   1.0000   1.0000   0.0000   0.0000   0.0000   0.0000

          k =-0.2083 0.6188 0.0000 (  2429 PWs)   bands (ev):

   -15.0050 -14.0555 -11.1338  -2.6620  -1.2720   5.1963   8.8720   9.7932

     occupation numbers 
     1.0000   1.0000   1.0000   1.0222   0.0000   0.0000   0.0000   0.0000

          k =-0.2083 0.6726 0.0000 (  2429 PWs)   bands (ev):

   -15.0050 -14.0555 -11.1338  -2.6620  -1.2720   5.1963   8.8720   9.7931

     occupation numbers 
     1.0000   1.0000   1.0000   1.0222   0.0000   0.0000   0.0000   0.0000

          k =-0.2083 0.7265 0.0000 (  2423 PWs)   bands (ev):

   -15.7702 -13.3050 -10.9289  -3.3838  -0.5347   5.2693   8.5737   8.6775

     occupation numbers 
     1.0000   1.0000   1.0000   1.0000   0.0000   0.0000   0.0000   0.0000

          k =-0.2083-0.5112 0.0000 (  2426 PWs)   bands (ev):

   -16.5280 -12.6055 -10.4977  -4.1797   0.2941   5.4139   7.4325   8.0029

     occupation numbers 
     1.0000   1.0000   1.0000   1.0000   0.0000   0.0000   0.0000   0.0000

          k =-0.2083-0.4574 0.0000 (  2426 PWs)   bands (ev):

   -17.2357 -12.0076  -9.8477  -4.9478   1.1183   5.6268   6.3920   7.0990

     occupation numbers 
     1.0000   1.0000   1.0000   1.0000   0.0000   0.0000   0.0000   0.0000

          k =-0.2083-0.4036 0.0000 (  2424 PWs)   bands (ev):

   -17.8801 -11.4740  -9.0547  -5.6612   1.9185   5.4580   5.9059   6.2172

     occupation numbers 
     1.0000   1.0000   1.0000   1.0000   0.0000   0.0000   0.0000   0.0000

          k =-0.2083-0.3498 0.0000 (  2429 PWs)   bands (ev):

   -18.4539 -10.9485  -8.2217  -6.3052   2.6884   4.6394   5.4236   5.6978

     occupation numbers 
     1.0000   1.0000   1.0000   1.0000   0.0000   0.0000   0.0000   0.0000

          k =-0.2083-0.2960 0.0000 (  2440 PWs)   bands (ev):

   -18.9520 -10.3975  -7.4422  -6.8702   3.4167   3.9347   4.7457   4.9870

     occupation numbers 
     1.0000   1.0000   1.0000   1.0000   0.0000   0.0000   0.0000   0.0000

          k =-0.2083-0.2422 0.0000 (  2434 PWs)   bands (ev):

   -19.3712  -9.8095  -7.3493  -6.8026   3.3457   3.9383   4.3460   4.3932

     occupation numbers 
     1.0000   1.0000   1.0000   1.0000   0.0000   0.0000   0.0000   0.0000

          k =-0.2083-0.1883 0.0000 (  2429 PWs)   bands (ev):

   -19.7090  -9.1873  -7.7376  -6.3817   2.8732   3.6264   3.9174   4.8296

     occupation numbers 
     1.0000   1.0000   1.0000   1.0000   0.0000   0.0000   0.0000   0.0000

          k =-0.2083-0.1345 0.0000 (  2423 PWs)   bands (ev):

   -19.9637  -8.5458  -8.0316  -6.2311   2.5180   3.2892   3.5600   5.2852

     occupation numbers 
     1.0000   1.0000   1.0000   1.0000   0.0000   0.0000   0.0000   0.0000

          k =-0.2083-0.0807 0.0000 (  2426 PWs)   bands (ev):

   -20.1341  -8.2289  -7.9137  -6.3481   2.2809   3.0585   3.3216   5.2580

     occupation numbers 
     1.0000   1.0000   1.0000   1.0000   0.0000   0.0000   0.0000   0.0000

          k =-0.2083-0.0269 0.0000 (  2405 PWs)   bands (ev):

   -20.2195  -8.3278  -7.3647  -6.6485   2.1624   2.9424   3.2025   5.1634

     occupation numbers 
     1.0000   1.0000   1.0000   1.0000   0.0000   0.0000   0.0000   0.0000

          k =-0.2083 0.0269 0.0000 (  2405 PWs)   bands (ev):

   -20.2195  -8.3278  -7.3646  -6.6487   2.1624   2.9424   3.2025   5.1634

     occupation numbers 
     1.0000   1.0000   1.0000   1.0000   0.0000   0.0000   0.0000   0.0000

          k =-0.2083 0.0807 0.0000 (  2426 PWs)   bands (ev):

   -20.1341  -8.2289  -7.9136  -6.3483   2.2809   3.0585   3.3216   5.2580

     occupation numbers 
     1.0000   1.0000   1.0000   1.0000   0.0000   0.0000   0.0000   0.0000

          k =-0.1667 0.1076 0.0000 (  2420 PWs)   bands (ev):

   -20.2882  -8.4051  -7.5395  -5.9079   2.0692   2.8448   3.1082   5.0601

     occupation numbers 
     1.0000   1.0000   1.0000   1.0000   0.0000   0.0000   0.0000   0.0000

          k =-0.1667 0.1614 0.0000 (  2426 PWs)   bands (ev):

   -20.0746  -8.1683  -8.1560  -6.0527   2.3653   3.1367   3.4060   5.3003

     occupation numbers 
     1.0000   1.0000   1.0000   1.0000   0.0000   0.0000   0.0000   0.0000

          k =-0.1667 0.2152 0.0000 (  2422 PWs)   bands (ev):

   -19.7767  -8.8050  -7.8096  -6.4605   2.7789   3.5410   3.8223   5.0998

     occupation numbers 
     1.0000   1.0000   1.0000   1.0000   0.0000   0.0000   0.0000   0.0000

          k =-0.1667 0.2691 0.0000 (  2428 PWs)   bands (ev):

   -19.3958  -9.4300  -7.3687  -7.0817   3.3096   4.0128   4.3567   4.4663

     occupation numbers 
     1.0000   1.0000   1.0000   1.0000   0.0000   0.0000   0.0000   0.0000

          k =-0.1667 0.3229 0.0000 (  2434 PWs)   bands (ev):

   -18.9336 -10.0398  -7.8362  -6.8372   3.5915   3.9566   4.7524   5.0082

     occupation numbers 
     1.0000   1.0000   1.0000   1.0000   0.0000   0.0000   0.0000   0.0000

          k =-0.1667 0.3767 0.0000 (  2416 PWs)   bands (ev):

   -18.3924 -10.6513  -8.6309  -6.2206   2.7778   4.7183   5.0717   5.4905

     occupation numbers 
     1.0000   1.0000   1.0000   1.0000   0.0000   0.0000   0.0000   0.0000

          k =-0.1667 0.4305 0.0000 (  2414 PWs)   bands (ev):

   -17.7756 -11.3063  -9.3640  -5.5273   1.9148   4.7613   5.5979   6.3424

     occupation numbers 
     1.0000   1.0000   1.0000   1.0000   0.0000   0.0000   0.0000   0.0000

          k =-0.1667 0.4843 0.0000 (  2406 PWs)   bands (ev):

   -17.0875 -12.0493  -9.9446  -4.7700   1.0226   4.5151   6.5871   7.2810

     occupation numbers 
     1.0000   1.0000   1.0000   1.0000   0.0000   0.0000   0.0000   0.0000

          k =-0.1667 0.5381 0.0000 (  2425 PWs)   bands (ev):

   -16.3346 -12.8811 -10.3376  -3.9732   0.1270   4.3358   7.6844   8.2402

     occupation numbers 
     1.0000   1.0000   1.0000   1.0000   0.0000   0.0000   0.0000   0.0000

          k =-0.1667 0.5919 0.0000 (  2425 PWs)   bands (ev):

   -15.5287 -13.7558 -10.5585  -3.2044  -0.7024   4.2273   8.8798   8.9776

     occupation numbers 
     1.0000   1.0000   1.0000   1.0000   0.0000   0.0000   0.0000   0.0000

          k =-0.1667 0.6457 0.0000 (  2431 PWs)   bands (ev):

   -14.8155 -14.4958 -10.6295  -2.7783  -1.1492   4.1909   9.1974  10.1489

     occupation numbers 
     1.0000   1.0000   1.0000   1.0055   0.0000   0.0000   0.0000   0.0000

          k =-0.1667 0.6996 0.0000 (  2425 PWs)   bands (ev):

   -15.5288 -13.7558 -10.5585  -3.2044  -0.7024   4.2273   8.8797   8.9777

     occupation numbers 
     1.0000   1.0000   1.0000   1.0000   0.0000   0.0000   0.0000   0.0000

          k =-0.1667-0.5381 0.0000 (  2425 PWs)   bands (ev):

   -16.3347 -12.8811 -10.3376  -3.9731   0.1270   4.3358   7.6844   8.2402

     occupation numbers 
     1.0000   1.0000   1.0000   1.0000   0.0000   0.0000   0.0000   0.0000

          k =-0.1667-0.4843 0.0000 (  2406 PWs)   bands (ev):

   -17.0875 -12.0493  -9.9446  -4.7700   1.0226   4.5152   6.5871   7.2809

     occupation numbers 
     1.0000   1.0000   1.0000   1.0000   0.0000   0.0000   0.0000   0.0000

          k =-0.1667-0.4305 0.0000 (  2414 PWs)   bands (ev):

   -17.7756 -11.3063  -9.3640  -5.5273   1.9147   4.7614   5.5979   6.3424

     occupation numbers 
     1.0000   1.0000   1.0000   1.0000   0.0000   0.0000   0.0000   0.0000

          k =-0.1667-0.3767 0.0000 (  2416 PWs)   bands (ev):

   -18.3925 -10.6514  -8.6308  -6.2206   2.7777   4.7184   5.0718   5.4905

     occupation numbers 
     1.0000   1.0000   1.0000   1.0000   0.0000   0.0000   0.0000   0.0000

          k =-0.1667-0.3229 0.0000 (  2434 PWs)   bands (ev):

   -18.9336 -10.0398  -7.8361  -6.8372   3.5914   3.9566   4.7523   5.0081

     occupation numbers 
     1.0000   1.0000   1.0000   1.0000   0.0000   0.0000   0.0000   0.0000

          k =-0.1667-0.2691 0.0000 (  2428 PWs)   bands (ev):

   -19.3958  -9.4301  -7.3686  -7.0815   3.3096   4.0129   4.3567   4.4664

     occupation numbers 
     1.0000   1.0000   1.0000   1.0000   0.0000   0.0000   0.0000   0.0000

          k =-0.1667-0.2152 0.0000 (  2422 PWs)   bands (ev):

   -19.7767  -8.8052  -7.8096  -6.4603   2.7789   3.5410   3.8224   5.0998

     occupation numbers 
     1.0000   1.0000   1.0000   1.0000   0.0000   0.0000   0.0000   0.0000

          k =-0.1667-0.1614 0.0000 (  2426 PWs)   bands (ev):

   -20.0746  -8.1685  -8.1560  -6.0525   2.3653   3.1366   3.4060   5.3000

     occupation numbers 
     1.0000   1.0000   1.0000   1.0000   0.0000   0.0000   0.0000   0.0000

          k =-0.1667-0.1076 0.0000 (  2420 PWs)   bands (ev):

   -20.2882  -8.4051  -7.5397  -5.9077   2.0692   2.8449   3.1082   5.0603

     occupation numbers 
     1.0000   1.0000   1.0000   1.0000   0.0000   0.0000   0.0000   0.0000

          k =-0.1667-0.0538 0.0000 (  2412 PWs)   bands (ev):

   -20.4167  -8.5553  -6.9617  -6.0193   1.8912   2.6691   2.9293   4.8958

     occupation numbers 
     1.0000   1.0000   1.0000   1.0000   0.0000   0.0000   0.0000   0.0000

          k =-0.1667-0.0000 0.0000 (  2415 PWs)   bands (ev):

   -20.4596  -8.6055  -6.6053  -6.2217   1.8319   2.6104   2.8696   4.8401

     occupation numbers 
     1.0000   1.0000   1.0000   1.0000   0.0000   0.0000   0.0000   0.0000

          k =-0.1667 0.0538 0.0000 (  2412 PWs)   bands (ev):

   -20.4167  -8.5553  -6.9615  -6.0196   1.8912   2.6691   2.9293   4.8960

     occupation numbers 
     1.0000   1.0000   1.0000   1.0000   0.0000   0.0000   0.0000   0.0000

          k =-0.1250 0.0807 0.0000 (  2424 PWs)   bands (ev):

   -20.5420  -8.6996  -6.6165  -5.6047   1.7202   2.4957   2.7569   4.7262

     occupation numbers 
     1.0000   1.0000   1.0000   1.0000   0.0000   0.0000   0.0000   0.0000

          k =-0.1250 0.1345 0.0000 (  2422 PWs)   bands (ev):

   -20.3703  -8.4979  -7.2014  -5.7426   1.9570   2.7310   2.9951   4.9526

     occupation numbers 
     1.0000   1.0000   1.0000   1.0000   0.0000   0.0000   0.0000   0.0000

          k =-0.1250 0.1883 0.0000 (  2418 PWs)   bands (ev):

   -20.1136  -8.1970  -7.8336  -6.1341   2.3116   3.0832   3.3518   5.5861

     occupation numbers 
     1.0000   1.0000   1.0000   1.0000   0.0000   0.0000   0.0000   0.0000

          k =-0.1250 0.2422 0.0000 (  2426 PWs)   bands (ev):

   -19.7728  -8.4842  -7.7991  -6.7297   2.7835   3.5502   3.8266   5.1792

     occupation numbers 
     1.0000   1.0000   1.0000   1.0000   0.0000   0.0000   0.0000   0.0000

          k =-0.1250 0.2960 0.0000 (  2417 PWs)   bands (ev):

   -19.3492  -9.1490  -7.4473  -7.3071   3.3722   4.1054   4.4184   4.5198

     occupation numbers 
     1.0000   1.0000   1.0000   1.0000   0.0000   0.0000   0.0000   0.0000

          k =-0.1250 0.3498 0.0000 (  2411 PWs)   bands (ev):

   -18.8445  -9.8496  -8.1871  -6.7258   3.6063   4.0757   4.3732   4.8572

     occupation numbers 
     1.0000   1.0000   1.0000   1.0000   0.0000   0.0000   0.0000   0.0000

          k =-0.1250 0.4036 0.0000 (  2413 PWs)   bands (ev):

   -18.2613 -10.6246  -8.8483  -6.0619   2.6973   4.0300   4.9000   5.6613

     occupation numbers 
     1.0000   1.0000   1.0000   1.0000   0.0000   0.0000   0.0000   0.0000

          k =-0.1250 0.4574 0.0000 (  2408 PWs)   bands (ev):

   -17.6026 -11.4905  -9.3671  -5.3263   1.7484   3.7498   5.8347   6.5737

     occupation numbers 
     1.0000   1.0000   1.0000   1.0000   0.0000   0.0000   0.0000   0.0000

          k =-0.1250 0.5112 0.0000 (  2407 PWs)   bands (ev):

   -16.8726 -12.4193  -9.7363  -4.5382   0.7901   3.5354   6.8812   7.9683

     occupation numbers 
     1.0000   1.0000   1.0000   1.0000   0.0000   0.0000   0.0000   0.0000

          k =-0.1250 0.5650 0.0000 (  2425 PWs)   bands (ev):

   -16.0775 -13.3683  -9.9718  -3.7439  -0.1236   3.3907   8.0340   8.5959

     occupation numbers 
     1.0000   1.0000   1.0000   1.0000   0.0000   0.0000   0.0000   0.0000

          k =-0.1250 0.6188 0.0000 (  2423 PWs)   bands (ev):

   -15.2309 -14.2978 -10.0867  -3.1045  -0.8245   3.3179   9.2819   9.3871

     occupation numbers 
     1.0000   1.0000   1.0000   1.0000   0.0000   0.0000   0.0000   0.0000

          k =-0.1250 0.6726 0.0000 (  2423 PWs)   bands (ev):

   -15.2309 -14.2978 -10.0867  -3.1045  -0.8245   3.3179   9.2819   9.3871

     occupation numbers 
     1.0000   1.0000   1.0000   1.0000   0.0000   0.0000   0.0000   0.0000

          k =-0.1250-0.5650 0.0000 (  2425 PWs)   bands (ev):

   -16.0776 -13.3683  -9.9718  -3.7439  -0.1236   3.3907   8.0340   8.5960

     occupation numbers 
     1.0000   1.0000   1.0000   1.0000   0.0000   0.0000   0.0000   0.0000

          k =-0.1250-0.5112 0.0000 (  2407 PWs)   bands (ev):

   -16.8727 -12.4193  -9.7363  -4.5382   0.7901   3.5354   6.8812   7.5724

     occupation numbers 
     1.0000   1.0000   1.0000   1.0000   0.0000   0.0000   0.0000   0.0000

          k =-0.1250-0.4574 0.0000 (  2408 PWs)   bands (ev):

   -17.6026 -11.4905  -9.3671  -5.3263   1.7484   3.7498   5.8347   6.5745

     occupation numbers 
     1.0000   1.0000   1.0000   1.0000   0.0000   0.0000   0.0000   0.0000

          k =-0.1250-0.4036 0.0000 (  2413 PWs)   bands (ev):

   -18.2613 -10.6247  -8.8482  -6.0619   2.6973   4.0300   4.9000   5.6612

     occupation numbers 
     1.0000   1.0000   1.0000   1.0000   0.0000   0.0000   0.0000   0.0000

          k =-0.1250-0.3498 0.0000 (  2411 PWs)   bands (ev):

   -18.8446  -9.8496  -8.1870  -6.7258   3.6063   4.0757   4.3732   4.8573

     occupation numbers 
     1.0000   1.0000   1.0000   1.0000   0.0000   0.0000   0.0000   0.0000

          k =-0.1250-0.2960 0.0000 (  2417 PWs)   bands (ev):

   -19.3492  -9.1491  -7.4471  -7.3071   3.3722   4.1053   4.4184   4.5197

     occupation numbers 
     1.0000   1.0000   1.0000   1.0000   0.0000   0.0000   0.0000   0.0000

          k =-0.1250-0.2422 0.0000 (  2426 PWs)   bands (ev):

   -19.7728  -8.4844  -7.7991  -6.7296   2.7835   3.5502   3.8266   5.1792

     occupation numbers 
     1.0000   1.0000   1.0000   1.0000   0.0000   0.0000   0.0000   0.0000

          k =-0.1250-0.1883 0.0000 (  2418 PWs)   bands (ev):

   -20.1136  -8.1970  -7.8337  -6.1339   2.3116   3.0831   3.3517   5.2764

     occupation numbers 
     1.0000   1.0000   1.0000   1.0000   0.0000   0.0000   0.0000   0.0000

          k =-0.1250-0.1345 0.0000 (  2422 PWs)   bands (ev):

   -20.3703  -8.4979  -7.2016  -5.7424   1.9570   2.7310   2.9951   4.9525

     occupation numbers 
     1.0000   1.0000   1.0000   1.0000   0.0000   0.0000   0.0000   0.0000

          k =-0.1250-0.0807 0.0000 (  2424 PWs)   bands (ev):

   -20.5420  -8.6996  -6.6167  -5.6045   1.7202   2.4957   2.7569   4.7262

     occupation numbers 
     1.0000   1.0000   1.0000   1.0000   0.0000   0.0000   0.0000   0.0000

          k =-0.1250-0.0269 0.0000 (  2415 PWs)   bands (ev):

   -20.6279  -8.8007  -6.1431  -5.7065   1.6016   2.3779   2.6377   4.6119

     occupation numbers 
     1.0000   1.0000   1.0000   1.0000   0.0000   0.0000   0.0000   0.0000

          k =-0.1250 0.0269 0.0000 (  2415 PWs)   bands (ev):

   -20.6279  -8.8007  -6.1429  -5.7067   1.6016   2.3779   2.6377   4.6120

     occupation numbers 
     1.0000   1.0000   1.0000   1.0000   0.0000   0.0000   0.0000   0.0000

          k =-0.0833 0.0538 0.0000 (  2419 PWs)   bands (ev):

   -20.7240  -8.9117  -5.8464  -5.3522   1.4712   2.2454   2.5064   4.4818

     occupation numbers 
     1.0000   1.0000   1.0000   1.0000   0.0000   0.0000   0.0000   0.0000

          k =-0.0833 0.1076 0.0000 (  2429 PWs)   bands (ev):

   -20.5949  -8.7593  -6.3407  -5.4840   1.6486   2.4224   2.6848   4.6551

     occupation numbers 
     1.0000   1.0000   1.0000   1.0000   0.0000   0.0000   0.0000   0.0000

          k =-0.0833 0.1614 0.0000 (  2435 PWs)   bands (ev):

   -20.3802  -8.5064  -6.9358  -5.8580   1.9439   2.7172   2.9818   4.9416

     occupation numbers 
     1.0000   1.0000   1.0000   1.0000   0.0000   0.0000   0.0000   0.0000

          k =-0.0833 0.2152 0.0000 (  2431 PWs)   bands (ev):

   -20.0806  -8.1545  -7.5923  -6.4230   2.3568   3.1291   3.3970   4.7160

     occupation numbers 
     1.0000   1.0000   1.0000   1.0000   0.0000   0.0000   0.0000   0.0000

          k =-0.0833 0.2691 0.0000 (  2423 PWs)   bands (ev):

   -19.6971  -8.3028  -7.7061  -7.0930   2.8869   3.6568   3.9288   4.2882

     occupation numbers 
     1.0000   1.0000   1.0000   1.0000   0.0000   0.0000   0.0000   0.0000

          k =-0.0833 0.3229 0.0000 (  2416 PWs)   bands (ev):

   -19.2313  -9.0886  -7.7653  -7.1651   3.5320   3.8728   4.2550   4.4346

     occupation numbers 
     1.0000   1.0000   1.0000   1.0000   0.0000   0.0000   0.0000   0.0000

          k =-0.0833 0.3767 0.0000 (  2410 PWs)   bands (ev):

   -18.6850  -9.9694  -8.3553  -6.5370   3.4352   3.4976   4.3000   5.0691

     occupation numbers 
     1.0000   1.0000   1.0000   1.0000   0.0000   0.0000   0.0000   0.0000

          k =-0.0833 0.4305 0.0000 (  2418 PWs)   bands (ev):

   -18.0607 -10.9280  -8.8301  -5.8306   2.4468   3.1833   5.1782   5.9365

     occupation numbers 
     1.0000   1.0000   1.0000   1.0000   0.0000   0.0000   0.0000   0.0000

          k =-0.0833 0.4843 0.0000 (  2406 PWs)   bands (ev):

   -17.3615 -11.9256  -9.1913  -5.0609   1.4394   2.9331   6.1705   6.9087

     occupation numbers 
     1.0000   1.0000   1.0000   1.0000   0.0000   0.0000   0.0000   0.0000

          k =-0.0833 0.5381 0.0000 (  2401 PWs)   bands (ev):

   -16.5916 -12.9279  -9.4454  -4.2596   0.4573   2.7519   7.2733   7.9673

     occupation numbers 
     1.0000   1.0000   1.0000   1.0000   0.0000   0.0000   0.0000   0.0000

          k =-0.0833 0.5919 0.0000 (  2420 PWs)   bands (ev):

   -15.7575 -13.9086  -9.5968  -3.5176  -0.3982   2.6424   8.4803   9.0493

     occupation numbers 
     1.0000   1.0000   1.0000   1.0000   0.0000   0.0000   0.0000   0.0000

          k =-0.0833 0.6457 0.0000 (  2418 PWs)   bands (ev):

   -14.9462 -14.7698  -9.6471  -3.1465  -0.8079   2.6058   9.7697   9.7851

     occupation numbers 
     1.0000   1.0000   1.0000   1.0000   0.0000   0.0000   0.0000   0.0000

          k =-0.0833-0.5919 0.0000 (  2420 PWs)   bands (ev):

   -15.7575 -13.9086  -9.5968  -3.5176  -0.3982   2.6424   8.4803   9.0494

     occupation numbers 
     1.0000   1.0000   1.0000   1.0000   0.0000   0.0000   0.0000   0.0000

          k =-0.0833-0.5381 0.0000 (  2401 PWs)   bands (ev):

   -16.5917 -12.9279  -9.4454  -4.2596   0.4573   2.7520   7.2732   7.9670

     occupation numbers 
     1.0000   1.0000   1.0000   1.0000   0.0000   0.0000   0.0000   0.0000

          k =-0.0833-0.4843 0.0000 (  2406 PWs)   bands (ev):

   -17.3615 -11.9256  -9.1913  -5.0609   1.4393   2.9331   6.1705   6.9088

     occupation numbers 
     1.0000   1.0000   1.0000   1.0000   0.0000   0.0000   0.0000   0.0000

          k =-0.0833-0.4305 0.0000 (  2418 PWs)   bands (ev):

   -18.0607 -10.9280  -8.8301  -5.8306   2.4468   3.1833   5.1782   5.9367

     occupation numbers 
     1.0000   1.0000   1.0000   1.0000   0.0000   0.0000   0.0000   0.0000

          k =-0.0833-0.3767 0.0000 (  2410 PWs)   bands (ev):

   -18.6850  -9.9694  -8.3552  -6.5370   3.4352   3.4977   4.3000   5.0691

     occupation numbers 
     1.0000   1.0000   1.0000   1.0000   0.0000   0.0000   0.0000   0.0000

          k =-0.0833-0.3229 0.0000 (  2416 PWs)   bands (ev):

   -19.2313  -9.0887  -7.7652  -7.1651   3.5321   3.8729   4.2550   4.4344

     occupation numbers 
     1.0000   1.0000   1.0000   1.0000   0.0000   0.0000   0.0000   0.0000

          k =-0.0833-0.2691 0.0000 (  2423 PWs)   bands (ev):

   -19.6971  -8.3029  -7.7061  -7.0929   2.8869   3.6569   3.9289   4.2883

     occupation numbers 
     1.0000   1.0000   1.0000   1.0000   0.0000   0.0000   0.0000   0.0000

          k =-0.0833-0.2152 0.0000 (  2431 PWs)   bands (ev):

   -20.0806  -8.1545  -7.5924  -6.4228   2.3568   3.1292   3.3970   4.7160

     occupation numbers 
     1.0000   1.0000   1.0000   1.0000   0.0000   0.0000   0.0000   0.0000

          k =-0.0833-0.1614 0.0000 (  2435 PWs)   bands (ev):

   -20.3802  -8.5064  -6.9360  -5.8578   1.9439   2.7172   2.9818   5.1215

     occupation numbers 
     1.0000   1.0000   1.0000   1.0000   0.0000   0.0000   0.0000   0.0000

          k =-0.0833-0.1076 0.0000 (  2429 PWs)   bands (ev):

   -20.5949  -8.7593  -6.3409  -5.4838   1.6486   2.4224   2.6848   4.6547

     occupation numbers 
     1.0000   1.0000   1.0000   1.0000   0.0000   0.0000   0.0000   0.0000

          k =-0.0833-0.0538 0.0000 (  2419 PWs)   bands (ev):

   -20.7240  -8.9117  -5.8466  -5.3520   1.4712   2.2454   2.5064   4.4819

     occupation numbers 
     1.0000   1.0000   1.0000   1.0000   0.0000   0.0000   0.0000   0.0000

          k =-0.0833 0.0000 0.0000 (  2415 PWs)   bands (ev):

   -20.7670  -8.9626  -5.5658  -5.4162   1.4120   2.1863   2.4468   4.4240

     occupation numbers 
     1.0000   1.0000   1.0000   1.0000   0.0000   0.0000   0.0000   0.0000

          k =-0.0417 0.0269 0.0000 (  2425 PWs)   bands (ev):

   -20.8334  -9.0396  -5.3226  -5.1819   1.3222   2.0950   2.3564   4.3343

     occupation numbers 
     1.0000   1.0000   1.0000   1.0000   0.0000   0.0000   0.0000   0.0000

          k =-0.0417 0.0807 0.0000 (  2432 PWs)   bands (ev):

   -20.7472  -8.9376  -5.6608  -5.3105   1.4402   2.2132   2.4751   4.4502

     occupation numbers 
     1.0000   1.0000   1.0000   1.0000   0.0000   0.0000   0.0000   0.0000

          k =-0.0417 0.1345 0.0000 (  2434 PWs)   bands (ev):

   -20.5750  -8.7341  -6.1671  -5.6693   1.6763   2.4494   2.7124   4.8797

     occupation numbers 
     1.0000   1.0000   1.0000   1.0000   0.0000   0.0000   0.0000   0.0000

          k =-0.0417 0.1883 0.0000 (  2436 PWs)   bands (ev):

   -20.3174  -8.4304  -6.7947  -6.2020   2.0301   2.8034   3.0682   4.4937

     occupation numbers 
     1.0000   1.0000   1.0000   1.0000   0.0000   0.0000   0.0000   0.0000

          k =-0.0417 0.2422 0.0000 (  2420 PWs)   bands (ev):

   -19.9753  -8.0285  -7.5335  -6.8148   2.5013   3.2747   3.5412   4.0637

     occupation numbers 
     1.0000   1.0000   1.0000   1.0000   0.0000   0.0000   0.0000   0.0000

          k =-0.0417 0.2960 0.0000 (  2421 PWs)   bands (ev):

   -19.5498  -8.3909  -7.5315  -7.4129   3.0886   3.6289   3.8621   4.1390

     occupation numbers 
     1.0000   1.0000   1.0000   1.0000   0.0000   0.0000   0.0000   0.0000

          k =-0.0417 0.3498 0.0000 (  2414 PWs)   bands (ev):

   -19.0425  -9.3475  -7.9453  -6.9438   3.2263   3.7992   4.0944   4.5738

     occupation numbers 
     1.0000   1.0000   1.0000   1.0000   0.0000   0.0000   0.0000   0.0000

          k =-0.0417 0.4036 0.0000 (  2413 PWs)   bands (ev):

   -18.4555 -10.3642  -8.3979  -6.2725   2.8799   3.0931   4.6194   5.3861

     occupation numbers 
     1.0000   1.0000   1.0000   1.0000   0.0000   0.0000   0.0000   0.0000

          k =-0.0417 0.4574 0.0000 (  2412 PWs)   bands (ev):

   -17.7913 -11.4054  -8.7653  -5.5294   2.0575   2.5943   5.5556   6.3126

     occupation numbers 
     1.0000   1.0000   1.0000   1.0000   0.0000   0.0000   0.0000   0.0000

          k =-0.0417 0.5112 0.0000 (  2406 PWs)   bands (ev):

   -17.0534 -12.4443  -9.0440  -4.7365   1.0286   2.3766   6.6045   7.3414

     occupation numbers 
     1.0000   1.0000   1.0000   1.0000   0.0000   0.0000   0.0000   0.0000

          k =-0.0417 0.5650 0.0000 (  2408 PWs)   bands (ev):

   -16.2462 -13.4602  -9.2314  -3.9482   0.0745   2.2302   7.7623   8.4527

     occupation numbers 
     1.0000   1.0000   1.0000   1.0000   0.0000   0.0000   0.0000   0.0000

          k =-0.0417 0.6188 0.0000 (  2410 PWs)   bands (ev):

   -15.3776 -14.4354  -9.3254  -3.3398  -0.6195   2.1567   9.0208   9.5583

     occupation numbers 
     1.0000   1.0000   1.0000   1.0000   0.0000   0.0000   0.0000   0.0000

          k =-0.0417-0.6188 0.0000 (  2410 PWs)   bands (ev):

   -15.3776 -14.4354  -9.3254  -3.3398  -0.6195   2.1567   9.0208   9.5581

     occupation numbers 
     1.0000   1.0000   1.0000   1.0000   0.0000   0.0000   0.0000   0.0000

          k =-0.0417-0.5650 0.0000 (  2408 PWs)   bands (ev):

   -16.2462 -13.4602  -9.2314  -3.9482   0.0745   2.2302   7.7623   8.4527

     occupation numbers 
     1.0000   1.0000   1.0000   1.0000   0.0000   0.0000   0.0000   0.0000

          k =-0.0417-0.5112 0.0000 (  2406 PWs)   bands (ev):

   -17.0534 -12.4443  -9.0440  -4.7365   1.0286   2.3766   6.6045   7.3419

     occupation numbers 
     1.0000   1.0000   1.0000   1.0000   0.0000   0.0000   0.0000   0.0000

          k =-0.0417-0.4574 0.0000 (  2412 PWs)   bands (ev):

   -17.7913 -11.4054  -8.7652  -5.5294   2.0575   2.5943   5.5556   6.3126

     occupation numbers 
     1.0000   1.0000   1.0000   1.0000   0.0000   0.0000   0.0000   0.0000

          k =-0.0417-0.4036 0.0000 (  2413 PWs)   bands (ev):

   -18.4555 -10.3642  -8.3979  -6.2725   2.8799   3.0931   4.6194   5.3861

     occupation numbers 
     1.0000   1.0000   1.0000   1.0000   0.0000   0.0000   0.0000   0.0000

          k =-0.0417-0.3498 0.0000 (  2414 PWs)   bands (ev):

   -19.0425  -9.3475  -7.9453  -6.9438   3.2263   3.7992   4.0943   4.5737

     occupation numbers 
     1.0000   1.0000   1.0000   1.0000   0.0000   0.0000   0.0000   0.0000

          k =-0.0417-0.2960 0.0000 (  2421 PWs)   bands (ev):

   -19.5498  -8.3910  -7.5315  -7.4128   3.0886   3.6289   3.8621   4.1389

     occupation numbers 
     1.0000   1.0000   1.0000   1.0000   0.0000   0.0000   0.0000   0.0000

          k =-0.0417-0.2422 0.0000 (  2420 PWs)   bands (ev):

   -19.9753  -8.0285  -7.5336  -6.8147   2.5013   3.2747   3.5412   4.0637

     occupation numbers 
     1.0000   1.0000   1.0000   1.0000   0.0000   0.0000   0.0000   0.0000

          k =-0.0417-0.1883 0.0000 (  2436 PWs)   bands (ev):

   -20.3174  -8.4304  -6.7949  -6.2018   2.0301   2.8034   3.0681   4.4938

     occupation numbers 
     1.0000   1.0000   1.0000   1.0000   0.0000   0.0000   0.0000   0.0000

          k =-0.0417-0.1345 0.0000 (  2434 PWs)   bands (ev):

   -20.5750  -8.7341  -6.1674  -5.6691   1.6763   2.4494   2.7125   4.8795

     occupation numbers 
     1.0000   1.0000   1.0000   1.0000   0.0000   0.0000   0.0000   0.0000

          k =-0.0417-0.0807 0.0000 (  2432 PWs)   bands (ev):

   -20.7472  -8.9376  -5.6611  -5.3103   1.4402   2.2132   2.4751   4.4502

     occupation numbers 
     1.0000   1.0000   1.0000   1.0000   0.0000   0.0000   0.0000   0.0000

          k =-0.0417-0.0269 0.0000 (  2425 PWs)   bands (ev):

   -20.8334  -9.0396  -5.3228  -5.1817   1.3222   2.0950   2.3564   4.3344

     occupation numbers 
     1.0000   1.0000   1.0000   1.0000   0.0000   0.0000   0.0000   0.0000

     the Fermi energy is    -2.0492 ev

!    total energy              =     -36.85667132 Ry
     total all-electron energy =      -152.384866 Ry
     estimated scf accuracy    <          8.7E-09 Ry
     smearing contrib. (-TS)   =       0.00005094 Ry
     internal energy E=F+TS    =     -36.85672226 Ry

     The total energy is F=E-TS. E is the sum of the following terms:
     one-electron contribution =    -146.87465144 Ry
     hartree contribution      =      74.97486239 Ry
     xc contribution           =      -9.13743037 Ry
     ewald contribution        =      56.50944626 Ry
     one-center paw contrib.   =     -12.32894910 Ry
      -> PAW hartree energy AE =       8.70442595 Ry
      -> PAW hartree energy PS =      -8.69618395 Ry
      -> PAW xc energy AE      =     -10.48160324 Ry
      -> PAW xc energy PS      =       4.30888640 Ry
      -> total E_H with PAW    =      74.98310439 Ry
      -> total E_XC with PAW   =     -15.31014721 Ry

     convergence has been achieved in   6 iterations

     negative rho (up, down):  2.060E-03 0.000E+00

     Forces acting on atoms (cartesian axes, Ry/au):

     atom    1 type  1   force =     0.00003801    0.02952427   -0.00000012
     atom    2 type  1   force =    -0.00003801   -0.02952427    0.00000012
     The non-local contrib.  to forces
     atom    1 type  1   force =    -0.00011034    0.14162361    0.00000020
     atom    2 type  1   force =    -0.00017488   -0.14160190    0.00000026
     The ionic contribution  to forces
     atom    1 type  1   force =    -0.00000752    0.90667663   -0.00000000
     atom    2 type  1   force =     0.00000752   -0.90667663    0.00000000
     The local contribution  to forces
     atom    1 type  1   force =     0.00010351   -1.01363890   -0.00000819
     atom    2 type  1   force =     0.00018334    1.01363491   -0.00000819
     The core correction contribution to forces
     atom    1 type  1   force =     0.00000619   -0.00516501   -0.00000003
     atom    2 type  1   force =    -0.00010037    0.00507761   -0.00000003
     The Hubbard contrib.    to forces
     atom    1 type  1   force =     0.00000000    0.00000000    0.00000000
     atom    2 type  1   force =     0.00000000    0.00000000    0.00000000
     The SCF correction term to forces
     atom    1 type  1   force =     0.00000003   -0.00001060    0.00000000
     atom    2 type  1   force =     0.00000025    0.00000321    0.00000000

     Total force =     0.041754     Total SCF correction =     0.000011

     BFGS Geometry Optimization
     Energy error            =      0.0E+00 Ry
     Gradient error          =      3.0E-02 Ry/Bohr

     number of scf cycles    =   1
     number of bfgs steps    =   0

     energy             new  =     -36.8566713216 Ry

     new trust radius        =       0.0295242914 bohr
     new conv_thr            =       0.0000000100 Ry


ATOMIC_POSITIONS (crystal)
C               -0.0037392022        0.0074933432        0.0000000000    1   1   0
C                0.3370722022        0.3258396568        0.0000000000    1   1   0



     Writing config-only to output data dir ./tmp/graphene10.0.save/ :
     XML data file
     NEW-OLD atomic charge density approx. for the potential

     Check: negative core charge=   -0.000014

     negative rho (up, down):  2.050E-03 0.000E+00

     total cpu time spent up to now is       12.8 secs

     per-process dynamical memory:    41.0 Mb

     Self-consistent Calculation

     iteration #  1     ecut=    40.00 Ry     beta= 0.70
     Davidson diagonalization with overlap

---- Real-time Memory Report at c_bands before calling an iterative solver
            82 MiB given to the printing process from OS
            40 MiB allocation reported by mallinfo(arena+hblkhd)
         24978 MiB available memory on the node where the printing process lives
------------------
     ethr =  1.00E-06,  avg # of iterations =  6.9

     negative rho (up, down):  2.056E-03 0.000E+00

     total cpu time spent up to now is       15.6 secs

     total energy              =     -36.85659375 Ry
     estimated scf accuracy    <       0.00034183 Ry

     iteration #  2     ecut=    40.00 Ry     beta= 0.70
     Davidson diagonalization with overlap

---- Real-time Memory Report at c_bands before calling an iterative solver
            82 MiB given to the printing process from OS
            46 MiB allocation reported by mallinfo(arena+hblkhd)
         24961 MiB available memory on the node where the printing process lives
------------------
     ethr =  4.27E-06,  avg # of iterations =  2.0

     negative rho (up, down):  2.062E-03 0.000E+00

     total cpu time spent up to now is       16.8 secs

     total energy              =     -36.85663362 Ry
     estimated scf accuracy    <       0.00000468 Ry

     iteration #  3     ecut=    40.00 Ry     beta= 0.70
     Davidson diagonalization with overlap

---- Real-time Memory Report at c_bands before calling an iterative solver
            82 MiB given to the printing process from OS
            47 MiB allocation reported by mallinfo(arena+hblkhd)
         24974 MiB available memory on the node where the printing process lives
------------------
     ethr =  5.84E-08,  avg # of iterations =  2.0

     negative rho (up, down):  2.063E-03 0.000E+00

     total cpu time spent up to now is       18.0 secs

     total energy              =     -36.85663461 Ry
     estimated scf accuracy    <       0.00000026 Ry

     iteration #  4     ecut=    40.00 Ry     beta= 0.70
     Davidson diagonalization with overlap

---- Real-time Memory Report at c_bands before calling an iterative solver
            82 MiB given to the printing process from OS
            47 MiB allocation reported by mallinfo(arena+hblkhd)
         24988 MiB available memory on the node where the printing process lives
------------------
     ethr =  3.21E-09,  avg # of iterations =  1.9

     negative rho (up, down):  2.063E-03 0.000E+00

     total cpu time spent up to now is       19.3 secs

     total energy              =     -36.85663463 Ry
     estimated scf accuracy    <       0.00000002 Ry

     iteration #  5     ecut=    40.00 Ry     beta= 0.70
     Davidson diagonalization with overlap

---- Real-time Memory Report at c_bands before calling an iterative solver
            82 MiB given to the printing process from OS
            48 MiB allocation reported by mallinfo(arena+hblkhd)
         24987 MiB available memory on the node where the printing process lives
------------------
     ethr =  2.63E-10,  avg # of iterations =  2.2

     negative rho (up, down):  2.063E-03 0.000E+00

     total cpu time spent up to now is       20.6 secs

     End of self-consistent calculation

          k = 0.0000 0.0000 0.0000 (  2423 PWs)   bands (ev):

   -20.8630  -9.0741  -5.5615  -4.6970   1.2719   2.0486   2.3076   4.2909

     occupation numbers 
     1.0000   1.0000   1.0000   1.0000   0.0000   0.0000   0.0000   0.0000

          k = 0.0000 0.0538 0.0000 (  2428 PWs)   bands (ev):

   -20.8196  -9.0233  -5.6682  -4.8308   1.3310   2.1077   2.3669   4.3489

     occupation numbers 
     1.0000   1.0000   1.0000   1.0000   0.0000   0.0000   0.0000   0.0000

          k = 0.0000 0.1076 0.0000 (  2432 PWs)   bands (ev):

   -20.6893  -8.8713  -5.9638  -5.2202   1.5080   2.2850   2.5449   4.5233

     occupation numbers 
     1.0000   1.0000   1.0000   1.0000   0.0000   0.0000   0.0000   0.0000

          k = 0.0000 0.1614 0.0000 (  2430 PWs)   bands (ev):

   -20.4724  -8.6190  -6.3891  -5.8324   1.8031   2.5802   2.8415   4.3694

     occupation numbers 
     1.0000   1.0000   1.0000   1.0000   0.0000   0.0000   0.0000   0.0000

          k = 0.0000 0.2152 0.0000 (  2426 PWs)   bands (ev):

   -20.1699  -8.2683  -6.8809  -6.6233   2.2158   2.9931   3.2560   3.9472

     occupation numbers 
     1.0000   1.0000   1.0000   1.0000   0.0000   0.0000   0.0000   0.0000

          k = 0.0000 0.2691 0.0000 (  2424 PWs)   bands (ev):

   -19.7823  -7.8221  -7.5467  -7.3879   2.7455   3.5059   3.5230   3.7959

     occupation numbers 
     1.0000   1.0000   1.0000   1.0000   0.0000   0.0000   0.0000   0.0000

          k = 0.0000 0.3229 0.0000 (  2416 PWs)   bands (ev):

   -19.3112  -8.5592  -7.8729  -7.2846   3.0895   3.3994   4.1690   4.4451

     occupation numbers 
     1.0000   1.0000   1.0000   1.0000   0.0000   0.0000   0.0000   0.0000

          k = 0.0000 0.3767 0.0000 (  2420 PWs)   bands (ev):

   -18.7582  -9.6237  -8.3113  -6.6627   2.7245   3.7454   4.1606   4.9299

     occupation numbers 
     1.0000   1.0000   1.0000   1.0000   0.0000   0.0000   0.0000   0.0000

          k = 0.0000 0.4305 0.0000 (  2414 PWs)   bands (ev):

   -18.1254 -10.7093  -8.6863  -5.9672   2.4142   2.7392   5.0405   5.8024

     occupation numbers 
     1.0000   1.0000   1.0000   1.0000   0.0000   0.0000   0.0000   0.0000

          k = 0.0000 0.4843 0.0000 (  2414 PWs)   bands (ev):

   -17.4156 -11.7919  -8.9868  -5.2178   1.7266   2.1683   6.0349   6.7818

     occupation numbers 
     1.0000   1.0000   1.0000   1.0000   0.0000   0.0000   0.0000   0.0000

          k = 0.0000 0.5381 0.0000 (  2406 PWs)   bands (ev):

   -16.6326 -12.8515  -9.2059  -4.4565   0.7642   1.9909   7.1410   7.8564

     occupation numbers 
     1.0000   1.0000   1.0000   1.0000   0.0000   0.0000   0.0000   0.0000

          k = 0.0000 0.5919 0.0000 (  2404 PWs)   bands (ev):

   -15.7830 -13.8712  -9.3389  -3.7902  -0.0282   1.8839   8.3538   8.9908

     occupation numbers 
     1.0000   1.0000   1.0000   1.0000   0.0000   0.0000   0.0000   0.0000

          k = 0.0000-0.6457 0.0000 (  2410 PWs)   bands (ev):

   -14.9857 -14.7258  -9.3836  -3.4879  -0.3738   1.8481   9.6427   9.6837

     occupation numbers 
     1.0000   1.0000   1.0000   1.0000   0.0000   0.0000   0.0000   0.0000

          k = 0.0000-0.5919 0.0000 (  2404 PWs)   bands (ev):

   -15.7830 -13.8712  -9.3389  -3.7902  -0.0282   1.8839   8.3538   8.9910

     occupation numbers 
     1.0000   1.0000   1.0000   1.0000   0.0000   0.0000   0.0000   0.0000

          k = 0.0000-0.5381 0.0000 (  2406 PWs)   bands (ev):

   -16.6326 -12.8515  -9.2059  -4.4565   0.7642   1.9909   7.1410   7.8564

     occupation numbers 
     1.0000   1.0000   1.0000   1.0000   0.0000   0.0000   0.0000   0.0000

          k = 0.0000-0.4843 0.0000 (  2414 PWs)   bands (ev):

   -17.4156 -11.7919  -8.9868  -5.2178   1.7266   2.1683   6.0349   7.1097

     occupation numbers 
     1.0000   1.0000   1.0000   1.0000   0.0000   0.0000   0.0000   0.0000

          k = 0.0000-0.4305 0.0000 (  2414 PWs)   bands (ev):

   -18.1254 -10.7093  -8.6863  -5.9672   2.4142   2.7392   5.0405   5.8024

     occupation numbers 
     1.0000   1.0000   1.0000   1.0000   0.0000   0.0000   0.0000   0.0000

          k = 0.0000-0.3767 0.0000 (  2420 PWs)   bands (ev):

   -18.7582  -9.6237  -8.3113  -6.6627   2.7245   3.7454   4.1606   4.9298

     occupation numbers 
     1.0000   1.0000   1.0000   1.0000   0.0000   0.0000   0.0000   0.0000

          k = 0.0000-0.3229 0.0000 (  2416 PWs)   bands (ev):

   -19.3112  -8.5592  -7.8729  -7.2846   3.0895   3.3994   4.1691   4.4451

     occupation numbers 
     1.0000   1.0000   1.0000   1.0000   0.0000   0.0000   0.0000   0.0000

          k = 0.0000-0.2691 0.0000 (  2424 PWs)   bands (ev):

   -19.7823  -7.8221  -7.5467  -7.3879   2.7455   3.5059   3.5230   3.7959

     occupation numbers 
     1.0000   1.0000   1.0000   1.0000   0.0000   0.0000   0.0000   0.0000

          k = 0.0000-0.2152 0.0000 (  2426 PWs)   bands (ev):

   -20.1699  -8.2683  -6.8809  -6.6233   2.2158   2.9931   3.2560   3.9472

     occupation numbers 
     1.0000   1.0000   1.0000   1.0000   0.0000   0.0000   0.0000   0.0000

          k = 0.0000-0.1614 0.0000 (  2430 PWs)   bands (ev):

   -20.4724  -8.6190  -6.3891  -5.8324   1.8031   2.5802   2.8415   4.3694

     occupation numbers 
     1.0000   1.0000   1.0000   1.0000   0.0000   0.0000   0.0000   0.0000

          k = 0.0000-0.1076 0.0000 (  2432 PWs)   bands (ev):

   -20.6893  -8.8713  -5.9638  -5.2202   1.5080   2.2850   2.5449   4.5230

     occupation numbers 
     1.0000   1.0000   1.0000   1.0000   0.0000   0.0000   0.0000   0.0000

          k = 0.0000-0.0538 0.0000 (  2428 PWs)   bands (ev):

   -20.8196  -9.0233  -5.6682  -4.8308   1.3310   2.1077   2.3669   5.3251

     occupation numbers 
     1.0000   1.0000   1.0000   1.0000   0.0000   0.0000   0.0000   0.0000

          k = 0.0417-0.0269 0.0000 (  2425 PWs)   bands (ev):

   -20.8264  -9.0310  -5.6958  -4.8072   1.3216   2.0988   2.3576   4.3402

     occupation numbers 
     1.0000   1.0000   1.0000   1.0000   0.0000   0.0000   0.0000   0.0000

          k = 0.0417 0.0269 0.0000 (  2425 PWs)   bands (ev):

   -20.8264  -9.0310  -5.6959  -4.8070   1.3216   2.0988   2.3576   4.3403

     occupation numbers 
     1.0000   1.0000   1.0000   1.0000   0.0000   0.0000   0.0000   0.0000

          k = 0.0417 0.0807 0.0000 (  2432 PWs)   bands (ev):

   -20.7395  -8.9297  -5.9284  -5.0323   1.4398   2.2170   2.4764   4.4562

     occupation numbers 
     1.0000   1.0000   1.0000   1.0000   0.0000   0.0000   0.0000   0.0000

          k = 0.0417 0.1345 0.0000 (  2434 PWs)   bands (ev):

   -20.5660  -8.7276  -6.3360  -5.4792   1.6759   2.4532   2.7138   4.6879

     occupation numbers 
     1.0000   1.0000   1.0000   1.0000   0.0000   0.0000   0.0000   0.0000

          k = 0.0417 0.1883 0.0000 (  2436 PWs)   bands (ev):

   -20.3063  -8.4261  -6.8538  -6.1169   2.0300   2.8072   3.0697   4.3107

     occupation numbers 
     1.0000   1.0000   1.0000   1.0000   0.0000   0.0000   0.0000   0.0000

          k = 0.0417 0.2422 0.0000 (  2420 PWs)   bands (ev):

   -19.9612  -8.0276  -7.4562  -6.8689   2.5016   3.2784   3.5421   3.8808

     occupation numbers 
     1.0000   1.0000   1.0000   1.0000   0.0000   0.0000   0.0000   0.0000

          k = 0.0417 0.2960 0.0000 (  2421 PWs)   bands (ev):

   -19.5319  -8.2092  -7.5800  -7.5356   3.0884   3.4521   3.8662   4.1403

     occupation numbers 
     1.0000   1.0000   1.0000   1.0000   0.0000   0.0000   0.0000   0.0000

          k = 0.0417 0.3498 0.0000 (  2414 PWs)   bands (ev):

   -19.0199  -9.1516  -8.1390  -6.9555   3.0570   3.7997   4.1695   4.5704

     occupation numbers 
     1.0000   1.0000   1.0000   1.0000   0.0000   0.0000   0.0000   0.0000

          k = 0.0417 0.4036 0.0000 (  2413 PWs)   bands (ev):

   -18.4270 -10.1892  -8.5847  -6.2956   2.7189   3.1935   4.6212   5.3860

     occupation numbers 
     1.0000   1.0000   1.0000   1.0000   0.0000   0.0000   0.0000   0.0000

          k = 0.0417 0.4574 0.0000 (  2412 PWs)   bands (ev):

   -17.7559 -11.2562  -8.9408  -5.5705   2.1900   2.4413   5.5584   6.3113

     occupation numbers 
     1.0000   1.0000   1.0000   1.0000   0.0000   0.0000   0.0000   0.0000

          k = 0.0417 0.5112 0.0000 (  2406 PWs)   bands (ev):

   -17.0097 -12.3187  -9.2102  -4.8077   1.2018   2.2300   6.6088   7.3371

     occupation numbers 
     1.0000   1.0000   1.0000   1.0000   0.0000   0.0000   0.0000   0.0000

          k = 0.0417 0.5650 0.0000 (  2408 PWs)   bands (ev):

   -16.1933 -13.3543  -9.3912  -4.0719   0.3071   2.0880   7.7685   8.4411

     occupation numbers 
     1.0000   1.0000   1.0000   1.0000   0.0000   0.0000   0.0000   0.0000

          k = 0.0417-0.6726 0.0000 (  2410 PWs)   bands (ev):

   -15.3191 -14.3404  -9.4822  -3.5393  -0.3077   2.0168   9.0301   9.5220

     occupation numbers 
     1.0000   1.0000   1.0000   1.0000   0.0000   0.0000   0.0000   0.0000

          k = 0.0417-0.6188 0.0000 (  2410 PWs)   bands (ev):

   -15.3191 -14.3404  -9.4822  -3.5393  -0.3077   2.0168   9.0301   9.5220

     occupation numbers 
     1.0000   1.0000   1.0000   1.0000   0.0000   0.0000   0.0000   0.0000

          k = 0.0417-0.5650 0.0000 (  2408 PWs)   bands (ev):

   -16.1933 -13.3543  -9.3912  -4.0720   0.3072   2.0880   7.7685   8.4411

     occupation numbers 
     1.0000   1.0000   1.0000   1.0000   0.0000   0.0000   0.0000   0.0000

          k = 0.0417-0.5112 0.0000 (  2406 PWs)   bands (ev):

   -17.0097 -12.3187  -9.2102  -4.8077   1.2019   2.2300   6.6088   7.3376

     occupation numbers 
     1.0000   1.0000   1.0000   1.0000   0.0000   0.0000   0.0000   0.0000

          k = 0.0417-0.4574 0.0000 (  2412 PWs)   bands (ev):

   -17.7559 -11.2562  -8.9409  -5.5706   2.1901   2.4413   5.5584   6.3113

     occupation numbers 
     1.0000   1.0000   1.0000   1.0000   0.0000   0.0000   0.0000   0.0000

          k = 0.0417-0.4036 0.0000 (  2413 PWs)   bands (ev):

   -18.4270 -10.1890  -8.5849  -6.2957   2.7189   3.1936   4.6212   5.6789

     occupation numbers 
     1.0000   1.0000   1.0000   1.0000   0.0000   0.0000   0.0000   0.0000

          k = 0.0417-0.3498 0.0000 (  2414 PWs)   bands (ev):

   -19.0199  -9.1512  -8.1394  -6.9555   3.0570   3.7997   4.1696   4.5704

     occupation numbers 
     1.0000   1.0000   1.0000   1.0000   0.0000   0.0000   0.0000   0.0000

          k = 0.0417-0.2960 0.0000 (  2421 PWs)   bands (ev):

   -19.5319  -8.2085  -7.5808  -7.5356   3.0884   3.4521   3.8662   4.1403

     occupation numbers 
     1.0000   1.0000   1.0000   1.0000   0.0000   0.0000   0.0000   0.0000

          k = 0.0417-0.2422 0.0000 (  2420 PWs)   bands (ev):

   -19.9612  -8.0276  -7.4553  -6.8699   2.5016   3.2784   3.5420   3.8807

     occupation numbers 
     1.0000   1.0000   1.0000   1.0000   0.0000   0.0000   0.0000   0.0000

          k = 0.0417-0.1883 0.0000 (  2436 PWs)   bands (ev):

   -20.3063  -8.4261  -6.8531  -6.1178   2.0300   2.8072   3.0697   4.3107

     occupation numbers 
     1.0000   1.0000   1.0000   1.0000   0.0000   0.0000   0.0000   0.0000

          k = 0.0417-0.1345 0.0000 (  2434 PWs)   bands (ev):

   -20.5660  -8.7276  -6.3354  -5.4799   1.6759   2.4532   2.7138   4.6879

     occupation numbers 
     1.0000   1.0000   1.0000   1.0000   0.0000   0.0000   0.0000   0.0000

          k = 0.0417-0.0807 0.0000 (  2432 PWs)   bands (ev):

   -20.7395  -8.9297  -5.9279  -5.0328   1.4398   2.2170   2.4764   4.4562

     occupation numbers 
     1.0000   1.0000   1.0000   1.0000   0.0000   0.0000   0.0000   0.0000

          k = 0.0833-0.0538 0.0000 (  2419 PWs)   bands (ev):

   -20.7166  -8.9022  -6.1117  -5.0763   1.4710   2.2493   2.5080   4.4880

     occupation numbers 
     1.0000   1.0000   1.0000   1.0000   0.0000   0.0000   0.0000   0.0000

          k = 0.0833-0.0000 0.0000 (  2415 PWs)   bands (ev):

   -20.7600  -8.9528  -5.9592  -5.0165   1.4118   2.1903   2.4485   4.4303

     occupation numbers 
     1.0000   1.0000   1.0000   1.0000   0.0000   0.0000   0.0000   0.0000

          k = 0.0833 0.0538 0.0000 (  2419 PWs)   bands (ev):

   -20.7166  -8.9022  -6.1122  -5.0757   1.4710   2.2493   2.5080   4.4880

     occupation numbers 
     1.0000   1.0000   1.0000   1.0000   0.0000   0.0000   0.0000   0.0000

          k = 0.0833 0.1076 0.0000 (  2429 PWs)   bands (ev):

   -20.5865  -8.7508  -6.5029  -5.3015   1.6484   2.4264   2.6863   4.6613

     occupation numbers 
     1.0000   1.0000   1.0000   1.0000   0.0000   0.0000   0.0000   0.0000

          k = 0.0833 0.1614 0.0000 (  2435 PWs)   bands (ev):

   -20.3700  -8.4996  -7.0258  -5.7403   1.9438   2.7212   2.9832   4.9487

     occupation numbers 
     1.0000   1.0000   1.0000   1.0000   0.0000   0.0000   0.0000   0.0000

          k = 0.0833 0.2152 0.0000 (  2431 PWs)   bands (ev):

   -20.0679  -8.1503  -7.6158  -6.3709   2.3569   3.1333   3.3986   4.5266

     occupation numbers 
     1.0000   1.0000   1.0000   1.0000   0.0000   0.0000   0.0000   0.0000

          k = 0.0833 0.2691 0.0000 (  2423 PWs)   bands (ev):

   -19.6811  -8.2529  -7.7060  -7.1205   2.8872   3.6618   3.9281   4.1047

     occupation numbers 
     1.0000   1.0000   1.0000   1.0000   0.0000   0.0000   0.0000   0.0000

          k = 0.0833 0.3229 0.0000 (  2416 PWs)   bands (ev):

   -19.2109  -8.9669  -7.8756  -7.1708   3.5300   3.6982   4.2916   4.4452

     occupation numbers 
     1.0000   1.0000   1.0000   1.0000   0.0000   0.0000   0.0000   0.0000

          k = 0.0833 0.3767 0.0000 (  2410 PWs)   bands (ev):

   -18.6592  -9.8117  -8.5151  -6.5516   3.3302   3.5110   4.3011   5.0674

     occupation numbers 
     1.0000   1.0000   1.0000   1.0000   0.0000   0.0000   0.0000   0.0000

          k = 0.0833 0.4305 0.0000 (  2418 PWs)   bands (ev):

   -18.0284 -10.7739  -9.0010  -5.8589   2.5518   3.0251   5.1804   5.9347

     occupation numbers 
     1.0000   1.0000   1.0000   1.0000   0.0000   0.0000   0.0000   0.0000

          k = 0.0833 0.4843 0.0000 (  2406 PWs)   bands (ev):

   -17.3213 -11.7905  -9.3581  -5.1116   1.5796   2.7827   6.1739   6.9047

     occupation numbers 
     1.0000   1.0000   1.0000   1.0000   0.0000   0.0000   0.0000   0.0000

          k = 0.0833 0.5381 0.0000 (  2401 PWs)   bands (ev):

   -16.5421 -12.8136  -9.6059  -4.3492   0.6456   2.6074   7.2784   7.9565

     occupation numbers 
     1.0000   1.0000   1.0000   1.0000   0.0000   0.0000   0.0000   0.0000

          k = 0.0833-0.6996 0.0000 (  2420 PWs)   bands (ev):

   -15.6975 -13.8122  -9.7530  -3.6752  -0.1364   2.5014   8.4879   9.0195

     occupation numbers 
     1.0000   1.0000   1.0000   1.0000   0.0000   0.0000   0.0000   0.0000

          k = 0.0833-0.6457 0.0000 (  2418 PWs)   bands (ev):

   -14.8961 -14.6660  -9.8018  -3.3638  -0.4845   2.4659   9.7661   9.8122

     occupation numbers 
     1.0000   1.0000   1.0000   1.0000   0.0000   0.0000   0.0000   0.0000

          k = 0.0833-0.5919 0.0000 (  2420 PWs)   bands (ev):

   -15.6975 -13.8121  -9.7531  -3.6752  -0.1363   2.5014   8.4879   9.0194

     occupation numbers 
     1.0000   1.0000   1.0000   1.0000   0.0000   0.0000   0.0000   0.0000

          k = 0.0833-0.5381 0.0000 (  2401 PWs)   bands (ev):

   -16.5421 -12.8135  -9.6060  -4.3493   0.6458   2.6074   7.2784   7.9565

     occupation numbers 
     1.0000   1.0000   1.0000   1.0000   0.0000   0.0000   0.0000   0.0000

          k = 0.0833-0.4843 0.0000 (  2406 PWs)   bands (ev):

   -17.3212 -11.7904  -9.3582  -5.1117   1.5798   2.7827   6.1739   6.9046

     occupation numbers 
     1.0000   1.0000   1.0000   1.0000   0.0000   0.0000   0.0000   0.0000

          k = 0.0833-0.4305 0.0000 (  2418 PWs)   bands (ev):

   -18.0283 -10.7736  -9.0013  -5.8590   2.5520   3.0250   5.1804   5.9348

     occupation numbers 
     1.0000   1.0000   1.0000   1.0000   0.0000   0.0000   0.0000   0.0000

          k = 0.0833-0.3767 0.0000 (  2410 PWs)   bands (ev):

   -18.6592  -9.8112  -8.5156  -6.5516   3.3301   3.5112   4.3012   5.0674

     occupation numbers 
     1.0000   1.0000   1.0000   1.0000   0.0000   0.0000   0.0000   0.0000

          k = 0.0833-0.3229 0.0000 (  2416 PWs)   bands (ev):

   -19.2109  -8.9661  -7.8764  -7.1709   3.5299   3.6981   4.2916   4.4452

     occupation numbers 
     1.0000   1.0000   1.0000   1.0000   0.0000   0.0000   0.0000   0.0000

          k = 0.0833-0.2691 0.0000 (  2423 PWs)   bands (ev):

   -19.6810  -8.2520  -7.7060  -7.1215   2.8872   3.6618   3.9281   4.1046

     occupation numbers 
     1.0000   1.0000   1.0000   1.0000   0.0000   0.0000   0.0000   0.0000

          k = 0.0833-0.2152 0.0000 (  2431 PWs)   bands (ev):

   -20.0679  -8.1503  -7.6150  -6.3718   2.3569   3.1333   3.3986   4.5265

     occupation numbers 
     1.0000   1.0000   1.0000   1.0000   0.0000   0.0000   0.0000   0.0000

          k = 0.0833-0.1614 0.0000 (  2435 PWs)   bands (ev):

   -20.3700  -8.4996  -7.0250  -5.7412   1.9438   2.7212   2.9832   4.9409

     occupation numbers 
     1.0000   1.0000   1.0000   1.0000   0.0000   0.0000   0.0000   0.0000

          k = 0.0833-0.1076 0.0000 (  2429 PWs)   bands (ev):

   -20.5865  -8.7508  -6.5022  -5.3023   1.6484   2.4264   2.6863   4.6613

     occupation numbers 
     1.0000   1.0000   1.0000   1.0000   0.0000   0.0000   0.0000   0.0000

          k = 0.1250-0.0807 0.0000 (  2424 PWs)   bands (ev):

   -20.5340  -8.6886  -6.7942  -5.4065   1.7203   2.4999   2.7589   4.7332

     occupation numbers 
     1.0000   1.0000   1.0000   1.0000   0.0000   0.0000   0.0000   0.0000

          k = 0.1250-0.0269 0.0000 (  2415 PWs)   bands (ev):

   -20.6206  -8.7891  -6.4538  -5.3818   1.6019   2.3820   2.6399   4.6186

     occupation numbers 
     1.0000   1.0000   1.0000   1.0000   0.0000   0.0000   0.0000   0.0000

          k = 0.1250 0.0269 0.0000 (  2415 PWs)   bands (ev):

   -20.6206  -8.7891  -6.4541  -5.3814   1.6019   2.3820   2.6399   4.6186

     occupation numbers 
     1.0000   1.0000   1.0000   1.0000   0.0000   0.0000   0.0000   0.0000

          k = 0.1250 0.0807 0.0000 (  2424 PWs)   bands (ev):

   -20.5340  -8.6885  -6.7949  -5.4057   1.7203   2.4999   2.7589   4.7334

     occupation numbers 
     1.0000   1.0000   1.0000   1.0000   0.0000   0.0000   0.0000   0.0000

          k = 0.1250 0.1345 0.0000 (  2422 PWs)   bands (ev):

   -20.3609  -8.4881  -7.3100  -5.6053   1.9570   2.7353   2.9968   4.9608

     occupation numbers 
     1.0000   1.0000   1.0000   1.0000   0.0000   0.0000   0.0000   0.0000

          k = 0.1250 0.1883 0.0000 (  2418 PWs)   bands (ev):

   -20.1020  -8.1892  -7.8957  -6.0392   2.3115   3.0878   3.3533   5.2899

     occupation numbers 
     1.0000   1.0000   1.0000   1.0000   0.0000   0.0000   0.0000   0.0000

          k = 0.1250 0.2422 0.0000 (  2426 PWs)   bands (ev):

   -19.7582  -8.5049  -7.7943  -6.6792   2.7835   3.5559   3.8282   4.9836

     occupation numbers 
     1.0000   1.0000   1.0000   1.0000   0.0000   0.0000   0.0000   0.0000

          k = 0.1250 0.2960 0.0000 (  2417 PWs)   bands (ev):

   -19.3306  -9.1239  -7.4513  -7.3067   3.3726   4.1241   4.4181   4.5183

     occupation numbers 
     1.0000   1.0000   1.0000   1.0000   0.0000   0.0000   0.0000   0.0000

          k = 0.1250 0.3498 0.0000 (  2411 PWs)   bands (ev):

   -18.8210  -9.7729  -8.2553  -6.7321   3.6527   4.0736   4.2007   4.8530

     occupation numbers 
     1.0000   1.0000   1.0000   1.0000   0.0000   0.0000   0.0000   0.0000

          k = 0.1250 0.4036 0.0000 (  2413 PWs)   bands (ev):

   -18.2315 -10.5060  -8.9732  -6.0784   2.7691   3.8660   4.9015   5.6588

     occupation numbers 
     1.0000   1.0000   1.0000   1.0000   0.0000   0.0000   0.0000   0.0000

          k = 0.1250 0.4574 0.0000 (  2408 PWs)   bands (ev):

   -17.5652 -11.3598  -9.5195  -5.3590   1.8512   3.5955   5.8373   6.5690

     occupation numbers 
     1.0000   1.0000   1.0000   1.0000   0.0000   0.0000   0.0000   0.0000

          k = 0.1250 0.5112 0.0000 (  2407 PWs)   bands (ev):

   -16.8259 -12.2996  -9.8933  -4.5985   0.9324   3.3887   6.8852   7.5618

     occupation numbers 
     1.0000   1.0000   1.0000   1.0000   0.0000   0.0000   0.0000   0.0000

          k = 0.1250-0.7265 0.0000 (  2425 PWs)   bands (ev):

   -16.0191 -13.2671 -10.1264  -3.8551   0.0776   3.2491   8.0402   8.5675

     occupation numbers 
     1.0000   1.0000   1.0000   1.0000   0.0000   0.0000   0.0000   0.0000

          k = 0.1250-0.6726 0.0000 (  2423 PWs)   bands (ev):

   -15.1560 -14.2176 -10.2389  -3.2987  -0.5363   3.1789   9.2910   9.3106

     occupation numbers 
     1.0000   1.0000   1.0000   1.0000   0.0000   0.0000   0.0000   0.0000

          k = 0.1250-0.6188 0.0000 (  2423 PWs)   bands (ev):

   -15.1560 -14.2175 -10.2389  -3.2988  -0.5363   3.1789   9.2911   9.3105

     occupation numbers 
     1.0000   1.0000   1.0000   1.0000   0.0000   0.0000   0.0000   0.0000

          k = 0.1250-0.5650 0.0000 (  2425 PWs)   bands (ev):

   -16.0191 -13.2670 -10.1265  -3.8552   0.0777   3.2491   8.0402   8.5674

     occupation numbers 
     1.0000   1.0000   1.0000   1.0000   0.0000   0.0000   0.0000   0.0000

          k = 0.1250-0.5112 0.0000 (  2407 PWs)   bands (ev):

   -16.8259 -12.2994  -9.8936  -4.5986   0.9326   3.3886   6.8852   7.5618

     occupation numbers 
     1.0000   1.0000   1.0000   1.0000   0.0000   0.0000   0.0000   0.0000

          k = 0.1250-0.4574 0.0000 (  2408 PWs)   bands (ev):

   -17.5652 -11.3595  -9.5199  -5.3590   1.8515   3.5955   5.8373   6.5689

     occupation numbers 
     1.0000   1.0000   1.0000   1.0000   0.0000   0.0000   0.0000   0.0000

          k = 0.1250-0.4036 0.0000 (  2413 PWs)   bands (ev):

   -18.2315 -10.5055  -8.9738  -6.0784   2.7694   3.8659   4.9015   5.6584

     occupation numbers 
     1.0000   1.0000   1.0000   1.0000   0.0000   0.0000   0.0000   0.0000

          k = 0.1250-0.3498 0.0000 (  2411 PWs)   bands (ev):

   -18.8210  -9.7723  -8.2561  -6.7321   3.6530   4.0736   4.2006   4.8529

     occupation numbers 
     1.0000   1.0000   1.0000   1.0000   0.0000   0.0000   0.0000   0.0000

          k = 0.1250-0.2960 0.0000 (  2417 PWs)   bands (ev):

   -19.3306  -9.1232  -7.4521  -7.3068   3.3726   4.1241   4.4181   4.5186

     occupation numbers 
     1.0000   1.0000   1.0000   1.0000   0.0000   0.0000   0.0000   0.0000

          k = 0.1250-0.2422 0.0000 (  2426 PWs)   bands (ev):

   -19.7582  -8.5041  -7.7943  -6.6801   2.7835   3.5559   3.8282   4.9835

     occupation numbers 
     1.0000   1.0000   1.0000   1.0000   0.0000   0.0000   0.0000   0.0000

          k = 0.1250-0.1883 0.0000 (  2418 PWs)   bands (ev):

   -20.1020  -8.1892  -7.8950  -6.0401   2.3115   3.0878   3.3533   5.2899

     occupation numbers 
     1.0000   1.0000   1.0000   1.0000   0.0000   0.0000   0.0000   0.0000

          k = 0.1250-0.1345 0.0000 (  2422 PWs)   bands (ev):

   -20.3609  -8.4881  -7.3092  -5.6062   1.9570   2.7353   2.9968   4.9608

     occupation numbers 
     1.0000   1.0000   1.0000   1.0000   0.0000   0.0000   0.0000   0.0000

          k = 0.1667-0.1076 0.0000 (  2420 PWs)   bands (ev):

   -20.2792  -8.3918  -7.6641  -5.7548   2.0696   2.8496   3.1105   5.0692

     occupation numbers 
     1.0000   1.0000   1.0000   1.0000   0.0000   0.0000   0.0000   0.0000

          k = 0.1667-0.0538 0.0000 (  2412 PWs)   bands (ev):

   -20.4088  -8.5413  -7.1727  -5.7866   1.8920   2.6736   2.9320   4.9038

     occupation numbers 
     1.0000   1.0000   1.0000   1.0000   0.0000   0.0000   0.0000   0.0000

          k = 0.1667-0.0000 0.0000 (  2415 PWs)   bands (ev):

   -20.4520  -8.5912  -6.9507  -5.8574   1.8328   2.6149   2.8725   4.8475

     occupation numbers 
     1.0000   1.0000   1.0000   1.0000   0.0000   0.0000   0.0000   0.0000

          k = 0.1667 0.0538 0.0000 (  2412 PWs)   bands (ev):

   -20.4088  -8.5412  -7.1733  -5.7860   1.8920   2.6736   2.9320   4.9035

     occupation numbers 
     1.0000   1.0000   1.0000   1.0000   0.0000   0.0000   0.0000   0.0000

          k = 0.1667 0.1076 0.0000 (  2420 PWs)   bands (ev):

   -20.2792  -8.3918  -7.6648  -5.7539   2.0696   2.8496   3.1105   5.0692

     occupation numbers 
     1.0000   1.0000   1.0000   1.0000   0.0000   0.0000   0.0000   0.0000

          k = 0.1667 0.1614 0.0000 (  2426 PWs)   bands (ev):

   -20.0637  -8.2499  -8.1440  -5.9364   2.3654   3.1419   3.4079   5.3115

     occupation numbers 
     1.0000   1.0000   1.0000   1.0000   0.0000   0.0000   0.0000   0.0000

          k = 0.1667 0.2152 0.0000 (  2422 PWs)   bands (ev):

   -19.7632  -8.8569  -7.7997  -6.3731   2.7789   3.5478   3.8240   5.0662

     occupation numbers 
     1.0000   1.0000   1.0000   1.0000   0.0000   0.0000   0.0000   0.0000

          k = 0.1667 0.2691 0.0000 (  2428 PWs)   bands (ev):

   -19.3786  -9.4554  -7.3619  -7.0265   3.3097   4.0312   4.3584   4.4330

     occupation numbers 
     1.0000   1.0000   1.0000   1.0000   0.0000   0.0000   0.0000   0.0000

          k = 0.1667 0.3229 0.0000 (  2434 PWs)   bands (ev):

   -18.9118 -10.0360  -7.8212  -6.8352   3.6048   3.9571   4.7456   5.0093

     occupation numbers 
     1.0000   1.0000   1.0000   1.0000   0.0000   0.0000   0.0000   0.0000

          k = 0.1667 0.3767 0.0000 (  2416 PWs)   bands (ev):

   -18.3647 -10.6123  -8.6656  -6.2258   2.8120   4.7185   4.9037   5.4867

     occupation numbers 
     1.0000   1.0000   1.0000   1.0000   0.0000   0.0000   0.0000   0.0000

          k = 0.1667 0.4305 0.0000 (  2414 PWs)   bands (ev):

   -17.7404 -11.2290  -9.4526  -5.5437   1.9756   4.6049   5.5996   6.3373

     occupation numbers 
     1.0000   1.0000   1.0000   1.0000   0.0000   0.0000   0.0000   0.0000

          k = 0.1667 0.4843 0.0000 (  2406 PWs)   bands (ev):

   -17.0429 -11.9487 -10.0732  -4.8050   1.1157   4.3683   6.5902   7.2706

     occupation numbers 
     1.0000   1.0000   1.0000   1.0000   0.0000   0.0000   0.0000   0.0000

          k = 0.1667-0.7534 0.0000 (  2425 PWs)   bands (ev):

   -16.2778 -12.7826 -10.4818  -4.0423   0.2646   4.1959   7.6892   8.2135

     occupation numbers 
     1.0000   1.0000   1.0000   1.0000   0.0000   0.0000   0.0000   0.0000

          k = 0.1667-0.6996 0.0000 (  2425 PWs)   bands (ev):

   -15.4532 -13.6768 -10.7053  -3.3417  -0.4901   4.0915   8.8871   8.9087

     occupation numbers 
     1.0000   1.0000   1.0000   1.0000   0.0000   0.0000   0.0000   0.0000

          k = 0.1667-0.6457 0.0000 (  2431 PWs)   bands (ev):

   -14.6278 -14.5301 -10.7762  -2.9940  -0.8562   4.0565   9.1041  10.1258

     occupation numbers 
     1.0000   1.0000   1.0000   1.0008   0.0000   0.0000   0.0000   0.0000

          k = 0.1667-0.5919 0.0000 (  2425 PWs)   bands (ev):

   -15.4532 -13.6767 -10.7054  -3.3419  -0.4899   4.0915   8.8872   8.9086

     occupation numbers 
     1.0000   1.0000   1.0000   1.0000   0.0000   0.0000   0.0000   0.0000

          k = 0.1667-0.5381 0.0000 (  2425 PWs)   bands (ev):

   -16.2778 -12.7824 -10.4821  -4.0424   0.2649   4.1959   7.6892   8.2134

     occupation numbers 
     1.0000   1.0000   1.0000   1.0000   0.0000   0.0000   0.0000   0.0000

          k = 0.1667-0.4843 0.0000 (  2406 PWs)   bands (ev):

   -17.0429 -11.9483 -10.0736  -4.8052   1.1161   4.3683   6.5902   7.2705

     occupation numbers 
     1.0000   1.0000   1.0000   1.0000   0.0000   0.0000   0.0000   0.0000

          k = 0.1667-0.4305 0.0000 (  2414 PWs)   bands (ev):

   -17.7404 -11.2285  -9.4532  -5.5438   1.9759   4.6048   5.5996   6.3372

     occupation numbers 
     1.0000   1.0000   1.0000   1.0000   0.0000   0.0000   0.0000   0.0000

          k = 0.1667-0.3767 0.0000 (  2416 PWs)   bands (ev):

   -18.3647 -10.6117  -8.6663  -6.2259   2.8123   4.7185   4.9036   5.4867

     occupation numbers 
     1.0000   1.0000   1.0000   1.0000   0.0000   0.0000   0.0000   0.0000

          k = 0.1667-0.3229 0.0000 (  2434 PWs)   bands (ev):

   -18.9118 -10.0354  -7.8220  -6.8352   3.6052   3.9571   4.7459   5.0098

     occupation numbers 
     1.0000   1.0000   1.0000   1.0000   0.0000   0.0000   0.0000   0.0000

          k = 0.1667-0.2691 0.0000 (  2428 PWs)   bands (ev):

   -19.3786  -9.4547  -7.3619  -7.0273   3.3097   4.0312   4.3584   4.4333

     occupation numbers 
     1.0000   1.0000   1.0000   1.0000   0.0000   0.0000   0.0000   0.0000

          k = 0.1667-0.2152 0.0000 (  2422 PWs)   bands (ev):

   -19.7632  -8.8562  -7.7997  -6.3739   2.7789   3.5478   3.8240   5.0665

     occupation numbers 
     1.0000   1.0000   1.0000   1.0000   0.0000   0.0000   0.0000   0.0000

          k = 0.1667-0.1614 0.0000 (  2426 PWs)   bands (ev):

   -20.0637  -8.2492  -8.1440  -5.9373   2.3654   3.1419   3.4079   5.3115

     occupation numbers 
     1.0000   1.0000   1.0000   1.0000   0.0000   0.0000   0.0000   0.0000

          k = 0.2083-0.1345 0.0000 (  2423 PWs)   bands (ev):

   -19.9533  -8.6396  -8.0149  -6.1034   2.5187   3.2951   3.5626   5.2394

     occupation numbers 
     1.0000   1.0000   1.0000   1.0000   0.0000   0.0000   0.0000   0.0000

          k = 0.2083-0.0807 0.0000 (  2426 PWs)   bands (ev):

   -20.1252  -8.2114  -8.0589  -6.1753   2.2821   3.0638   3.3248   5.2659

     occupation numbers 
     1.0000   1.0000   1.0000   1.0000   0.0000   0.0000   0.0000   0.0000

          k = 0.2083-0.0269 0.0000 (  2405 PWs)   bands (ev):

   -20.2114  -8.3100  -7.6296  -6.3603   2.1638   2.9474   3.2059   5.1719

     occupation numbers 
     1.0000   1.0000   1.0000   1.0000   0.0000   0.0000   0.0000   0.0000

          k = 0.2083 0.0269 0.0000 (  2405 PWs)   bands (ev):

   -20.2114  -8.3100  -7.6299  -6.3599   2.1638   2.9474   3.2059   5.1719

     occupation numbers 
     1.0000   1.0000   1.0000   1.0000   0.0000   0.0000   0.0000   0.0000

          k = 0.2083 0.0807 0.0000 (  2426 PWs)   bands (ev):

   -20.1253  -8.2114  -8.0595  -6.1745   2.2821   3.0638   3.3248   5.2662

     occupation numbers 
     1.0000   1.0000   1.0000   1.0000   0.0000   0.0000   0.0000   0.0000

          k = 0.2083 0.1345 0.0000 (  2423 PWs)   bands (ev):

   -19.9533  -8.6402  -8.0149  -6.1025   2.5187   3.2951   3.5626   5.2396

     occupation numbers 
     1.0000   1.0000   1.0000   1.0000   0.0000   0.0000   0.0000   0.0000

          k = 0.2083 0.1883 0.0000 (  2429 PWs)   bands (ev):

   -19.6962  -9.2546  -7.7221  -6.2765   2.8734   3.6345   3.9195   4.7602

     occupation numbers 
     1.0000   1.0000   1.0000   1.0000   0.0000   0.0000   0.0000   0.0000

          k = 0.2083 0.2422 0.0000 (  2434 PWs)   bands (ev):

   -19.3551  -9.8580  -7.3358  -6.7180   3.3456   3.9401   4.2974   4.3950

     occupation numbers 
     1.0000   1.0000   1.0000   1.0000   0.0000   0.0000   0.0000   0.0000

          k = 0.2083 0.2960 0.0000 (  2440 PWs)   bands (ev):

   -18.9315 -10.4297  -7.3823  -6.8597   3.3956   3.9347   4.7383   4.9887

     occupation numbers 
     1.0000   1.0000   1.0000   1.0000   0.0000   0.0000   0.0000   0.0000

          k = 0.2083 0.3498 0.0000 (  2429 PWs)   bands (ev):

   -18.4276 -10.9631  -8.1924  -6.2993   2.6838   4.6399   5.4193   5.6996

     occupation numbers 
     1.0000   1.0000   1.0000   1.0000   0.0000   0.0000   0.0000   0.0000

          k = 0.2083 0.4036 0.0000 (  2424 PWs)   bands (ev):

   -17.8466 -11.4667  -9.0632  -5.6622   1.9353   5.4591   5.7537   6.2119

     occupation numbers 
     1.0000   1.0000   1.0000   1.0000   0.0000   0.0000   0.0000   0.0000

          k = 0.2083 0.4574 0.0000 (  2426 PWs)   bands (ev):

   -17.1926 -11.9727  -9.9012  -4.9602   1.1600   5.4861   6.3938   7.0897

     occupation numbers 
     1.0000   1.0000   1.0000   1.0000   0.0000   0.0000   0.0000   0.0000

          k = 0.2083-0.7803 0.0000 (  2426 PWs)   bands (ev):

   -16.4719 -12.5459 -10.5954  -4.2122   0.3675   5.2814   7.4359   7.9804

     occupation numbers 
     1.0000   1.0000   1.0000   1.0000   0.0000   0.0000   0.0000   0.0000

          k = 0.2083-0.7265 0.0000 (  2423 PWs)   bands (ev):

   -15.6943 -13.2430 -11.0535  -3.4573  -0.4117   5.1422   8.5792   8.6212

     occupation numbers 
     1.0000   1.0000   1.0000   1.0000   0.0000   0.0000   0.0000   0.0000

          k = 0.2083-0.6726 0.0000 (  2429 PWs)   bands (ev):

   -14.8757 -14.0404 -11.2671  -2.8329  -1.0471   5.0719   8.7941   9.8009

     occupation numbers 
     1.0000   1.0000   1.0000   1.0093   0.0000   0.0000   0.0000   0.0000

          k = 0.2083-0.6188 0.0000 (  2429 PWs)   bands (ev):

   -14.8758 -14.0403 -11.2671  -2.8330  -1.0469   5.0719   8.7940   9.8009

     occupation numbers 
     1.0000   1.0000   1.0000   1.0092   0.0000   0.0000   0.0000   0.0000

          k = 0.2083-0.5650 0.0000 (  2423 PWs)   bands (ev):

   -15.6943 -13.2427 -11.0538  -3.4575  -0.4114   5.1422   8.5792   8.6211

     occupation numbers 
     1.0000   1.0000   1.0000   1.0000   0.0000   0.0000   0.0000   0.0000

          k = 0.2083-0.5112 0.0000 (  2426 PWs)   bands (ev):

   -16.4719 -12.5455 -10.5959  -4.2124   0.3679   5.2813   7.4360   7.9803

     occupation numbers 
     1.0000   1.0000   1.0000   1.0000   0.0000   0.0000   0.0000   0.0000

          k = 0.2083-0.4574 0.0000 (  2426 PWs)   bands (ev):

   -17.1925 -11.9723  -9.9018  -4.9604   1.1604   5.4860   6.3938   7.0896

     occupation numbers 
     1.0000   1.0000   1.0000   1.0000   0.0000   0.0000   0.0000   0.0000

          k = 0.2083-0.4036 0.0000 (  2424 PWs)   bands (ev):

   -17.8465 -11.4661  -9.0638  -5.6623   1.9357   5.4591   5.7536   6.2119

     occupation numbers 
     1.0000   1.0000   1.0000   1.0000   0.0000   0.0000   0.0000   0.0000

          k = 0.2083-0.3498 0.0000 (  2429 PWs)   bands (ev):

   -18.4276 -10.9626  -8.1931  -6.2994   2.6842   4.6399   5.4193   5.6996

     occupation numbers 
     1.0000   1.0000   1.0000   1.0000   0.0000   0.0000   0.0000   0.0000

          k = 0.2083-0.2960 0.0000 (  2440 PWs)   bands (ev):

   -18.9315 -10.4292  -7.3830  -6.8598   3.3960   3.9347   4.7383   4.9887

     occupation numbers 
     1.0000   1.0000   1.0000   1.0000   0.0000   0.0000   0.0000   0.0000

          k = 0.2083-0.2422 0.0000 (  2434 PWs)   bands (ev):

   -19.3550  -9.8575  -7.3359  -6.7188   3.3456   3.9402   4.2976   4.3950

     occupation numbers 
     1.0000   1.0000   1.0000   1.0000   0.0000   0.0000   0.0000   0.0000

          k = 0.2083-0.1883 0.0000 (  2429 PWs)   bands (ev):

   -19.6962  -9.2540  -7.7222  -6.2773   2.8734   3.6345   3.9195   4.7604

     occupation numbers 
     1.0000   1.0000   1.0000   1.0000   0.0000   0.0000   0.0000   0.0000

          k = 0.2500-0.1614 0.0000 (  2427 PWs)   bands (ev):

   -19.5577  -9.6625  -7.5623  -6.4365   3.0670   3.7968   4.1149   4.3788

     occupation numbers 
     1.0000   1.0000   1.0000   1.0000   0.0000   0.0000   0.0000   0.0000

          k = 0.2500-0.1076 0.0000 (  2419 PWs)   bands (ev):

   -19.7712  -9.0391  -7.8028  -6.5327   2.7717   3.5457   3.8180   4.8214

     occupation numbers 
     1.0000   1.0000   1.0000   1.0000   0.0000   0.0000   0.0000   0.0000

          k = 0.2500-0.0538 0.0000 (  2421 PWs)   bands (ev):

   -19.8997  -8.4784  -7.9481  -6.8022   2.5945   3.3776   3.6399   5.1525

     occupation numbers 
     1.0000   1.0000   1.0000   1.0000   0.0000   0.0000   0.0000   0.0000

          k = 0.2500 0.0000 0.0000 (  2411 PWs)   bands (ev):

   -19.9426  -8.1995  -7.9966  -6.9893   2.5354   3.3207   3.5806   5.2855

     occupation numbers 
     1.0000   1.0000   1.0000   1.0000   0.0000   0.0000   0.0000   0.0000

          k = 0.2500 0.0538 0.0000 (  2421 PWs)   bands (ev):

   -19.8997  -8.4789  -7.9480  -6.8016   2.5945   3.3776   3.6399   5.1523

     occupation numbers 
     1.0000   1.0000   1.0000   1.0000   0.0000   0.0000   0.0000   0.0000

          k = 0.2500 0.1076 0.0000 (  2419 PWs)   bands (ev):

   -19.7712  -9.0397  -7.8028  -6.5320   2.7717   3.5457   3.8179   4.8212

     occupation numbers 
     1.0000   1.0000   1.0000   1.0000   0.0000   0.0000   0.0000   0.0000

          k = 0.2500 0.1614 0.0000 (  2427 PWs)   bands (ev):

   -19.5577  -9.6631  -7.5622  -6.4357   3.0670   3.7969   4.1149   4.3786

     occupation numbers 
     1.0000   1.0000   1.0000   1.0000   0.0000   0.0000   0.0000   0.0000

          k = 0.2500 0.2152 0.0000 (  2424 PWs)   bands (ev):

   -19.2603 -10.2812  -7.2285  -6.6055   3.4803   3.6672   4.3385   4.5309

     occupation numbers 
     1.0000   1.0000   1.0000   1.0000   0.0000   0.0000   0.0000   0.0000

          k = 0.2500 0.2691 0.0000 (  2436 PWs)   bands (ev):

   -18.8804 -10.8651  -7.0508  -6.8055   3.0725   4.0110   4.8245   5.0658

     occupation numbers 
     1.0000   1.0000   1.0000   1.0000   0.0000   0.0000   0.0000   0.0000

          k = 0.2500 0.3229 0.0000 (  2433 PWs)   bands (ev):

   -18.4205 -11.4004  -7.7206  -6.2980   2.4204   4.6579   5.4521   5.7188

     occupation numbers 
     1.0000   1.0000   1.0000   1.0000   0.0000   0.0000   0.0000   0.0000

          k = 0.2500 0.3767 0.0000 (  2440 PWs)   bands (ev):

   -17.8837 -11.8818  -8.5377  -5.7128   1.7479   5.4199   6.1901   6.4887

     occupation numbers 
     1.0000   1.0000   1.0000   1.0000   0.0000   0.0000   0.0000   0.0000

          k = 0.2500 0.4305 0.0000 (  2431 PWs)   bands (ev):

   -17.2750 -12.3131  -9.4204  -5.0596   1.0611   6.2943   6.6876   7.0178

     occupation numbers 
     1.0000   1.0000   1.0000   1.0000   0.0000   0.0000   0.0000   0.0000

          k = 0.2500-0.8072 0.0000 (  2432 PWs)   bands (ev):

   -16.6021 -12.7148 -10.2871  -4.3514   0.3573   6.4452   7.2813   7.8723

     occupation numbers 
     1.0000   1.0000   1.0000   1.0000   0.0000   0.0000   0.0000   0.0000

          k = 0.2500-0.7534 0.0000 (  2426 PWs)   bands (ev):

   -15.8779 -13.1387 -11.0355  -3.6075  -0.3638   6.2692   8.3686   8.4966

     occupation numbers 
     1.0000   1.0000   1.0000   1.0000   0.0000   0.0000   0.0000   0.0000

          k = 0.2500-0.6996 0.0000 (  2433 PWs)   bands (ev):

   -15.1287 -13.6629 -11.5379  -2.8672  -1.0817   6.1620   8.6078   9.5392

     occupation numbers 
     1.0000   1.0000   1.0000   1.0059   0.0000   0.0000   0.0000   0.0000

          k = 0.2500-0.6457 0.0000 (  2439 PWs)   bands (ev):

   -14.5319 -14.1820 -11.7095  -2.3824  -1.5574   6.1260   8.5800  10.6661

     occupation numbers 
     1.0000   1.0000   1.0000   0.9835   0.0001   0.0000   0.0000   0.0000

          k = 0.2500-0.5919 0.0000 (  2433 PWs)   bands (ev):

   -15.1287 -13.6626 -11.5382  -2.8675  -1.0813   6.1620   8.6077   9.5392

     occupation numbers 
     1.0000   1.0000   1.0000   1.0059   0.0000   0.0000   0.0000   0.0000

          k = 0.2500-0.5381 0.0000 (  2426 PWs)   bands (ev):

   -15.8779 -13.1383 -11.0359  -3.6078  -0.3633   6.2692   8.3686   8.4965

     occupation numbers 
     1.0000   1.0000   1.0000   1.0000   0.0000   0.0000   0.0000   0.0000

          k = 0.2500-0.4843 0.0000 (  2432 PWs)   bands (ev):

   -16.6021 -12.7144 -10.2876  -4.3517   0.3578   6.4452   7.2813   7.8723

     occupation numbers 
     1.0000   1.0000   1.0000   1.0000   0.0000   0.0000   0.0000   0.0000

          k = 0.2500-0.4305 0.0000 (  2431 PWs)   bands (ev):

   -17.2750 -12.3126  -9.4210  -5.0598   1.0615   6.2943   6.6876   7.0178

     occupation numbers 
     1.0000   1.0000   1.0000   1.0000   0.0000   0.0000   0.0000   0.0000

          k = 0.2500-0.3767 0.0000 (  2440 PWs)   bands (ev):

   -17.8837 -11.8813  -8.5383  -5.7130   1.7483   5.4199   6.1902   6.4888

     occupation numbers 
     1.0000   1.0000   1.0000   1.0000   0.0000   0.0000   0.0000   0.0000

          k = 0.2500-0.3229 0.0000 (  2433 PWs)   bands (ev):

   -18.4204 -11.3999  -7.7213  -6.2981   2.4208   4.6579   5.4521   5.7188

     occupation numbers 
     1.0000   1.0000   1.0000   1.0000   0.0000   0.0000   0.0000   0.0000

          k = 0.2500-0.2691 0.0000 (  2436 PWs)   bands (ev):

   -18.8804 -10.8646  -7.0515  -6.8056   3.0728   4.0110   4.8245   5.0658

     occupation numbers 
     1.0000   1.0000   1.0000   1.0000   0.0000   0.0000   0.0000   0.0000

          k = 0.2500-0.2152 0.0000 (  2424 PWs)   bands (ev):

   -19.2602 -10.2806  -7.2286  -6.6063   3.4803   3.6675   4.3386   4.5309

     occupation numbers 
     1.0000   1.0000   1.0000   1.0000   0.0000   0.0000   0.0000   0.0000

          k = 0.2917-0.1883 0.0000 (  2432 PWs)   bands (ev):

   -19.0950 -10.6947  -7.0413  -6.7399   3.2599   3.7136   4.5456   4.7661

     occupation numbers 
     1.0000   1.0000   1.0000   1.0000   0.0000   0.0000   0.0000   0.0000

          k = 0.2917-0.1345 0.0000 (  2439 PWs)   bands (ev):

   -19.3486 -10.0589  -7.3212  -6.8516   3.3600   3.7539   4.2293   4.4109

     occupation numbers 
     1.0000   1.0000   1.0000   1.0000   0.0000   0.0000   0.0000   0.0000

          k = 0.2917-0.0807 0.0000 (  2427 PWs)   bands (ev):

   -19.5185  -9.4318  -7.5095  -7.1718   3.1243   3.8770   4.1741   4.2877

     occupation numbers 
     1.0000   1.0000   1.0000   1.0000   0.0000   0.0000   0.0000   0.0000

          k = 0.2917-0.0269 0.0000 (  2421 PWs)   bands (ev):

   -19.6037  -8.9351  -7.6042  -7.5313   3.0065   3.7905   4.0557   4.4931

     occupation numbers 
     1.0000   1.0000   1.0000   1.0000   0.0000   0.0000   0.0000   0.0000

          k = 0.2917 0.0269 0.0000 (  2421 PWs)   bands (ev):

   -19.6037  -8.9353  -7.6042  -7.5310   3.0065   3.7905   4.0557   4.4931

     occupation numbers 
     1.0000   1.0000   1.0000   1.0000   0.0000   0.0000   0.0000   0.0000

          k = 0.2917 0.0807 0.0000 (  2427 PWs)   bands (ev):

   -19.5185  -9.4323  -7.5094  -7.1712   3.1243   3.8770   4.1741   4.2875

     occupation numbers 
     1.0000   1.0000   1.0000   1.0000   0.0000   0.0000   0.0000   0.0000

          k = 0.2917 0.1345 0.0000 (  2439 PWs)   bands (ev):

   -19.3486 -10.0594  -7.3211  -6.8509   3.3600   3.7538   4.2292   4.4109

     occupation numbers 
     1.0000   1.0000   1.0000   1.0000   0.0000   0.0000   0.0000   0.0000

          k = 0.2917 0.1883 0.0000 (  2432 PWs)   bands (ev):

   -19.0950 -10.6951  -7.0412  -6.7392   3.2596   3.7136   4.5456   4.7661

     occupation numbers 
     1.0000   1.0000   1.0000   1.0000   0.0000   0.0000   0.0000   0.0000

          k = 0.2917 0.2422 0.0000 (  2431 PWs)   bands (ev):

   -18.7593 -11.2995  -6.9063  -6.6732   2.6786   4.1851   5.0046   5.2403

     occupation numbers 
     1.0000   1.0000   1.0000   1.0000   0.0000   0.0000   0.0000   0.0000

          k = 0.2917 0.2960 0.0000 (  2427 PWs)   bands (ev):

   -18.3439 -11.8528  -7.3527  -6.2223   2.0696   4.7737   5.5813   5.8343

     occupation numbers 
     1.0000   1.0000   1.0000   1.0000   0.0000   0.0000   0.0000   0.0000

          k = 0.2917 0.3498 0.0000 (  2431 PWs)   bands (ev):

   -17.8527 -12.3437  -8.0230  -5.6954   1.4566   5.4779   6.2673   6.5470

     occupation numbers 
     1.0000   1.0000   1.0000   1.0000   0.0000   0.0000   0.0000   0.0000

          k = 0.2917 0.4036 0.0000 (  2445 PWs)   bands (ev):

   -17.2915 -12.7661  -8.8385  -5.1021   0.8475   6.2953   7.0480   7.3761

     occupation numbers 
     1.0000   1.0000   1.0000   1.0000   0.0000   0.0000   0.0000   0.0000

          k = 0.2917-0.8341 0.0000 (  2438 PWs)   bands (ev):

   -16.6705 -13.1177  -9.7211  -4.4546   0.2406   7.2208   7.6154   7.8761

     occupation numbers 
     1.0000   1.0000   1.0000   1.0000   0.0000   0.0000   0.0000   0.0000

          k = 0.2917-0.7803 0.0000 (  2436 PWs)   bands (ev):

   -16.0089 -13.4032 -10.5952  -3.7688  -0.3739   7.3929   8.2567   8.5304

     occupation numbers 
     1.0000   1.0000   1.0000   1.0000   0.0000   0.0000   0.0000   0.0000

          k = 0.2917-0.7265 0.0000 (  2425 PWs)   bands (ev):

   -15.3508 -13.6407 -11.3648  -3.0632  -1.0077   7.2449   8.6079   9.3738

     occupation numbers 
     1.0000   1.0000   1.0000   1.0002   0.0000   0.0000   0.0000   0.0000

          k = 0.2917-0.6726 0.0000 (  2443 PWs)   bands (ev):

   -14.8271 -13.8479 -11.8607  -2.3580  -1.6686   7.1696   8.4823  10.5177

     occupation numbers 
     1.0000   1.0000   1.0000   0.9427   0.0012   0.0000   0.0000   0.0000

          k = 0.2917-0.6188 0.0000 (  2443 PWs)   bands (ev):

   -14.8272 -13.8477 -11.8609  -2.3585  -1.6681   7.1696   8.4822  10.5178

     occupation numbers 
     1.0000   1.0000   1.0000   0.9436   0.0012   0.0000   0.0000   0.0000

          k = 0.2917-0.5650 0.0000 (  2425 PWs)   bands (ev):

   -15.3508 -13.6403 -11.3652  -3.0636  -1.0071   7.2450   8.6077   9.3739

     occupation numbers 
     1.0000   1.0000   1.0000   1.0002   0.0000   0.0000   0.0000   0.0000

          k = 0.2917-0.5112 0.0000 (  2436 PWs)   bands (ev):

   -16.0089 -13.4028 -10.5957  -3.7692  -0.3733   7.3930   8.2567   8.5303

     occupation numbers 
     1.0000   1.0000   1.0000   1.0000   0.0000   0.0000   0.0000   0.0000

          k = 0.2917-0.4574 0.0000 (  2438 PWs)   bands (ev):

   -16.6705 -13.1172  -9.7216  -4.4549   0.2412   7.2208   7.6156   7.8760

     occupation numbers 
     1.0000   1.0000   1.0000   1.0000   0.0000   0.0000   0.0000   0.0000

          k = 0.2917-0.4036 0.0000 (  2445 PWs)   bands (ev):

   -17.2915 -12.7656  -8.8391  -5.1023   0.8480   6.2953   7.0480   7.3761

     occupation numbers 
     1.0000   1.0000   1.0000   1.0000   0.0000   0.0000   0.0000   0.0000

          k = 0.2917-0.3498 0.0000 (  2431 PWs)   bands (ev):

   -17.8527 -12.3433  -8.0236  -5.6956   1.4571   5.4779   6.2673   6.5470

     occupation numbers 
     1.0000   1.0000   1.0000   1.0000   0.0000   0.0000   0.0000   0.0000

          k = 0.2917-0.2960 0.0000 (  2427 PWs)   bands (ev):

   -18.3439 -11.8523  -7.3534  -6.2225   2.0701   4.7737   5.5813   5.8343

     occupation numbers 
     1.0000   1.0000   1.0000   1.0000   0.0000   0.0000   0.0000   0.0000

          k = 0.2917-0.2422 0.0000 (  2431 PWs)   bands (ev):

   -18.7593 -11.2990  -6.9070  -6.6734   2.6790   4.1851   5.0046   5.2404

     occupation numbers 
     1.0000   1.0000   1.0000   1.0000   0.0000   0.0000   0.0000   0.0000

          k = 0.3333-0.2152 0.0000 (  2431 PWs)   bands (ev):

   -18.5693 -11.7086  -7.0018  -6.4644   2.2474   4.4567   5.2801   5.5088

     occupation numbers 
     1.0000   1.0000   1.0000   1.0000   0.0000   0.0000   0.0000   0.0000

          k = 0.3333-0.1614 0.0000 (  2430 PWs)   bands (ev):

   -18.8604 -11.0808  -7.1241  -6.7752   2.7955   4.0459   4.8668   5.1017

     occupation numbers 
     1.0000   1.0000   1.0000   1.0000   0.0000   0.0000   0.0000   0.0000

          k = 0.3333-0.1076 0.0000 (  2436 PWs)   bands (ev):

   -19.0701 -10.4287  -7.4765  -7.0008   3.2722   3.7523   4.5653   4.8077

     occupation numbers 
     1.0000   1.0000   1.0000   1.0000   0.0000   0.0000   0.0000   0.0000

          k = 0.3333-0.0538 0.0000 (  2431 PWs)   bands (ev):

   -19.1965  -9.8158  -7.9398  -7.1374   3.5761   3.6141   4.3740   4.6307

     occupation numbers 
     1.0000   1.0000   1.0000   1.0000   0.0000   0.0000   0.0000   0.0000

          k = 0.3333-0.0000 0.0000 (  2429 PWs)   bands (ev):

   -19.2387  -9.4897  -8.2214  -7.1832   3.5174   3.7454   4.3031   4.5716

     occupation numbers 
     1.0000   1.0000   1.0000   1.0000   0.0000   0.0000   0.0000   0.0000

          k = 0.3333 0.0538 0.0000 (  2431 PWs)   bands (ev):

   -19.1965  -9.8162  -7.9393  -7.1374   3.5761   3.6140   4.3740   4.6307

     occupation numbers 
     1.0000   1.0000   1.0000   1.0000   0.0000   0.0000   0.0000   0.0000

          k = 0.3333 0.1076 0.0000 (  2436 PWs)   bands (ev):

   -19.0701 -10.4292  -7.4758  -7.0007   3.2720   3.7523   4.5652   4.8077

     occupation numbers 
     1.0000   1.0000   1.0000   1.0000   0.0000   0.0000   0.0000   0.0000

          k = 0.3333 0.1614 0.0000 (  2430 PWs)   bands (ev):

   -18.8605 -11.0813  -7.1234  -6.7751   2.7952   4.0459   4.8667   5.1017

     occupation numbers 
     1.0000   1.0000   1.0000   1.0000   0.0000   0.0000   0.0000   0.0000

          k = 0.3333 0.2152 0.0000 (  2431 PWs)   bands (ev):

   -18.5693 -11.7090  -7.0011  -6.4643   2.2471   4.4567   5.2801   5.5089

     occupation numbers 
     1.0000   1.0000   1.0000   1.0000   0.0000   0.0000   0.0000   0.0000

          k = 0.3333 0.2691 0.0000 (  2433 PWs)   bands (ev):

   -18.1994 -12.2862  -7.1659  -6.0738   1.6745   4.9849   5.8056   5.9860

     occupation numbers 
     1.0000   1.0000   1.0000   1.0000   0.0000   0.0000   0.0000   0.0000

          k = 0.3333 0.3229 0.0000 (  2437 PWs)   bands (ev):

   -17.7552 -12.7977  -7.6108  -5.6117   1.1084   5.6307   6.4400   6.4875

     occupation numbers 
     1.0000   1.0000   1.0000   1.0000   0.0000   0.0000   0.0000   0.0000

          k = 0.3333 0.3767 0.0000 (  2441 PWs)   bands (ev):

   -17.2445 -13.2316  -8.2766  -5.0892   0.5659   6.3913   7.1741   7.2461

     occupation numbers 
     1.0000   1.0000   1.0000   1.0000   0.0000   0.0000   0.0000   0.0000

          k = 0.3333-0.8610 0.0000 (  2440 PWs)   bands (ev):

   -16.6819 -13.5746  -9.0836  -4.5222   0.0532   7.2618   7.9750   8.1642

     occupation numbers 
     1.0000   1.0000   1.0000   1.0000   0.0000   0.0000   0.0000   0.0000

          k = 0.3333-0.8072 0.0000 (  2430 PWs)   bands (ev):

   -16.0985 -13.8045  -9.9555  -3.9321  -0.4316   8.2162   8.3587   8.6797

     occupation numbers 
     1.0000   1.0000   1.0000   1.0000   0.0000   0.0000   0.0000   0.0000

          k = 0.3333-0.7534 0.0000 (  2436 PWs)   bands (ev):

   -15.5670 -13.8735 -10.8187  -3.3500  -0.8930   8.1608   8.7825   9.3058

     occupation numbers 
     1.0000   1.0000   1.0000   1.0000   0.0000   0.0000   0.0000   0.0000

          k = 0.3333-0.6996 0.0000 (  2423 PWs)   bands (ev):

   -15.2185 -13.7257 -11.5666  -2.8339  -1.3134   8.0452   8.5451  10.4048

     occupation numbers 
     1.0000   1.0000   1.0000   1.0091   0.0000   0.0000   0.0000   0.0000

          k = 0.3333-0.6457 0.0000 (  2431 PWs)   bands (ev):

   -15.1132 -13.5610 -11.9225  -2.5734  -1.5375   8.0054   8.4351  10.7642

     occupation numbers 
     1.0000   1.0000   1.0000   1.0776   0.0001   0.0000   0.0000   0.0000

          k = 0.3333-0.5919 0.0000 (  2423 PWs)   bands (ev):

   -15.2186 -13.7253 -11.5670  -2.8343  -1.3128   8.0453   8.5450  10.4050

     occupation numbers 
     1.0000   1.0000   1.0000   1.0091   0.0000   0.0000   0.0000   0.0000

          k = 0.3333-0.5381 0.0000 (  2436 PWs)   bands (ev):

   -15.5671 -13.8730 -10.8192  -3.3505  -0.8924   8.1610   8.7824   9.3059

     occupation numbers 
     1.0000   1.0000   1.0000   1.0000   0.0000   0.0000   0.0000   0.0000

          k = 0.3333-0.4843 0.0000 (  2430 PWs)   bands (ev):

   -16.0985 -13.8041  -9.9560  -3.9325  -0.4310   8.2161   8.3593   8.6796

     occupation numbers 
     1.0000   1.0000   1.0000   1.0000   0.0000   0.0000   0.0000   0.0000

          k = 0.3333-0.4305 0.0000 (  2440 PWs)   bands (ev):

   -16.6819 -13.5742  -9.0842  -4.5226   0.0539   7.2618   7.9750   8.1648

     occupation numbers 
     1.0000   1.0000   1.0000   1.0000   0.0000   0.0000   0.0000   0.0000

          k = 0.3333-0.3767 0.0000 (  2441 PWs)   bands (ev):

   -17.2445 -13.2312  -8.2772  -5.0895   0.5665   6.3913   7.1742   7.2462

     occupation numbers 
     1.0000   1.0000   1.0000   1.0000   0.0000   0.0000   0.0000   0.0000

          k = 0.3333-0.3229 0.0000 (  2437 PWs)   bands (ev):

   -17.7551 -12.7973  -7.6115  -5.6119   1.1090   5.6307   6.4400   6.4873

     occupation numbers 
     1.0000   1.0000   1.0000   1.0000   0.0000   0.0000   0.0000   0.0000

          k = 0.3333-0.2691 0.0000 (  2433 PWs)   bands (ev):

   -18.1993 -12.2858  -7.1666  -6.0739   1.6750   4.9850   5.8056   5.9861

     occupation numbers 
     1.0000   1.0000   1.0000   1.0000   0.0000   0.0000   0.0000   0.0000

          k = 0.3750-0.2422 0.0000 (  2436 PWs)   bands (ev):

   -17.9886 -12.6812  -7.2134  -5.8549   1.2668   5.2870   5.9097   6.1243

     occupation numbers 
     1.0000   1.0000   1.0000   1.0000   0.0000   0.0000   0.0000   0.0000

          k = 0.3750-0.1883 0.0000 (  2438 PWs)   bands (ev):

   -18.3121 -12.0783  -7.3442  -6.1810   1.8004   4.8260   5.6509   5.8742

     occupation numbers 
     1.0000   1.0000   1.0000   1.0000   0.0000   0.0000   0.0000   0.0000

          k = 0.3750-0.1345 0.0000 (  2438 PWs)   bands (ev):

   -18.5583 -11.4276  -7.7187  -6.4329   2.3012   4.4767   5.2891   5.5386

     occupation numbers 
     1.0000   1.0000   1.0000   1.0000   0.0000   0.0000   0.0000   0.0000

          k = 0.3750-0.0807 0.0000 (  2433 PWs)   bands (ev):

   -18.7239 -10.7662  -8.2415  -6.6042   2.7068   4.2429   5.0405   5.3046

     occupation numbers 
     1.0000   1.0000   1.0000   1.0000   0.0000   0.0000   0.0000   0.0000

          k = 0.3750-0.0269 0.0000 (  2431 PWs)   bands (ev):

   -18.8071 -10.2159  -8.7373  -6.6908   2.9408   4.1258   4.9114   5.1870

     occupation numbers 
     1.0000   1.0000   1.0000   1.0000   0.0000   0.0000   0.0000   0.0000

          k = 0.3750 0.0269 0.0000 (  2431 PWs)   bands (ev):

   -18.8071 -10.2161  -8.7370  -6.6908   2.9408   4.1258   4.9114   5.1869

     occupation numbers 
     1.0000   1.0000   1.0000   1.0000   0.0000   0.0000   0.0000   0.0000

          k = 0.3750 0.0807 0.0000 (  2433 PWs)   bands (ev):

   -18.7239 -10.7667  -8.2409  -6.6042   2.7066   4.2429   5.0405   5.3046

     occupation numbers 
     1.0000   1.0000   1.0000   1.0000   0.0000   0.0000   0.0000   0.0000

          k = 0.3750 0.1345 0.0000 (  2438 PWs)   bands (ev):

   -18.5583 -11.4280  -7.7181  -6.4328   2.3009   4.4767   5.2891   5.5386

     occupation numbers 
     1.0000   1.0000   1.0000   1.0000   0.0000   0.0000   0.0000   0.0000

          k = 0.3750 0.1883 0.0000 (  2438 PWs)   bands (ev):

   -18.3121 -12.0787  -7.3435  -6.1808   1.8000   4.8260   5.6509   5.8742

     occupation numbers 
     1.0000   1.0000   1.0000   1.0000   0.0000   0.0000   0.0000   0.0000

          k = 0.3750 0.2422 0.0000 (  2436 PWs)   bands (ev):

   -17.9886 -12.6816  -7.2127  -5.8547   1.2664   5.2870   5.9098   6.1243

     occupation numbers 
     1.0000   1.0000   1.0000   1.0000   0.0000   0.0000   0.0000   0.0000

          k = 0.3750 0.2960 0.0000 (  2436 PWs)   bands (ev):

   -17.5937 -13.2167  -7.3746  -5.4647   0.7440   5.8347   6.0424   6.7070

     occupation numbers 
     1.0000   1.0000   1.0000   1.0000   0.0000   0.0000   0.0000   0.0000

          k = 0.3750 0.3498 0.0000 (  2443 PWs)   bands (ev):

   -17.1384 -13.6665  -7.8157  -5.0256   0.2628   6.4222   6.6247   7.3929

     occupation numbers 
     1.0000   1.0000   1.0000   1.0000   0.0000   0.0000   0.0000   0.0000

          k = 0.3750-0.8879 0.0000 (  2445 PWs)   bands (ev):

   -16.6454 -14.0066  -8.4729  -4.5594  -0.1572   7.2157   7.4187   8.1605

     occupation numbers 
     1.0000   1.0000   1.0000   1.0000   0.0000   0.0000   0.0000   0.0000

          k = 0.3750-0.8341 0.0000 (  2444 PWs)   bands (ev):

   -16.1680 -14.1875  -9.2657  -4.0971  -0.5022   8.1597   8.3128   8.8991

     occupation numbers 
     1.0000   1.0000   1.0000   1.0000   0.0000   0.0000   0.0000   0.0000

          k = 0.3750-0.7803 0.0000 (  2438 PWs)   bands (ev):

   -15.8124 -14.1142 -10.1179  -3.6804  -0.7633   8.5341   9.0439   9.2976

     occupation numbers 
     1.0000   1.0000   1.0000   1.0000   0.0000   0.0000   0.0000   0.0000

          k = 0.3750-0.7265 0.0000 (  2431 PWs)   bands (ev):

   -15.6552 -13.7432 -10.9511  -3.3600  -0.9363   8.4062   8.7039   9.9877

     occupation numbers 
     1.0000   1.0000   1.0000   1.0000   0.0000   0.0000   0.0000   0.0000

          k = 0.3750-0.6726 0.0000 (  2423 PWs)   bands (ev):

   -15.6187 -13.2809 -11.6088  -3.1846  -1.0211   8.3196   8.4654   9.9213

     occupation numbers 
     1.0000   1.0000   1.0000   1.0000   0.0000   0.0000   0.0000   0.0000

          k = 0.3750-0.6188 0.0000 (  2423 PWs)   bands (ev):

   -15.6187 -13.2806 -11.6091  -3.1847  -1.0209   8.3197   8.4653   9.9213

     occupation numbers 
     1.0000   1.0000   1.0000   1.0000   0.0000   0.0000   0.0000   0.0000

          k = 0.3750-0.5650 0.0000 (  2431 PWs)   bands (ev):

   -15.6552 -13.7428 -10.9515  -3.3604  -0.9358   8.4064   8.7038   9.9879

     occupation numbers 
     1.0000   1.0000   1.0000   1.0000   0.0000   0.0000   0.0000   0.0000

          k = 0.3750-0.5112 0.0000 (  2438 PWs)   bands (ev):

   -15.8125 -14.1138 -10.1184  -3.6809  -0.7626   8.5345   9.0438   9.2977

     occupation numbers 
     1.0000   1.0000   1.0000   1.0000   0.0000   0.0000   0.0000   0.0000

          k = 0.3750-0.4574 0.0000 (  2444 PWs)   bands (ev):

   -16.1680 -14.1871  -9.2662  -4.0976  -0.5014   8.1601   8.3128   8.8990

     occupation numbers 
     1.0000   1.0000   1.0000   1.0000   0.0000   0.0000   0.0000   0.0000

          k = 0.3750-0.4036 0.0000 (  2445 PWs)   bands (ev):

   -16.6454 -14.0062  -8.4735  -4.5598  -0.1565   7.2158   7.4187   8.1605

     occupation numbers 
     1.0000   1.0000   1.0000   1.0000   0.0000   0.0000   0.0000   0.0000

          k = 0.3750-0.3498 0.0000 (  2443 PWs)   bands (ev):

   -17.1383 -13.6661  -7.8164  -5.0259   0.2634   6.4222   6.6247   7.3929

     occupation numbers 
     1.0000   1.0000   1.0000   1.0000   0.0000   0.0000   0.0000   0.0000

          k = 0.3750-0.2960 0.0000 (  2436 PWs)   bands (ev):

   -17.5937 -13.2163  -7.3752  -5.4649   0.7445   5.8347   6.0424   6.7071

     occupation numbers 
     1.0000   1.0000   1.0000   1.0000   0.0000   0.0000   0.0000   0.0000

          k = 0.4167-0.2691 0.0000 (  2449 PWs)   bands (ev):

   -17.3726 -13.5832  -7.3687  -5.2597   0.3931   5.7953   6.2702   7.0668

     occupation numbers 
     1.0000   1.0000   1.0000   1.0000   0.0000   0.0000   0.0000   0.0000

          k = 0.4167-0.2152 0.0000 (  2439 PWs)   bands (ev):

   -17.7147 -13.0259  -7.5063  -5.5689   0.8658   5.6792   6.1340   6.5358

     occupation numbers 
     1.0000   1.0000   1.0000   1.0000   0.0000   0.0000   0.0000   0.0000

          k = 0.4167-0.1614 0.0000 (  2440 PWs)   bands (ev):

   -17.9902 -12.3985  -7.8978  -5.8261   1.3501   5.2930   6.1147   6.3505

     occupation numbers 
     1.0000   1.0000   1.0000   1.0000   0.0000   0.0000   0.0000   0.0000

          k = 0.4167-0.1076 0.0000 (  2438 PWs)   bands (ev):

   -18.1908 -11.7286  -8.4589  -6.0179   1.7863   5.0041   5.8060   6.0753

     occupation numbers 
     1.0000   1.0000   1.0000   1.0000   0.0000   0.0000   0.0000   0.0000

          k = 0.4167-0.0538 0.0000 (  2436 PWs)   bands (ev):

   -18.3126 -11.0773  -9.0705  -6.1360   2.0995   4.8295   5.6148   5.9004

     occupation numbers 
     1.0000   1.0000   1.0000   1.0000   0.0000   0.0000   0.0000   0.0000

          k = 0.4167-0.0000 0.0000 (  2431 PWs)   bands (ev):

   -18.3534 -10.7127  -9.4264  -6.1758   2.2149   4.7711   5.5494   5.8417

     occupation numbers 
     1.0000   1.0000   1.0000   1.0000   0.0000   0.0000   0.0000   0.0000

          k = 0.4167 0.0538 0.0000 (  2436 PWs)   bands (ev):

   -18.3126 -11.0777  -9.0701  -6.1360   2.0993   4.8295   5.6148   5.9003

     occupation numbers 
     1.0000   1.0000   1.0000   1.0000   0.0000   0.0000   0.0000   0.0000

          k = 0.4167 0.1076 0.0000 (  2438 PWs)   bands (ev):

   -18.1909 -11.7290  -8.4583  -6.0178   1.7861   5.0041   5.8060   6.0753

     occupation numbers 
     1.0000   1.0000   1.0000   1.0000   0.0000   0.0000   0.0000   0.0000

          k = 0.4167 0.1614 0.0000 (  2440 PWs)   bands (ev):

   -17.9902 -12.3989  -7.8972  -5.8260   1.3498   5.2930   6.1147   6.3506

     occupation numbers 
     1.0000   1.0000   1.0000   1.0000   0.0000   0.0000   0.0000   0.0000

          k = 0.4167 0.2152 0.0000 (  2439 PWs)   bands (ev):

   -17.7147 -13.0263  -7.5057  -5.5687   0.8653   5.6792   6.1341   6.5359

     occupation numbers 
     1.0000   1.0000   1.0000   1.0000   0.0000   0.0000   0.0000   0.0000

          k = 0.4167 0.2691 0.0000 (  2449 PWs)   bands (ev):

   -17.3726 -13.5835  -7.3680  -5.2594   0.3925   5.7952   6.2702   7.0668

     occupation numbers 
     1.0000   1.0000   1.0000   1.0000   0.0000   0.0000   0.0000   0.0000

          k = 0.4167 0.3229 0.0000 (  2450 PWs)   bands (ev):

   -16.9808 -14.0451  -7.5263  -4.9183  -0.0231   5.9351   6.8925   7.7031

     occupation numbers 
     1.0000   1.0000   1.0000   1.0000   0.0000   0.0000   0.0000   0.0000

          k = 0.4167-0.9148 0.0000 (  2445 PWs)   bands (ev):

   -16.5781 -14.3685  -7.9612  -4.5749  -0.3447   6.4426   7.6387   8.4309

     occupation numbers 
     1.0000   1.0000   1.0000   1.0000   0.0000   0.0000   0.0000   0.0000

          k = 0.4167-0.8610 0.0000 (  2446 PWs)   bands (ev):

   -16.2521 -14.4675  -8.6063  -4.2664  -0.5447   7.2435   8.4734   8.8455

     occupation numbers 
     1.0000   1.0000   1.0000   1.0000   0.0000   0.0000   0.0000   0.0000

          k = 0.4167-0.8072 0.0000 (  2444 PWs)   bands (ev):

   -16.1088 -14.2422  -9.3799  -4.0281  -0.6135   8.0914   8.5778   9.0918

     occupation numbers 
     1.0000   1.0000   1.0000   1.0000   0.0000   0.0000   0.0000   0.0000

          k = 0.4167-0.7534 0.0000 (  2436 PWs)   bands (ev):

   -16.1146 -13.7433 -10.2032  -3.8761  -0.5787   8.0565   8.6814   9.2117

     occupation numbers 
     1.0000   1.0000   1.0000   1.0000   0.0000   0.0000   0.0000   0.0000

          k = 0.4167-0.6996 0.0000 (  2424 PWs)   bands (ev):

   -16.1571 -13.1383 -10.9791  -3.7996  -0.5073   7.9073   8.3774   9.1506

     occupation numbers 
     1.0000   1.0000   1.0000   1.0000   0.0000   0.0000   0.0000   0.0000

          k = 0.4167-0.6457 0.0000 (  2417 PWs)   bands (ev):

   -16.1763 -12.7692 -11.4026  -3.7774  -0.4727   7.8544   8.2646   9.0995

     occupation numbers 
     1.0000   1.0000   1.0000   1.0000   0.0000   0.0000   0.0000   0.0000

          k = 0.4167-0.5919 0.0000 (  2424 PWs)   bands (ev):

   -16.1571 -13.1380 -10.9795  -3.7998  -0.5070   7.9073   8.3774   9.1507

     occupation numbers 
     1.0000   1.0000   1.0000   1.0000   0.0000   0.0000   0.0000   0.0000

          k = 0.4167-0.5381 0.0000 (  2436 PWs)   bands (ev):

   -16.1147 -13.7428 -10.2037  -3.8764  -0.5782   8.0567   8.6813   9.2119

     occupation numbers 
     1.0000   1.0000   1.0000   1.0000   0.0000   0.0000   0.0000   0.0000

          k = 0.4167-0.4843 0.0000 (  2444 PWs)   bands (ev):

   -16.1089 -14.2418  -9.3804  -4.0286  -0.6128   8.0918   8.5774   9.0918

     occupation numbers 
     1.0000   1.0000   1.0000   1.0000   0.0000   0.0000   0.0000   0.0000

          k = 0.4167-0.4305 0.0000 (  2446 PWs)   bands (ev):

   -16.2522 -14.4671  -8.6068  -4.2669  -0.5439   7.2435   8.4734   8.8454

     occupation numbers 
     1.0000   1.0000   1.0000   1.0000   0.0000   0.0000   0.0000   0.0000

          k = 0.4167-0.3767 0.0000 (  2445 PWs)   bands (ev):

   -16.5782 -14.3681  -7.9618  -4.5754  -0.3439   6.4425   7.6387   8.4308

     occupation numbers 
     1.0000   1.0000   1.0000   1.0000   0.0000   0.0000   0.0000   0.0000

          k = 0.4167-0.3229 0.0000 (  2450 PWs)   bands (ev):

   -16.9808 -14.0447  -7.5269  -4.9187  -0.0224   5.9351   6.8925   7.7031

     occupation numbers 
     1.0000   1.0000   1.0000   1.0000   0.0000   0.0000   0.0000   0.0000

          k = 0.4583-0.2960 0.0000 (  2452 PWs)   bands (ev):

   -16.7852 -14.3444  -7.4634  -4.7774  -0.2613   5.7648   7.2753   8.1030

     occupation numbers 
     1.0000   1.0000   1.0000   1.0000   0.0000   0.0000   0.0000   0.0000

          k = 0.4583-0.2422 0.0000 (  2441 PWs)   bands (ev):

   -17.0985 -13.8846  -7.6071  -5.0029   0.0741   5.9949   6.7097   7.5162

     occupation numbers 
     1.0000   1.0000   1.0000   1.0000   0.0000   0.0000   0.0000   0.0000

          k = 0.4583-0.1883 0.0000 (  2435 PWs)   bands (ev):

   -17.3820 -13.3108  -8.0124  -5.2209   0.4822   6.1749   6.6629   7.0356

     occupation numbers 
     1.0000   1.0000   1.0000   1.0000   0.0000   0.0000   0.0000   0.0000

          k = 0.4583-0.1345 0.0000 (  2438 PWs)   bands (ev):

   -17.6071 -12.6630  -8.6015  -5.4042   0.8999   5.8539   6.6650   6.9310

     occupation numbers 
     1.0000   1.0000   1.0000   1.0000   0.0000   0.0000   0.0000   0.0000

          k = 0.4583-0.0807 0.0000 (  2430 PWs)   bands (ev):

   -17.7617 -11.9833  -9.2774  -5.5351   1.2522   5.6242   6.4090   6.7090

     occupation numbers 
     1.0000   1.0000   1.0000   1.0000   0.0000   0.0000   0.0000   0.0000

          k = 0.4583-0.0269 0.0000 (  2425 PWs)   bands (ev):

   -17.8401 -11.3950  -9.8747  -5.6030   1.4577   5.5083   6.2764   6.5927

     occupation numbers 
     1.0000   1.0000   1.0000   1.0000   0.0000   0.0000   0.0000   0.0000

          k = 0.4583 0.0269 0.0000 (  2425 PWs)   bands (ev):

   -17.8401 -11.3952  -9.8745  -5.6029   1.4576   5.5083   6.2764   6.5927

     occupation numbers 
     1.0000   1.0000   1.0000   1.0000   0.0000   0.0000   0.0000   0.0000

          k = 0.4583 0.0807 0.0000 (  2430 PWs)   bands (ev):

   -17.7617 -11.9837  -9.2769  -5.5350   1.2519   5.6242   6.4090   6.7090

     occupation numbers 
     1.0000   1.0000   1.0000   1.0000   0.0000   0.0000   0.0000   0.0000

          k = 0.4583 0.1345 0.0000 (  2438 PWs)   bands (ev):

   -17.6071 -12.6634  -8.6009  -5.4041   0.8996   5.8538   6.6650   6.9310

     occupation numbers 
     1.0000   1.0000   1.0000   1.0000   0.0000   0.0000   0.0000   0.0000

          k = 0.4583 0.1883 0.0000 (  2435 PWs)   bands (ev):

   -17.3820 -13.3111  -8.0118  -5.2207   0.4817   6.1749   6.6629   7.0356

     occupation numbers 
     1.0000   1.0000   1.0000   1.0000   0.0000   0.0000   0.0000   0.0000

          k = 0.4583 0.2422 0.0000 (  2441 PWs)   bands (ev):

   -17.0985 -13.8850  -7.6064  -5.0026   0.0735   5.9949   6.7097   7.5162

     occupation numbers 
     1.0000   1.0000   1.0000   1.0000   0.0000   0.0000   0.0000   0.0000

          k = 0.4583 0.2960 0.0000 (  2452 PWs)   bands (ev):

   -16.7852 -14.3448  -7.4627  -4.7770  -0.2620   5.7648   7.2753   8.1029

     occupation numbers 
     1.0000   1.0000   1.0000   1.0000   0.0000   0.0000   0.0000   0.0000

          k = 0.4583-0.9417 0.0000 (  2448 PWs)   bands (ev):

   -16.5096 -14.6178  -7.6168  -4.5785  -0.4730   5.9291   7.9604   8.8483

     occupation numbers 
     1.0000   1.0000   1.0000   1.0000   0.0000   0.0000   0.0000   0.0000

          k = 0.4583-0.8879 0.0000 (  2455 PWs)   bands (ev):

   -16.3868 -14.5885  -8.0437  -4.4402  -0.5274   6.4671   8.2703   8.7787

     occupation numbers 
     1.0000   1.0000   1.0000   1.0000   0.0000   0.0000   0.0000   0.0000

          k = 0.4583-0.8341 0.0000 (  2450 PWs)   bands (ev):

   -16.4432 -14.2341  -8.6734  -4.3745  -0.4299   7.2627   7.8638   8.6259

     occupation numbers 
     1.0000   1.0000   1.0000   1.0000   0.0000   0.0000   0.0000   0.0000

          k = 0.4583-0.7803 0.0000 (  2438 PWs)   bands (ev):

   -16.5693 -13.6743  -9.4225  -4.3656  -0.2322   7.4188   8.2187   8.3287

     occupation numbers 
     1.0000   1.0000   1.0000   1.0000   0.0000   0.0000   0.0000   0.0000

          k = 0.4583-0.7265 0.0000 (  2423 PWs)   bands (ev):

   -16.6806 -13.0220 -10.2045  -4.3827  -0.0197   7.2081   7.9191   8.3527

     occupation numbers 
     1.0000   1.0000   1.0000   1.0000   0.0000   0.0000   0.0000   0.0000

          k = 0.4583-0.6726 0.0000 (  2416 PWs)   bands (ev):

   -16.7421 -12.4296 -10.8647  -4.3985   0.1169   7.0963   7.7547   8.2431

     occupation numbers 
     1.0000   1.0000   1.0000   1.0000   0.0000   0.0000   0.0000   0.0000

          k = 0.4583-0.6188 0.0000 (  2416 PWs)   bands (ev):

   -16.7421 -12.4293 -10.8650  -4.3986   0.1170   7.0963   7.7547   8.2431

     occupation numbers 
     1.0000   1.0000   1.0000   1.0000   0.0000   0.0000   0.0000   0.0000

          k = 0.4583-0.5650 0.0000 (  2423 PWs)   bands (ev):

   -16.6806 -13.0216 -10.2050  -4.3829  -0.0194   7.2082   7.9191   8.3527

     occupation numbers 
     1.0000   1.0000   1.0000   1.0000   0.0000   0.0000   0.0000   0.0000

          k = 0.4583-0.5112 0.0000 (  2438 PWs)   bands (ev):

   -16.5693 -13.6739  -9.4230  -4.3660  -0.2317   7.4189   8.2186   8.3288

     occupation numbers 
     1.0000   1.0000   1.0000   1.0000   0.0000   0.0000   0.0000   0.0000

          k = 0.4583-0.4574 0.0000 (  2450 PWs)   bands (ev):

   -16.4433 -14.2337  -8.6739  -4.3749  -0.4292   7.2629   7.8636   8.6259

     occupation numbers 
     1.0000   1.0000   1.0000   1.0000   0.0000   0.0000   0.0000   0.0000

          k = 0.4583-0.4036 0.0000 (  2455 PWs)   bands (ev):

   -16.3869 -14.5881  -8.0443  -4.4406  -0.5266   6.4671   8.2702   8.7788

     occupation numbers 
     1.0000   1.0000   1.0000   1.0000   0.0000   0.0000   0.0000   0.0000

          k = 0.4583-0.3498 0.0000 (  2448 PWs)   bands (ev):

   -16.5097 -14.6173  -7.6174  -4.5790  -0.4722   5.9291   7.9604   8.8482

     occupation numbers 
     1.0000   1.0000   1.0000   1.0000   0.0000   0.0000   0.0000   0.0000

          k =-0.5000 0.3229 0.0000 (  2458 PWs)   bands (ev):

   -16.4797 -14.7082  -7.4953  -4.5792  -0.5177   5.7498   8.2976   8.4560

     occupation numbers 
     1.0000   1.0000   1.0000   1.0000   0.0000   0.0000   0.0000   0.0000

          k =-0.5000 0.3767 0.0000 (  2448 PWs)   bands (ev):

   -16.5753 -14.5375  -7.6442  -4.6141  -0.4329   5.9517   7.7437   8.5862

     occupation numbers 
     1.0000   1.0000   1.0000   1.0000   0.0000   0.0000   0.0000   0.0000

          k =-0.5000 0.4305 0.0000 (  2445 PWs)   bands (ev):

   -16.7826 -14.1072  -8.0613  -4.7042  -0.2013   6.5092   7.2447   8.0464

     occupation numbers 
     1.0000   1.0000   1.0000   1.0000   0.0000   0.0000   0.0000   0.0000

          k =-0.5000 0.4843 0.0000 (  2437 PWs)   bands (ev):

   -16.9968 -13.5288  -8.6727  -4.8172   0.1181   6.7661   7.4252   7.6109

     occupation numbers 
     1.0000   1.0000   1.0000   1.0000   0.0000   0.0000   0.0000   0.0000

          k =-0.5000 0.5381 0.0000 (  2427 PWs)   bands (ev):

   -17.1680 -12.8695  -9.3905  -4.9208   0.4463   6.4996   7.2850   7.6022

     occupation numbers 
     1.0000   1.0000   1.0000   1.0000   0.0000   0.0000   0.0000   0.0000

          k =-0.5000 0.5919 0.0000 (  2418 PWs)   bands (ev):

   -17.2759 -12.2031 -10.1078  -4.9915   0.6959   6.3287   7.0783   7.4351

     occupation numbers 
     1.0000   1.0000   1.0000   1.0000   0.0000   0.0000   0.0000   0.0000

          k =-0.5000 0.6457 0.0000 (  2425 PWs)   bands (ev):

   -17.3126 -11.8150 -10.5156  -5.0165   0.7897   6.2712   7.0065   7.3774

     occupation numbers 
     1.0000   1.0000   1.0000   1.0000   0.0000   0.0000   0.0000   0.0000

          k =-0.5000 0.6996 0.0000 (  2418 PWs)   bands (ev):

   -17.2759 -12.2034 -10.1075  -4.9914   0.6957   6.3287   7.0783   7.4351

     occupation numbers 
     1.0000   1.0000   1.0000   1.0000   0.0000   0.0000   0.0000   0.0000

          k =-0.5000 0.7534 0.0000 (  2427 PWs)   bands (ev):

   -17.1680 -12.8699  -9.3900  -4.9206   0.4460   6.4995   7.2849   7.6022

     occupation numbers 
     1.0000   1.0000   1.0000   1.0000   0.0000   0.0000   0.0000   0.0000

          k =-0.5000 0.8072 0.0000 (  2437 PWs)   bands (ev):

   -16.9968 -13.5292  -8.6721  -4.8170   0.1175   6.7660   7.4251   7.6109

     occupation numbers 
     1.0000   1.0000   1.0000   1.0000   0.0000   0.0000   0.0000   0.0000

          k =-0.5000 0.8610 0.0000 (  2445 PWs)   bands (ev):

   -16.7826 -14.1076  -8.0607  -4.7039  -0.2020   6.5091   7.2448   8.0464

     occupation numbers 
     1.0000   1.0000   1.0000   1.0000   0.0000   0.0000   0.0000   0.0000

          k =-0.5000 0.9148 0.0000 (  2448 PWs)   bands (ev):

   -16.5753 -14.5379  -7.6436  -4.6136  -0.4337   5.9517   7.7437   8.5861

     occupation numbers 
     1.0000   1.0000   1.0000   1.0000   0.0000   0.0000   0.0000   0.0000

          k =-0.5000-0.3229 0.0000 (  2458 PWs)   bands (ev):

   -16.4797 -14.7086  -7.4946  -4.5787  -0.5185   5.7498   8.2977   8.4558

     occupation numbers 
     1.0000   1.0000   1.0000   1.0000   0.0000   0.0000   0.0000   0.0000

          k =-0.5000-0.2691 0.0000 (  2448 PWs)   bands (ev):

   -16.5753 -14.5379  -7.6436  -4.6136  -0.4337   5.9517   7.7437   8.5861

     occupation numbers 
     1.0000   1.0000   1.0000   1.0000   0.0000   0.0000   0.0000   0.0000

          k =-0.5000-0.2152 0.0000 (  2445 PWs)   bands (ev):

   -16.7826 -14.1076  -8.0607  -4.7039  -0.2020   6.5091   7.2448   8.0464

     occupation numbers 
     1.0000   1.0000   1.0000   1.0000   0.0000   0.0000   0.0000   0.0000

          k =-0.5000-0.1614 0.0000 (  2437 PWs)   bands (ev):

   -16.9968 -13.5292  -8.6721  -4.8170   0.1175   6.7660   7.4251   7.6109

     occupation numbers 
     1.0000   1.0000   1.0000   1.0000   0.0000   0.0000   0.0000   0.0000

          k =-0.5000-0.1076 0.0000 (  2427 PWs)   bands (ev):

   -17.1680 -12.8699  -9.3900  -4.9206   0.4460   6.4995   7.2849   7.6022

     occupation numbers 
     1.0000   1.0000   1.0000   1.0000   0.0000   0.0000   0.0000   0.0000

          k =-0.5000-0.0538 0.0000 (  2418 PWs)   bands (ev):

   -17.2759 -12.2034 -10.1075  -4.9914   0.6957   6.3287   7.0783   7.4351

     occupation numbers 
     1.0000   1.0000   1.0000   1.0000   0.0000   0.0000   0.0000   0.0000

          k =-0.5000 0.0000 0.0000 (  2425 PWs)   bands (ev):

   -17.3126 -11.8150 -10.5156  -5.0165   0.7897   6.2712   7.0065   7.3774

     occupation numbers 
     1.0000   1.0000   1.0000   1.0000   0.0000   0.0000   0.0000   0.0000

          k =-0.5000 0.0538 0.0000 (  2418 PWs)   bands (ev):

   -17.2759 -12.2031 -10.1078  -4.9915   0.6959   6.3287   7.0783   7.4351

     occupation numbers 
     1.0000   1.0000   1.0000   1.0000   0.0000   0.0000   0.0000   0.0000

          k =-0.5000 0.1076 0.0000 (  2427 PWs)   bands (ev):

   -17.1680 -12.8695  -9.3905  -4.9208   0.4463   6.4996   7.2850   7.6022

     occupation numbers 
     1.0000   1.0000   1.0000   1.0000   0.0000   0.0000   0.0000   0.0000

          k =-0.5000 0.1614 0.0000 (  2437 PWs)   bands (ev):

   -16.9968 -13.5288  -8.6727  -4.8172   0.1181   6.7661   7.4252   7.6111

     occupation numbers 
     1.0000   1.0000   1.0000   1.0000   0.0000   0.0000   0.0000   0.0000

          k =-0.5000 0.2152 0.0000 (  2445 PWs)   bands (ev):

   -16.7826 -14.1072  -8.0613  -4.7042  -0.2013   6.5092   7.2447   8.0463

     occupation numbers 
     1.0000   1.0000   1.0000   1.0000   0.0000   0.0000   0.0000   0.0000

          k =-0.5000 0.2691 0.0000 (  2448 PWs)   bands (ev):

   -16.5753 -14.5375  -7.6442  -4.6141  -0.4329   5.9517   7.7437   8.5861

     occupation numbers 
     1.0000   1.0000   1.0000   1.0000   0.0000   0.0000   0.0000   0.0000

          k =-0.4583 0.2960 0.0000 (  2452 PWs)   bands (ev):

   -16.7852 -14.3444  -7.4634  -4.7774  -0.2613   5.7648   7.2753   8.1030

     occupation numbers 
     1.0000   1.0000   1.0000   1.0000   0.0000   0.0000   0.0000   0.0000

          k =-0.4583 0.3498 0.0000 (  2448 PWs)   bands (ev):

   -16.5097 -14.6173  -7.6174  -4.5790  -0.4722   5.9291   7.9604   8.8484

     occupation numbers 
     1.0000   1.0000   1.0000   1.0000   0.0000   0.0000   0.0000   0.0000

          k =-0.4583 0.4036 0.0000 (  2455 PWs)   bands (ev):

   -16.3869 -14.5881  -8.0443  -4.4406  -0.5266   6.4671   8.2702   8.7788

     occupation numbers 
     1.0000   1.0000   1.0000   1.0000   0.0000   0.0000   0.0000   0.0000

          k =-0.4583 0.4574 0.0000 (  2450 PWs)   bands (ev):

   -16.4433 -14.2337  -8.6739  -4.3749  -0.4292   7.2629   7.8636   8.6259

     occupation numbers 
     1.0000   1.0000   1.0000   1.0000   0.0000   0.0000   0.0000   0.0000

          k =-0.4583 0.5112 0.0000 (  2438 PWs)   bands (ev):

   -16.5693 -13.6739  -9.4230  -4.3660  -0.2317   7.4189   8.2186   8.3288

     occupation numbers 
     1.0000   1.0000   1.0000   1.0000   0.0000   0.0000   0.0000   0.0000

          k =-0.4583 0.5650 0.0000 (  2423 PWs)   bands (ev):

   -16.6806 -13.0216 -10.2050  -4.3829  -0.0194   7.2082   7.9191   8.3527

     occupation numbers 
     1.0000   1.0000   1.0000   1.0000   0.0000   0.0000   0.0000   0.0000

          k =-0.4583 0.6188 0.0000 (  2416 PWs)   bands (ev):

   -16.7421 -12.4293 -10.8650  -4.3986   0.1170   7.0963   7.7547   8.2431

     occupation numbers 
     1.0000   1.0000   1.0000   1.0000   0.0000   0.0000   0.0000   0.0000

          k =-0.4583 0.6726 0.0000 (  2416 PWs)   bands (ev):

   -16.7421 -12.4296 -10.8647  -4.3985   0.1169   7.0963   7.7547   8.2431

     occupation numbers 
     1.0000   1.0000   1.0000   1.0000   0.0000   0.0000   0.0000   0.0000

          k =-0.4583 0.7265 0.0000 (  2423 PWs)   bands (ev):

   -16.6806 -13.0220 -10.2045  -4.3827  -0.0197   7.2081   7.9191   8.3527

     occupation numbers 
     1.0000   1.0000   1.0000   1.0000   0.0000   0.0000   0.0000   0.0000

          k =-0.4583 0.7803 0.0000 (  2438 PWs)   bands (ev):

   -16.5693 -13.6743  -9.4225  -4.3656  -0.2322   7.4188   8.2187   8.3287

     occupation numbers 
     1.0000   1.0000   1.0000   1.0000   0.0000   0.0000   0.0000   0.0000

          k =-0.4583 0.8341 0.0000 (  2450 PWs)   bands (ev):

   -16.4432 -14.2341  -8.6734  -4.3745  -0.4299   7.2627   7.8638   8.6259

     occupation numbers 
     1.0000   1.0000   1.0000   1.0000   0.0000   0.0000   0.0000   0.0000

          k =-0.4583 0.8879 0.0000 (  2455 PWs)   bands (ev):

   -16.3868 -14.5885  -8.0437  -4.4402  -0.5274   6.4671   8.2703   8.7787

     occupation numbers 
     1.0000   1.0000   1.0000   1.0000   0.0000   0.0000   0.0000   0.0000

          k =-0.4583-0.3498 0.0000 (  2448 PWs)   bands (ev):

   -16.5096 -14.6178  -7.6168  -4.5785  -0.4730   5.9291   7.9604   8.8482

     occupation numbers 
     1.0000   1.0000   1.0000   1.0000   0.0000   0.0000   0.0000   0.0000

          k =-0.4583-0.2960 0.0000 (  2452 PWs)   bands (ev):

   -16.7852 -14.3448  -7.4627  -4.7770  -0.2620   5.7648   7.2753   8.1029

     occupation numbers 
     1.0000   1.0000   1.0000   1.0000   0.0000   0.0000   0.0000   0.0000

          k =-0.4583-0.2422 0.0000 (  2441 PWs)   bands (ev):

   -17.0985 -13.8850  -7.6064  -5.0026   0.0735   5.9949   6.7097   7.5162

     occupation numbers 
     1.0000   1.0000   1.0000   1.0000   0.0000   0.0000   0.0000   0.0000

          k =-0.4583-0.1883 0.0000 (  2435 PWs)   bands (ev):

   -17.3820 -13.3111  -8.0118  -5.2207   0.4817   6.1749   6.6629   7.0356

     occupation numbers 
     1.0000   1.0000   1.0000   1.0000   0.0000   0.0000   0.0000   0.0000

          k =-0.4583-0.1345 0.0000 (  2438 PWs)   bands (ev):

   -17.6071 -12.6634  -8.6009  -5.4041   0.8996   5.8538   6.6650   6.9310

     occupation numbers 
     1.0000   1.0000   1.0000   1.0000   0.0000   0.0000   0.0000   0.0000

          k =-0.4583-0.0807 0.0000 (  2430 PWs)   bands (ev):

   -17.7617 -11.9837  -9.2769  -5.5350   1.2519   5.6242   6.4090   6.7090

     occupation numbers 
     1.0000   1.0000   1.0000   1.0000   0.0000   0.0000   0.0000   0.0000

          k =-0.4583-0.0269 0.0000 (  2425 PWs)   bands (ev):

   -17.8401 -11.3952  -9.8745  -5.6029   1.4576   5.5083   6.2764   6.5927

     occupation numbers 
     1.0000   1.0000   1.0000   1.0000   0.0000   0.0000   0.0000   0.0000

          k =-0.4583 0.0269 0.0000 (  2425 PWs)   bands (ev):

   -17.8401 -11.3950  -9.8747  -5.6030   1.4577   5.5083   6.2764   6.5927

     occupation numbers 
     1.0000   1.0000   1.0000   1.0000   0.0000   0.0000   0.0000   0.0000

          k =-0.4583 0.0807 0.0000 (  2430 PWs)   bands (ev):

   -17.7617 -11.9833  -9.2774  -5.5351   1.2522   5.6242   6.4090   6.7090

     occupation numbers 
     1.0000   1.0000   1.0000   1.0000   0.0000   0.0000   0.0000   0.0000

          k =-0.4583 0.1345 0.0000 (  2438 PWs)   bands (ev):

   -17.6071 -12.6630  -8.6015  -5.4042   0.8999   5.8539   6.6650   6.9310

     occupation numbers 
     1.0000   1.0000   1.0000   1.0000   0.0000   0.0000   0.0000   0.0000

          k =-0.4583 0.1883 0.0000 (  2435 PWs)   bands (ev):

   -17.3820 -13.3108  -8.0124  -5.2209   0.4822   6.1749   6.6629   7.0356

     occupation numbers 
     1.0000   1.0000   1.0000   1.0000   0.0000   0.0000   0.0000   0.0000

          k =-0.4583 0.2422 0.0000 (  2441 PWs)   bands (ev):

   -17.0985 -13.8846  -7.6071  -5.0029   0.0741   5.9949   6.7097   7.5162

     occupation numbers 
     1.0000   1.0000   1.0000   1.0000   0.0000   0.0000   0.0000   0.0000

          k =-0.4167 0.2691 0.0000 (  2449 PWs)   bands (ev):

   -17.3726 -13.5832  -7.3687  -5.2597   0.3931   5.7953   6.2702   7.0668

     occupation numbers 
     1.0000   1.0000   1.0000   1.0000   0.0000   0.0000   0.0000   0.0000

          k =-0.4167 0.3229 0.0000 (  2450 PWs)   bands (ev):

   -16.9808 -14.0447  -7.5269  -4.9187  -0.0224   5.9351   6.8925   7.7031

     occupation numbers 
     1.0000   1.0000   1.0000   1.0000   0.0000   0.0000   0.0000   0.0000

          k =-0.4167 0.3767 0.0000 (  2445 PWs)   bands (ev):

   -16.5782 -14.3681  -7.9618  -4.5754  -0.3439   6.4425   7.6387   8.4308

     occupation numbers 
     1.0000   1.0000   1.0000   1.0000   0.0000   0.0000   0.0000   0.0000

          k =-0.4167 0.4305 0.0000 (  2446 PWs)   bands (ev):

   -16.2522 -14.4671  -8.6068  -4.2669  -0.5439   7.2435   8.4734   8.8454

     occupation numbers 
     1.0000   1.0000   1.0000   1.0000   0.0000   0.0000   0.0000   0.0000

          k =-0.4167 0.4843 0.0000 (  2444 PWs)   bands (ev):

   -16.1089 -14.2418  -9.3804  -4.0286  -0.6128   8.0918   8.5774   9.0917

     occupation numbers 
     1.0000   1.0000   1.0000   1.0000   0.0000   0.0000   0.0000   0.0000

          k =-0.4167 0.5381 0.0000 (  2436 PWs)   bands (ev):

   -16.1147 -13.7428 -10.2037  -3.8764  -0.5782   8.0567   8.6813   9.2119

     occupation numbers 
     1.0000   1.0000   1.0000   1.0000   0.0000   0.0000   0.0000   0.0000

          k =-0.4167 0.5919 0.0000 (  2424 PWs)   bands (ev):

   -16.1571 -13.1380 -10.9795  -3.7998  -0.5070   7.9073   8.3774   9.1507

     occupation numbers 
     1.0000   1.0000   1.0000   1.0000   0.0000   0.0000   0.0000   0.0000

          k =-0.4167 0.6457 0.0000 (  2417 PWs)   bands (ev):

   -16.1763 -12.7692 -11.4026  -3.7774  -0.4727   7.8544   8.2646   9.0995

     occupation numbers 
     1.0000   1.0000   1.0000   1.0000   0.0000   0.0000   0.0000   0.0000

          k =-0.4167 0.6996 0.0000 (  2424 PWs)   bands (ev):

   -16.1571 -13.1383 -10.9791  -3.7996  -0.5073   7.9073   8.3774   9.1506

     occupation numbers 
     1.0000   1.0000   1.0000   1.0000   0.0000   0.0000   0.0000   0.0000

          k =-0.4167 0.7534 0.0000 (  2436 PWs)   bands (ev):

   -16.1146 -13.7433 -10.2032  -3.8761  -0.5787   8.0565   8.6813   9.2117

     occupation numbers 
     1.0000   1.0000   1.0000   1.0000   0.0000   0.0000   0.0000   0.0000

          k =-0.4167 0.8072 0.0000 (  2444 PWs)   bands (ev):

   -16.1088 -14.2422  -9.3799  -4.0281  -0.6135   8.0914   8.5778   9.0918

     occupation numbers 
     1.0000   1.0000   1.0000   1.0000   0.0000   0.0000   0.0000   0.0000

          k =-0.4167 0.8610 0.0000 (  2446 PWs)   bands (ev):

   -16.2521 -14.4675  -8.6063  -4.2664  -0.5447   7.2435   8.4734   8.8455

     occupation numbers 
     1.0000   1.0000   1.0000   1.0000   0.0000   0.0000   0.0000   0.0000

          k =-0.4167-0.3767 0.0000 (  2445 PWs)   bands (ev):

   -16.5781 -14.3685  -7.9612  -4.5749  -0.3447   6.4426   7.6387   8.4309

     occupation numbers 
     1.0000   1.0000   1.0000   1.0000   0.0000   0.0000   0.0000   0.0000

          k =-0.4167-0.3229 0.0000 (  2450 PWs)   bands (ev):

   -16.9808 -14.0451  -7.5263  -4.9183  -0.0231   5.9351   6.8925   7.7031

     occupation numbers 
     1.0000   1.0000   1.0000   1.0000   0.0000   0.0000   0.0000   0.0000

          k =-0.4167-0.2691 0.0000 (  2449 PWs)   bands (ev):

   -17.3726 -13.5835  -7.3680  -5.2594   0.3925   5.7952   6.2702   7.0668

     occupation numbers 
     1.0000   1.0000   1.0000   1.0000   0.0000   0.0000   0.0000   0.0000

          k =-0.4167-0.2152 0.0000 (  2439 PWs)   bands (ev):

   -17.7147 -13.0263  -7.5057  -5.5687   0.8653   5.6792   6.1341   6.5358

     occupation numbers 
     1.0000   1.0000   1.0000   1.0000   0.0000   0.0000   0.0000   0.0000

          k =-0.4167-0.1614 0.0000 (  2440 PWs)   bands (ev):

   -17.9902 -12.3989  -7.8972  -5.8260   1.3498   5.2930   6.1147   6.3505

     occupation numbers 
     1.0000   1.0000   1.0000   1.0000   0.0000   0.0000   0.0000   0.0000

          k =-0.4167-0.1076 0.0000 (  2438 PWs)   bands (ev):

   -18.1909 -11.7290  -8.4583  -6.0178   1.7861   5.0041   5.8060   6.0753

     occupation numbers 
     1.0000   1.0000   1.0000   1.0000   0.0000   0.0000   0.0000   0.0000

          k =-0.4167-0.0538 0.0000 (  2436 PWs)   bands (ev):

   -18.3126 -11.0777  -9.0701  -6.1360   2.0993   4.8295   5.6148   5.9004

     occupation numbers 
     1.0000   1.0000   1.0000   1.0000   0.0000   0.0000   0.0000   0.0000

          k =-0.4167-0.0000 0.0000 (  2431 PWs)   bands (ev):

   -18.3534 -10.7127  -9.4264  -6.1758   2.2149   4.7711   5.5494   5.8417

     occupation numbers 
     1.0000   1.0000   1.0000   1.0000   0.0000   0.0000   0.0000   0.0000

          k =-0.4167 0.0538 0.0000 (  2436 PWs)   bands (ev):

   -18.3126 -11.0773  -9.0705  -6.1360   2.0995   4.8295   5.6148   5.9004

     occupation numbers 
     1.0000   1.0000   1.0000   1.0000   0.0000   0.0000   0.0000   0.0000

          k =-0.4167 0.1076 0.0000 (  2438 PWs)   bands (ev):

   -18.1908 -11.7286  -8.4589  -6.0179   1.7863   5.0041   5.8060   6.0753

     occupation numbers 
     1.0000   1.0000   1.0000   1.0000   0.0000   0.0000   0.0000   0.0000

          k =-0.4167 0.1614 0.0000 (  2440 PWs)   bands (ev):

   -17.9902 -12.3985  -7.8978  -5.8261   1.3501   5.2930   6.1147   6.3505

     occupation numbers 
     1.0000   1.0000   1.0000   1.0000   0.0000   0.0000   0.0000   0.0000

          k =-0.4167 0.2152 0.0000 (  2439 PWs)   bands (ev):

   -17.7147 -13.0259  -7.5063  -5.5689   0.8658   5.6792   6.1340   6.5359

     occupation numbers 
     1.0000   1.0000   1.0000   1.0000   0.0000   0.0000   0.0000   0.0000

          k =-0.3750 0.2422 0.0000 (  2436 PWs)   bands (ev):

   -17.9886 -12.6812  -7.2134  -5.8549   1.2668   5.2870   5.9097   6.1243

     occupation numbers 
     1.0000   1.0000   1.0000   1.0000   0.0000   0.0000   0.0000   0.0000

          k =-0.3750 0.2960 0.0000 (  2436 PWs)   bands (ev):

   -17.5937 -13.2163  -7.3752  -5.4649   0.7445   5.8347   6.0424   6.7070

     occupation numbers 
     1.0000   1.0000   1.0000   1.0000   0.0000   0.0000   0.0000   0.0000

          k =-0.3750 0.3498 0.0000 (  2443 PWs)   bands (ev):

   -17.1383 -13.6661  -7.8164  -5.0259   0.2634   6.4222   6.6247   7.3929

     occupation numbers 
     1.0000   1.0000   1.0000   1.0000   0.0000   0.0000   0.0000   0.0000

          k =-0.3750 0.4036 0.0000 (  2445 PWs)   bands (ev):

   -16.6454 -14.0062  -8.4735  -4.5598  -0.1565   7.2157   7.4187   8.1605

     occupation numbers 
     1.0000   1.0000   1.0000   1.0000   0.0000   0.0000   0.0000   0.0000

          k =-0.3750 0.4574 0.0000 (  2444 PWs)   bands (ev):

   -16.1680 -14.1871  -9.2662  -4.0976  -0.5014   8.1601   8.3128   8.8990

     occupation numbers 
     1.0000   1.0000   1.0000   1.0000   0.0000   0.0000   0.0000   0.0000

          k =-0.3750 0.5112 0.0000 (  2438 PWs)   bands (ev):

   -15.8125 -14.1138 -10.1184  -3.6809  -0.7626   8.5346   9.0438   9.2975

     occupation numbers 
     1.0000   1.0000   1.0000   1.0000   0.0000   0.0000   0.0000   0.0000

          k =-0.3750 0.5650 0.0000 (  2431 PWs)   bands (ev):

   -15.6552 -13.7428 -10.9515  -3.3604  -0.9358   8.4064   8.7038   9.9879

     occupation numbers 
     1.0000   1.0000   1.0000   1.0000   0.0000   0.0000   0.0000   0.0000

          k =-0.3750 0.6188 0.0000 (  2423 PWs)   bands (ev):

   -15.6187 -13.2806 -11.6091  -3.1847  -1.0209   8.3197   8.4653   9.9213

     occupation numbers 
     1.0000   1.0000   1.0000   1.0000   0.0000   0.0000   0.0000   0.0000

          k =-0.3750 0.6726 0.0000 (  2423 PWs)   bands (ev):

   -15.6187 -13.2809 -11.6088  -3.1846  -1.0211   8.3196   8.4654   9.9213

     occupation numbers 
     1.0000   1.0000   1.0000   1.0000   0.0000   0.0000   0.0000   0.0000

          k =-0.3750 0.7265 0.0000 (  2431 PWs)   bands (ev):

   -15.6552 -13.7432 -10.9511  -3.3600  -0.9363   8.4062   8.7039   9.9877

     occupation numbers 
     1.0000   1.0000   1.0000   1.0000   0.0000   0.0000   0.0000   0.0000

          k =-0.3750 0.7803 0.0000 (  2438 PWs)   bands (ev):

   -15.8124 -14.1142 -10.1179  -3.6804  -0.7633   8.5341   9.0439   9.2975

     occupation numbers 
     1.0000   1.0000   1.0000   1.0000   0.0000   0.0000   0.0000   0.0000

          k =-0.3750 0.8341 0.0000 (  2444 PWs)   bands (ev):

   -16.1680 -14.1875  -9.2657  -4.0971  -0.5022   8.1597   8.3128   8.8991

     occupation numbers 
     1.0000   1.0000   1.0000   1.0000   0.0000   0.0000   0.0000   0.0000

          k =-0.3750-0.4036 0.0000 (  2445 PWs)   bands (ev):

   -16.6454 -14.0066  -8.4729  -4.5594  -0.1572   7.2157   7.4187   8.1605

     occupation numbers 
     1.0000   1.0000   1.0000   1.0000   0.0000   0.0000   0.0000   0.0000

          k =-0.3750-0.3498 0.0000 (  2443 PWs)   bands (ev):

   -17.1384 -13.6665  -7.8157  -5.0256   0.2628   6.4222   6.6247   7.3930

     occupation numbers 
     1.0000   1.0000   1.0000   1.0000   0.0000   0.0000   0.0000   0.0000

          k =-0.3750-0.2960 0.0000 (  2436 PWs)   bands (ev):

   -17.5937 -13.2167  -7.3746  -5.4647   0.7440   5.8347   6.0424   6.7070

     occupation numbers 
     1.0000   1.0000   1.0000   1.0000   0.0000   0.0000   0.0000   0.0000

          k =-0.3750-0.2422 0.0000 (  2436 PWs)   bands (ev):

   -17.9886 -12.6816  -7.2127  -5.8547   1.2664   5.2870   5.9098   6.1243

     occupation numbers 
     1.0000   1.0000   1.0000   1.0000   0.0000   0.0000   0.0000   0.0000

          k =-0.3750-0.1883 0.0000 (  2438 PWs)   bands (ev):

   -18.3121 -12.0787  -7.3435  -6.1808   1.8000   4.8260   5.6509   5.8742

     occupation numbers 
     1.0000   1.0000   1.0000   1.0000   0.0000   0.0000   0.0000   0.0000

          k =-0.3750-0.1345 0.0000 (  2438 PWs)   bands (ev):

   -18.5583 -11.4280  -7.7181  -6.4328   2.3009   4.4767   5.2891   5.5386

     occupation numbers 
     1.0000   1.0000   1.0000   1.0000   0.0000   0.0000   0.0000   0.0000

          k =-0.3750-0.0807 0.0000 (  2433 PWs)   bands (ev):

   -18.7239 -10.7667  -8.2409  -6.6042   2.7066   4.2429   5.0405   5.3046

     occupation numbers 
     1.0000   1.0000   1.0000   1.0000   0.0000   0.0000   0.0000   0.0000

          k =-0.3750-0.0269 0.0000 (  2431 PWs)   bands (ev):

   -18.8071 -10.2161  -8.7370  -6.6908   2.9408   4.1258   4.9114   5.1869

     occupation numbers 
     1.0000   1.0000   1.0000   1.0000   0.0000   0.0000   0.0000   0.0000

          k =-0.3750 0.0269 0.0000 (  2431 PWs)   bands (ev):

   -18.8071 -10.2159  -8.7373  -6.6908   2.9408   4.1258   4.9114   5.1869

     occupation numbers 
     1.0000   1.0000   1.0000   1.0000   0.0000   0.0000   0.0000   0.0000

          k =-0.3750 0.0807 0.0000 (  2433 PWs)   bands (ev):

   -18.7239 -10.7662  -8.2415  -6.6042   2.7068   4.2429   5.0405   5.3046

     occupation numbers 
     1.0000   1.0000   1.0000   1.0000   0.0000   0.0000   0.0000   0.0000

          k =-0.3750 0.1345 0.0000 (  2438 PWs)   bands (ev):

   -18.5583 -11.4276  -7.7187  -6.4329   2.3012   4.4767   5.2891   5.5386

     occupation numbers 
     1.0000   1.0000   1.0000   1.0000   0.0000   0.0000   0.0000   0.0000

          k =-0.3750 0.1883 0.0000 (  2438 PWs)   bands (ev):

   -18.3121 -12.0783  -7.3442  -6.1810   1.8004   4.8260   5.6509   5.8742

     occupation numbers 
     1.0000   1.0000   1.0000   1.0000   0.0000   0.0000   0.0000   0.0000

          k =-0.3333 0.2152 0.0000 (  2431 PWs)   bands (ev):

   -18.5693 -11.7086  -7.0018  -6.4644   2.2474   4.4567   5.2801   5.5088

     occupation numbers 
     1.0000   1.0000   1.0000   1.0000   0.0000   0.0000   0.0000   0.0000

          k =-0.3333 0.2691 0.0000 (  2433 PWs)   bands (ev):

   -18.1993 -12.2858  -7.1666  -6.0739   1.6750   4.9850   5.8056   5.9861

     occupation numbers 
     1.0000   1.0000   1.0000   1.0000   0.0000   0.0000   0.0000   0.0000

          k =-0.3333 0.3229 0.0000 (  2437 PWs)   bands (ev):

   -17.7551 -12.7973  -7.6115  -5.6119   1.1090   5.6307   6.4400   6.4873

     occupation numbers 
     1.0000   1.0000   1.0000   1.0000   0.0000   0.0000   0.0000   0.0000

          k =-0.3333 0.3767 0.0000 (  2441 PWs)   bands (ev):

   -17.2445 -13.2312  -8.2772  -5.0895   0.5665   6.3913   7.1741   7.2460

     occupation numbers 
     1.0000   1.0000   1.0000   1.0000   0.0000   0.0000   0.0000   0.0000

          k =-0.3333 0.4305 0.0000 (  2440 PWs)   bands (ev):

   -16.6819 -13.5742  -9.0842  -4.5226   0.0539   7.2618   7.9750   8.1648

     occupation numbers 
     1.0000   1.0000   1.0000   1.0000   0.0000   0.0000   0.0000   0.0000

          k =-0.3333 0.4843 0.0000 (  2430 PWs)   bands (ev):

   -16.0985 -13.8041  -9.9560  -3.9325  -0.4310   8.2161   8.3593   8.6796

     occupation numbers 
     1.0000   1.0000   1.0000   1.0000   0.0000   0.0000   0.0000   0.0000

          k =-0.3333 0.5381 0.0000 (  2436 PWs)   bands (ev):

   -15.5671 -13.8730 -10.8192  -3.3505  -0.8924   8.1610   8.7824   9.3059

     occupation numbers 
     1.0000   1.0000   1.0000   1.0000   0.0000   0.0000   0.0000   0.0000

          k =-0.3333 0.5919 0.0000 (  2423 PWs)   bands (ev):

   -15.2186 -13.7253 -11.5670  -2.8343  -1.3128   8.0453   8.5450  10.4049

     occupation numbers 
     1.0000   1.0000   1.0000   1.0091   0.0000   0.0000   0.0000   0.0000

          k =-0.3333 0.6457 0.0000 (  2431 PWs)   bands (ev):

   -15.1132 -13.5610 -11.9225  -2.5734  -1.5375   8.0054   8.4351  10.7640

     occupation numbers 
     1.0000   1.0000   1.0000   1.0776   0.0001   0.0000   0.0000   0.0000

          k =-0.3333 0.6996 0.0000 (  2423 PWs)   bands (ev):

   -15.2185 -13.7257 -11.5666  -2.8339  -1.3134   8.0452   8.5451  10.4049

     occupation numbers 
     1.0000   1.0000   1.0000   1.0091   0.0000   0.0000   0.0000   0.0000

          k =-0.3333 0.7534 0.0000 (  2436 PWs)   bands (ev):

   -15.5670 -13.8735 -10.8187  -3.3500  -0.8930   8.1608   8.7825   9.3058

     occupation numbers 
     1.0000   1.0000   1.0000   1.0000   0.0000   0.0000   0.0000   0.0000

          k =-0.3333 0.8072 0.0000 (  2430 PWs)   bands (ev):

   -16.0985 -13.8045  -9.9555  -3.9321  -0.4316   8.2162   8.3587   8.6797

     occupation numbers 
     1.0000   1.0000   1.0000   1.0000   0.0000   0.0000   0.0000   0.0000

          k =-0.3333-0.4305 0.0000 (  2440 PWs)   bands (ev):

   -16.6819 -13.5746  -9.0836  -4.5222   0.0532   7.2618   7.9751   8.1642

     occupation numbers 
     1.0000   1.0000   1.0000   1.0000   0.0000   0.0000   0.0000   0.0000

          k =-0.3333-0.3767 0.0000 (  2441 PWs)   bands (ev):

   -17.2445 -13.2316  -8.2766  -5.0892   0.5659   6.3913   7.1741   7.2461

     occupation numbers 
     1.0000   1.0000   1.0000   1.0000   0.0000   0.0000   0.0000   0.0000

          k =-0.3333-0.3229 0.0000 (  2437 PWs)   bands (ev):

   -17.7552 -12.7977  -7.6108  -5.6117   1.1084   5.6307   6.4400   6.4874

     occupation numbers 
     1.0000   1.0000   1.0000   1.0000   0.0000   0.0000   0.0000   0.0000

          k =-0.3333-0.2691 0.0000 (  2433 PWs)   bands (ev):

   -18.1994 -12.2862  -7.1659  -6.0738   1.6745   4.9849   5.8056   5.9862

     occupation numbers 
     1.0000   1.0000   1.0000   1.0000   0.0000   0.0000   0.0000   0.0000

          k =-0.3333-0.2152 0.0000 (  2431 PWs)   bands (ev):

   -18.5693 -11.7090  -7.0011  -6.4643   2.2471   4.4567   5.2801   5.5089

     occupation numbers 
     1.0000   1.0000   1.0000   1.0000   0.0000   0.0000   0.0000   0.0000

          k =-0.3333-0.1614 0.0000 (  2430 PWs)   bands (ev):

   -18.8605 -11.0813  -7.1234  -6.7751   2.7952   4.0459   4.8667   5.1017

     occupation numbers 
     1.0000   1.0000   1.0000   1.0000   0.0000   0.0000   0.0000   0.0000

          k =-0.3333-0.1076 0.0000 (  2436 PWs)   bands (ev):

   -19.0701 -10.4292  -7.4758  -7.0007   3.2720   3.7523   4.5652   4.8077

     occupation numbers 
     1.0000   1.0000   1.0000   1.0000   0.0000   0.0000   0.0000   0.0000

          k =-0.3333-0.0538 0.0000 (  2431 PWs)   bands (ev):

   -19.1965  -9.8162  -7.9393  -7.1374   3.5761   3.6140   4.3740   4.6307

     occupation numbers 
     1.0000   1.0000   1.0000   1.0000   0.0000   0.0000   0.0000   0.0000

          k =-0.3333 0.0000 0.0000 (  2429 PWs)   bands (ev):

   -19.2387  -9.4897  -8.2214  -7.1832   3.5174   3.7454   4.3031   4.5716

     occupation numbers 
     1.0000   1.0000   1.0000   1.0000   0.0000   0.0000   0.0000   0.0000

          k =-0.3333 0.0538 0.0000 (  2431 PWs)   bands (ev):

   -19.1965  -9.8158  -7.9398  -7.1374   3.5761   3.6141   4.3740   4.6307

     occupation numbers 
     1.0000   1.0000   1.0000   1.0000   0.0000   0.0000   0.0000   0.0000

          k =-0.3333 0.1076 0.0000 (  2436 PWs)   bands (ev):

   -19.0701 -10.4287  -7.4765  -7.0008   3.2722   3.7523   4.5653   4.8077

     occupation numbers 
     1.0000   1.0000   1.0000   1.0000   0.0000   0.0000   0.0000   0.0000

          k =-0.3333 0.1614 0.0000 (  2430 PWs)   bands (ev):

   -18.8604 -11.0808  -7.1241  -6.7752   2.7955   4.0459   4.8668   5.1017

     occupation numbers 
     1.0000   1.0000   1.0000   1.0000   0.0000   0.0000   0.0000   0.0000

          k =-0.2917 0.1883 0.0000 (  2432 PWs)   bands (ev):

   -19.0950 -10.6947  -7.0413  -6.7399   3.2599   3.7136   4.5456   4.7662

     occupation numbers 
     1.0000   1.0000   1.0000   1.0000   0.0000   0.0000   0.0000   0.0000

          k =-0.2917 0.2422 0.0000 (  2431 PWs)   bands (ev):

   -18.7593 -11.2990  -6.9070  -6.6734   2.6790   4.1851   5.0046   5.2403

     occupation numbers 
     1.0000   1.0000   1.0000   1.0000   0.0000   0.0000   0.0000   0.0000

          k =-0.2917 0.2960 0.0000 (  2427 PWs)   bands (ev):

   -18.3439 -11.8523  -7.3534  -6.2225   2.0701   4.7737   5.5813   5.8343

     occupation numbers 
     1.0000   1.0000   1.0000   1.0000   0.0000   0.0000   0.0000   0.0000

          k =-0.2917 0.3498 0.0000 (  2431 PWs)   bands (ev):

   -17.8527 -12.3433  -8.0236  -5.6956   1.4571   5.4779   6.2672   6.5471

     occupation numbers 
     1.0000   1.0000   1.0000   1.0000   0.0000   0.0000   0.0000   0.0000

          k =-0.2917 0.4036 0.0000 (  2445 PWs)   bands (ev):

   -17.2915 -12.7656  -8.8391  -5.1023   0.8480   6.2953   7.0480   7.3761

     occupation numbers 
     1.0000   1.0000   1.0000   1.0000   0.0000   0.0000   0.0000   0.0000

          k =-0.2917 0.4574 0.0000 (  2438 PWs)   bands (ev):

   -16.6705 -13.1172  -9.7216  -4.4549   0.2412   7.2208   7.6156   7.8760

     occupation numbers 
     1.0000   1.0000   1.0000   1.0000   0.0000   0.0000   0.0000   0.0000

          k =-0.2917 0.5112 0.0000 (  2436 PWs)   bands (ev):

   -16.0089 -13.4028 -10.5957  -3.7692  -0.3733   7.3930   8.2567   8.5303

     occupation numbers 
     1.0000   1.0000   1.0000   1.0000   0.0000   0.0000   0.0000   0.0000

          k =-0.2917 0.5650 0.0000 (  2425 PWs)   bands (ev):

   -15.3508 -13.6403 -11.3652  -3.0636  -1.0071   7.2450   8.6077   9.3739

     occupation numbers 
     1.0000   1.0000   1.0000   1.0002   0.0000   0.0000   0.0000   0.0000

          k =-0.2917 0.6188 0.0000 (  2443 PWs)   bands (ev):

   -14.8272 -13.8477 -11.8609  -2.3585  -1.6681   7.1696   8.4822  10.5178

     occupation numbers 
     1.0000   1.0000   1.0000   0.9436   0.0012   0.0000   0.0000   0.0000

          k =-0.2917 0.6726 0.0000 (  2443 PWs)   bands (ev):

   -14.8271 -13.8479 -11.8607  -2.3580  -1.6686   7.1696   8.4823  10.5177

     occupation numbers 
     1.0000   1.0000   1.0000   0.9427   0.0012   0.0000   0.0000   0.0000

          k =-0.2917 0.7265 0.0000 (  2425 PWs)   bands (ev):

   -15.3508 -13.6407 -11.3648  -3.0632  -1.0077   7.2449   8.6079   9.3738

     occupation numbers 
     1.0000   1.0000   1.0000   1.0002   0.0000   0.0000   0.0000   0.0000

          k =-0.2917 0.7803 0.0000 (  2436 PWs)   bands (ev):

   -16.0089 -13.4032 -10.5952  -3.7688  -0.3739   7.3929   8.2567   8.5304

     occupation numbers 
     1.0000   1.0000   1.0000   1.0000   0.0000   0.0000   0.0000   0.0000

          k =-0.2917-0.4574 0.0000 (  2438 PWs)   bands (ev):

   -16.6705 -13.1177  -9.7211  -4.4546   0.2406   7.2208   7.6154   7.8761

     occupation numbers 
     1.0000   1.0000   1.0000   1.0000   0.0000   0.0000   0.0000   0.0000

          k =-0.2917-0.4036 0.0000 (  2445 PWs)   bands (ev):

   -17.2915 -12.7661  -8.8385  -5.1021   0.8475   6.2953   7.0480   7.3761

     occupation numbers 
     1.0000   1.0000   1.0000   1.0000   0.0000   0.0000   0.0000   0.0000

          k =-0.2917-0.3498 0.0000 (  2431 PWs)   bands (ev):

   -17.8527 -12.3437  -8.0230  -5.6954   1.4566   5.4779   6.2672   6.5470

     occupation numbers 
     1.0000   1.0000   1.0000   1.0000   0.0000   0.0000   0.0000   0.0000

          k =-0.2917-0.2960 0.0000 (  2427 PWs)   bands (ev):

   -18.3439 -11.8528  -7.3527  -6.2223   2.0696   4.7737   5.5813   5.8343

     occupation numbers 
     1.0000   1.0000   1.0000   1.0000   0.0000   0.0000   0.0000   0.0000

          k =-0.2917-0.2422 0.0000 (  2431 PWs)   bands (ev):

   -18.7593 -11.2995  -6.9063  -6.6732   2.6786   4.1851   5.0046   5.2404

     occupation numbers 
     1.0000   1.0000   1.0000   1.0000   0.0000   0.0000   0.0000   0.0000

          k =-0.2917-0.1883 0.0000 (  2432 PWs)   bands (ev):

   -19.0950 -10.6951  -7.0412  -6.7392   3.2596   3.7136   4.5456   4.7662

     occupation numbers 
     1.0000   1.0000   1.0000   1.0000   0.0000   0.0000   0.0000   0.0000

          k =-0.2917-0.1345 0.0000 (  2439 PWs)   bands (ev):

   -19.3486 -10.0594  -7.3211  -6.8509   3.3600   3.7538   4.2292   4.4109

     occupation numbers 
     1.0000   1.0000   1.0000   1.0000   0.0000   0.0000   0.0000   0.0000

          k =-0.2917-0.0807 0.0000 (  2427 PWs)   bands (ev):

   -19.5185  -9.4323  -7.5094  -7.1712   3.1243   3.8770   4.1741   4.2875

     occupation numbers 
     1.0000   1.0000   1.0000   1.0000   0.0000   0.0000   0.0000   0.0000

          k =-0.2917-0.0269 0.0000 (  2421 PWs)   bands (ev):

   -19.6037  -8.9353  -7.6042  -7.5310   3.0065   3.7905   4.0557   4.4931

     occupation numbers 
     1.0000   1.0000   1.0000   1.0000   0.0000   0.0000   0.0000   0.0000

          k =-0.2917 0.0269 0.0000 (  2421 PWs)   bands (ev):

   -19.6037  -8.9351  -7.6042  -7.5313   3.0065   3.7905   4.0557   4.4931

     occupation numbers 
     1.0000   1.0000   1.0000   1.0000   0.0000   0.0000   0.0000   0.0000

          k =-0.2917 0.0807 0.0000 (  2427 PWs)   bands (ev):

   -19.5185  -9.4318  -7.5095  -7.1718   3.1244   3.8770   4.1741   4.2877

     occupation numbers 
     1.0000   1.0000   1.0000   1.0000   0.0000   0.0000   0.0000   0.0000

          k =-0.2917 0.1345 0.0000 (  2439 PWs)   bands (ev):

   -19.3486 -10.0589  -7.3212  -6.8516   3.3600   3.7539   4.2293   4.4109

     occupation numbers 
     1.0000   1.0000   1.0000   1.0000   0.0000   0.0000   0.0000   0.0000

          k =-0.2500 0.1614 0.0000 (  2427 PWs)   bands (ev):

   -19.5577  -9.6625  -7.5623  -6.4365   3.0670   3.7968   4.1149   4.3788

     occupation numbers 
     1.0000   1.0000   1.0000   1.0000   0.0000   0.0000   0.0000   0.0000

          k =-0.2500 0.2152 0.0000 (  2424 PWs)   bands (ev):

   -19.2602 -10.2806  -7.2286  -6.6063   3.4803   3.6675   4.3386   4.5309

     occupation numbers 
     1.0000   1.0000   1.0000   1.0000   0.0000   0.0000   0.0000   0.0000

          k =-0.2500 0.2691 0.0000 (  2436 PWs)   bands (ev):

   -18.8804 -10.8646  -7.0515  -6.8056   3.0728   4.0110   4.8245   5.0658

     occupation numbers 
     1.0000   1.0000   1.0000   1.0000   0.0000   0.0000   0.0000   0.0000

          k =-0.2500 0.3229 0.0000 (  2433 PWs)   bands (ev):

   -18.4204 -11.3999  -7.7213  -6.2981   2.4208   4.6579   5.4521   5.7188

     occupation numbers 
     1.0000   1.0000   1.0000   1.0000   0.0000   0.0000   0.0000   0.0000

          k =-0.2500 0.3767 0.0000 (  2440 PWs)   bands (ev):

   -17.8837 -11.8813  -8.5383  -5.7130   1.7483   5.4199   6.1901   6.4888

     occupation numbers 
     1.0000   1.0000   1.0000   1.0000   0.0000   0.0000   0.0000   0.0000

          k =-0.2500 0.4305 0.0000 (  2431 PWs)   bands (ev):

   -17.2750 -12.3126  -9.4210  -5.0598   1.0615   6.2943   6.6876   7.0178

     occupation numbers 
     1.0000   1.0000   1.0000   1.0000   0.0000   0.0000   0.0000   0.0000

          k =-0.2500 0.4843 0.0000 (  2432 PWs)   bands (ev):

   -16.6021 -12.7144 -10.2876  -4.3517   0.3578   6.4452   7.2813   7.8722

     occupation numbers 
     1.0000   1.0000   1.0000   1.0000   0.0000   0.0000   0.0000   0.0000

          k =-0.2500 0.5381 0.0000 (  2426 PWs)   bands (ev):

   -15.8779 -13.1383 -11.0359  -3.6078  -0.3633   6.2692   8.3686   8.4965

     occupation numbers 
     1.0000   1.0000   1.0000   1.0000   0.0000   0.0000   0.0000   0.0000

          k =-0.2500 0.5919 0.0000 (  2433 PWs)   bands (ev):

   -15.1287 -13.6626 -11.5382  -2.8675  -1.0813   6.1620   8.6077   9.5392

     occupation numbers 
     1.0000   1.0000   1.0000   1.0059   0.0000   0.0000   0.0000   0.0000

          k =-0.2500 0.6457 0.0000 (  2439 PWs)   bands (ev):

   -14.5319 -14.1820 -11.7095  -2.3824  -1.5574   6.1260   8.5800  10.6657

     occupation numbers 
     1.0000   1.0000   1.0000   0.9835   0.0001   0.0000   0.0000   0.0000

          k =-0.2500 0.6996 0.0000 (  2433 PWs)   bands (ev):

   -15.1287 -13.6629 -11.5379  -2.8672  -1.0817   6.1620   8.6078   9.5392

     occupation numbers 
     1.0000   1.0000   1.0000   1.0059   0.0000   0.0000   0.0000   0.0000

          k =-0.2500 0.7534 0.0000 (  2426 PWs)   bands (ev):

   -15.8779 -13.1387 -11.0355  -3.6075  -0.3638   6.2692   8.3686   8.4967

     occupation numbers 
     1.0000   1.0000   1.0000   1.0000   0.0000   0.0000   0.0000   0.0000

          k =-0.2500-0.4843 0.0000 (  2432 PWs)   bands (ev):

   -16.6021 -12.7148 -10.2871  -4.3514   0.3573   6.4452   7.2813   7.8723

     occupation numbers 
     1.0000   1.0000   1.0000   1.0000   0.0000   0.0000   0.0000   0.0000

          k =-0.2500-0.4305 0.0000 (  2431 PWs)   bands (ev):

   -17.2750 -12.3131  -9.4204  -5.0596   1.0611   6.2943   6.6876   7.0178

     occupation numbers 
     1.0000   1.0000   1.0000   1.0000   0.0000   0.0000   0.0000   0.0000

          k =-0.2500-0.3767 0.0000 (  2440 PWs)   bands (ev):

   -17.8837 -11.8818  -8.5377  -5.7128   1.7479   5.4199   6.1901   6.4887

     occupation numbers 
     1.0000   1.0000   1.0000   1.0000   0.0000   0.0000   0.0000   0.0000

          k =-0.2500-0.3229 0.0000 (  2433 PWs)   bands (ev):

   -18.4205 -11.4004  -7.7206  -6.2980   2.4204   4.6579   5.4521   5.7188

     occupation numbers 
     1.0000   1.0000   1.0000   1.0000   0.0000   0.0000   0.0000   0.0000

          k =-0.2500-0.2691 0.0000 (  2436 PWs)   bands (ev):

   -18.8804 -10.8651  -7.0508  -6.8055   3.0725   4.0110   4.8245   5.0658

     occupation numbers 
     1.0000   1.0000   1.0000   1.0000   0.0000   0.0000   0.0000   0.0000

          k =-0.2500-0.2152 0.0000 (  2424 PWs)   bands (ev):

   -19.2603 -10.2812  -7.2285  -6.6055   3.4803   3.6672   4.3385   4.5309

     occupation numbers 
     1.0000   1.0000   1.0000   1.0000   0.0000   0.0000   0.0000   0.0000

          k =-0.2500-0.1614 0.0000 (  2427 PWs)   bands (ev):

   -19.5577  -9.6631  -7.5622  -6.4357   3.0670   3.7969   4.1149   4.3786

     occupation numbers 
     1.0000   1.0000   1.0000   1.0000   0.0000   0.0000   0.0000   0.0000

          k =-0.2500-0.1076 0.0000 (  2419 PWs)   bands (ev):

   -19.7712  -9.0397  -7.8028  -6.5320   2.7717   3.5457   3.8179   4.8212

     occupation numbers 
     1.0000   1.0000   1.0000   1.0000   0.0000   0.0000   0.0000   0.0000

          k =-0.2500-0.0538 0.0000 (  2421 PWs)   bands (ev):

   -19.8997  -8.4789  -7.9480  -6.8016   2.5945   3.3776   3.6399   5.1523

     occupation numbers 
     1.0000   1.0000   1.0000   1.0000   0.0000   0.0000   0.0000   0.0000

          k =-0.2500 0.0000 0.0000 (  2411 PWs)   bands (ev):

   -19.9426  -8.1995  -7.9966  -6.9893   2.5354   3.3207   3.5806   5.2855

     occupation numbers 
     1.0000   1.0000   1.0000   1.0000   0.0000   0.0000   0.0000   0.0000

          k =-0.2500 0.0538 0.0000 (  2421 PWs)   bands (ev):

   -19.8997  -8.4784  -7.9481  -6.8022   2.5945   3.3776   3.6399   5.1531

     occupation numbers 
     1.0000   1.0000   1.0000   1.0000   0.0000   0.0000   0.0000   0.0000

          k =-0.2500 0.1076 0.0000 (  2419 PWs)   bands (ev):

   -19.7712  -9.0391  -7.8028  -6.5327   2.7717   3.5457   3.8179   4.8216

     occupation numbers 
     1.0000   1.0000   1.0000   1.0000   0.0000   0.0000   0.0000   0.0000

          k =-0.2083 0.1345 0.0000 (  2423 PWs)   bands (ev):

   -19.9533  -8.6396  -8.0149  -6.1034   2.5187   3.2951   3.5626   5.2397

     occupation numbers 
     1.0000   1.0000   1.0000   1.0000   0.0000   0.0000   0.0000   0.0000

          k =-0.2083 0.1883 0.0000 (  2429 PWs)   bands (ev):

   -19.6962  -9.2540  -7.7222  -6.2773   2.8734   3.6345   3.9195   4.7605

     occupation numbers 
     1.0000   1.0000   1.0000   1.0000   0.0000   0.0000   0.0000   0.0000

          k =-0.2083 0.2422 0.0000 (  2434 PWs)   bands (ev):

   -19.3550  -9.8575  -7.3359  -6.7188   3.3456   3.9402   4.2976   4.3950

     occupation numbers 
     1.0000   1.0000   1.0000   1.0000   0.0000   0.0000   0.0000   0.0000

          k =-0.2083 0.2960 0.0000 (  2440 PWs)   bands (ev):

   -18.9315 -10.4292  -7.3830  -6.8598   3.3960   3.9347   4.7383   4.9887

     occupation numbers 
     1.0000   1.0000   1.0000   1.0000   0.0000   0.0000   0.0000   0.0000

          k =-0.2083 0.3498 0.0000 (  2429 PWs)   bands (ev):

   -18.4276 -10.9626  -8.1931  -6.2994   2.6842   4.6399   5.4193   5.6996

     occupation numbers 
     1.0000   1.0000   1.0000   1.0000   0.0000   0.0000   0.0000   0.0000

          k =-0.2083 0.4036 0.0000 (  2424 PWs)   bands (ev):

   -17.8465 -11.4661  -9.0638  -5.6623   1.9357   5.4591   5.7536   6.2119

     occupation numbers 
     1.0000   1.0000   1.0000   1.0000   0.0000   0.0000   0.0000   0.0000

          k =-0.2083 0.4574 0.0000 (  2426 PWs)   bands (ev):

   -17.1925 -11.9723  -9.9018  -4.9604   1.1604   5.4860   6.3938   7.0897

     occupation numbers 
     1.0000   1.0000   1.0000   1.0000   0.0000   0.0000   0.0000   0.0000

          k =-0.2083 0.5112 0.0000 (  2426 PWs)   bands (ev):

   -16.4719 -12.5455 -10.5959  -4.2124   0.3679   5.2813   7.4360   7.9803

     occupation numbers 
     1.0000   1.0000   1.0000   1.0000   0.0000   0.0000   0.0000   0.0000

          k =-0.2083 0.5650 0.0000 (  2423 PWs)   bands (ev):

   -15.6943 -13.2427 -11.0538  -3.4575  -0.4114   5.1422   8.5792   8.6211

     occupation numbers 
     1.0000   1.0000   1.0000   1.0000   0.0000   0.0000   0.0000   0.0000

          k =-0.2083 0.6188 0.0000 (  2429 PWs)   bands (ev):

   -14.8758 -14.0403 -11.2671  -2.8330  -1.0469   5.0719   8.7940   9.8009

     occupation numbers 
     1.0000   1.0000   1.0000   1.0092   0.0000   0.0000   0.0000   0.0000

          k =-0.2083 0.6726 0.0000 (  2429 PWs)   bands (ev):

   -14.8757 -14.0404 -11.2671  -2.8329  -1.0471   5.0719   8.7941   9.8009

     occupation numbers 
     1.0000   1.0000   1.0000   1.0093   0.0000   0.0000   0.0000   0.0000

          k =-0.2083 0.7265 0.0000 (  2423 PWs)   bands (ev):

   -15.6943 -13.2430 -11.0535  -3.4573  -0.4117   5.1422   8.5792   8.6212

     occupation numbers 
     1.0000   1.0000   1.0000   1.0000   0.0000   0.0000   0.0000   0.0000

          k =-0.2083-0.5112 0.0000 (  2426 PWs)   bands (ev):

   -16.4719 -12.5459 -10.5954  -4.2122   0.3675   5.2814   7.4359   7.9804

     occupation numbers 
     1.0000   1.0000   1.0000   1.0000   0.0000   0.0000   0.0000   0.0000

          k =-0.2083-0.4574 0.0000 (  2426 PWs)   bands (ev):

   -17.1926 -11.9727  -9.9012  -4.9602   1.1600   5.4861   6.3938   7.0897

     occupation numbers 
     1.0000   1.0000   1.0000   1.0000   0.0000   0.0000   0.0000   0.0000

          k =-0.2083-0.4036 0.0000 (  2424 PWs)   bands (ev):

   -17.8466 -11.4667  -9.0632  -5.6622   1.9353   5.4591   5.7537   6.2120

     occupation numbers 
     1.0000   1.0000   1.0000   1.0000   0.0000   0.0000   0.0000   0.0000

          k =-0.2083-0.3498 0.0000 (  2429 PWs)   bands (ev):

   -18.4276 -10.9631  -8.1924  -6.2993   2.6838   4.6399   5.4193   5.6996

     occupation numbers 
     1.0000   1.0000   1.0000   1.0000   0.0000   0.0000   0.0000   0.0000

          k =-0.2083-0.2960 0.0000 (  2440 PWs)   bands (ev):

   -18.9315 -10.4297  -7.3823  -6.8597   3.3956   3.9347   4.7383   4.9887

     occupation numbers 
     1.0000   1.0000   1.0000   1.0000   0.0000   0.0000   0.0000   0.0000

          k =-0.2083-0.2422 0.0000 (  2434 PWs)   bands (ev):

   -19.3551  -9.8580  -7.3358  -6.7180   3.3456   3.9401   4.2974   4.3950

     occupation numbers 
     1.0000   1.0000   1.0000   1.0000   0.0000   0.0000   0.0000   0.0000

          k =-0.2083-0.1883 0.0000 (  2429 PWs)   bands (ev):

   -19.6962  -9.2546  -7.7221  -6.2765   2.8734   3.6345   3.9195   4.7602

     occupation numbers 
     1.0000   1.0000   1.0000   1.0000   0.0000   0.0000   0.0000   0.0000

          k =-0.2083-0.1345 0.0000 (  2423 PWs)   bands (ev):

   -19.9533  -8.6402  -8.0149  -6.1025   2.5187   3.2951   3.5626   5.2396

     occupation numbers 
     1.0000   1.0000   1.0000   1.0000   0.0000   0.0000   0.0000   0.0000

          k =-0.2083-0.0807 0.0000 (  2426 PWs)   bands (ev):

   -20.1253  -8.2114  -8.0595  -6.1745   2.2821   3.0638   3.3248   5.2661

     occupation numbers 
     1.0000   1.0000   1.0000   1.0000   0.0000   0.0000   0.0000   0.0000

          k =-0.2083-0.0269 0.0000 (  2405 PWs)   bands (ev):

   -20.2114  -8.3100  -7.6299  -6.3599   2.1638   2.9474   3.2059   5.1719

     occupation numbers 
     1.0000   1.0000   1.0000   1.0000   0.0000   0.0000   0.0000   0.0000

          k =-0.2083 0.0269 0.0000 (  2405 PWs)   bands (ev):

   -20.2114  -8.3100  -7.6296  -6.3603   2.1638   2.9474   3.2059   5.1719

     occupation numbers 
     1.0000   1.0000   1.0000   1.0000   0.0000   0.0000   0.0000   0.0000

          k =-0.2083 0.0807 0.0000 (  2426 PWs)   bands (ev):

   -20.1252  -8.2114  -8.0589  -6.1753   2.2821   3.0638   3.3248   5.2660

     occupation numbers 
     1.0000   1.0000   1.0000   1.0000   0.0000   0.0000   0.0000   0.0000

          k =-0.1667 0.1076 0.0000 (  2420 PWs)   bands (ev):

   -20.2792  -8.3918  -7.6641  -5.7548   2.0696   2.8496   3.1105   5.0692

     occupation numbers 
     1.0000   1.0000   1.0000   1.0000   0.0000   0.0000   0.0000   0.0000

          k =-0.1667 0.1614 0.0000 (  2426 PWs)   bands (ev):

   -20.0637  -8.2492  -8.1440  -5.9373   2.3654   3.1419   3.4079   5.3115

     occupation numbers 
     1.0000   1.0000   1.0000   1.0000   0.0000   0.0000   0.0000   0.0000

          k =-0.1667 0.2152 0.0000 (  2422 PWs)   bands (ev):

   -19.7632  -8.8562  -7.7997  -6.3739   2.7789   3.5478   3.8240   5.0668

     occupation numbers 
     1.0000   1.0000   1.0000   1.0000   0.0000   0.0000   0.0000   0.0000

          k =-0.1667 0.2691 0.0000 (  2428 PWs)   bands (ev):

   -19.3786  -9.4547  -7.3619  -7.0273   3.3097   4.0312   4.3584   4.4333

     occupation numbers 
     1.0000   1.0000   1.0000   1.0000   0.0000   0.0000   0.0000   0.0000

          k =-0.1667 0.3229 0.0000 (  2434 PWs)   bands (ev):

   -18.9118 -10.0354  -7.8220  -6.8352   3.6052   3.9571   4.7456   5.0094

     occupation numbers 
     1.0000   1.0000   1.0000   1.0000   0.0000   0.0000   0.0000   0.0000

          k =-0.1667 0.3767 0.0000 (  2416 PWs)   bands (ev):

   -18.3647 -10.6117  -8.6663  -6.2259   2.8123   4.7185   4.9036   5.4867

     occupation numbers 
     1.0000   1.0000   1.0000   1.0000   0.0000   0.0000   0.0000   0.0000

          k =-0.1667 0.4305 0.0000 (  2414 PWs)   bands (ev):

   -17.7404 -11.2285  -9.4532  -5.5438   1.9759   4.6048   5.5996   6.3372

     occupation numbers 
     1.0000   1.0000   1.0000   1.0000   0.0000   0.0000   0.0000   0.0000

          k =-0.1667 0.4843 0.0000 (  2406 PWs)   bands (ev):

   -17.0429 -11.9483 -10.0736  -4.8052   1.1161   4.3683   6.5902   7.2705

     occupation numbers 
     1.0000   1.0000   1.0000   1.0000   0.0000   0.0000   0.0000   0.0000

          k =-0.1667 0.5381 0.0000 (  2425 PWs)   bands (ev):

   -16.2778 -12.7824 -10.4821  -4.0424   0.2649   4.1959   7.6892   8.2134

     occupation numbers 
     1.0000   1.0000   1.0000   1.0000   0.0000   0.0000   0.0000   0.0000

          k =-0.1667 0.5919 0.0000 (  2425 PWs)   bands (ev):

   -15.4532 -13.6767 -10.7054  -3.3419  -0.4899   4.0915   8.8872   8.9086

     occupation numbers 
     1.0000   1.0000   1.0000   1.0000   0.0000   0.0000   0.0000   0.0000

          k =-0.1667 0.6457 0.0000 (  2431 PWs)   bands (ev):

   -14.6278 -14.5301 -10.7762  -2.9940  -0.8562   4.0565   9.1041  10.1251

     occupation numbers 
     1.0000   1.0000   1.0000   1.0008   0.0000   0.0000   0.0000   0.0000

          k =-0.1667 0.6996 0.0000 (  2425 PWs)   bands (ev):

   -15.4532 -13.6768 -10.7053  -3.3417  -0.4901   4.0915   8.8871   8.9087

     occupation numbers 
     1.0000   1.0000   1.0000   1.0000   0.0000   0.0000   0.0000   0.0000

          k =-0.1667-0.5381 0.0000 (  2425 PWs)   bands (ev):

   -16.2778 -12.7826 -10.4818  -4.0423   0.2646   4.1959   7.6892   8.2135

     occupation numbers 
     1.0000   1.0000   1.0000   1.0000   0.0000   0.0000   0.0000   0.0000

          k =-0.1667-0.4843 0.0000 (  2406 PWs)   bands (ev):

   -17.0429 -11.9487 -10.0732  -4.8050   1.1157   4.3683   6.5902   7.2706

     occupation numbers 
     1.0000   1.0000   1.0000   1.0000   0.0000   0.0000   0.0000   0.0000

          k =-0.1667-0.4305 0.0000 (  2414 PWs)   bands (ev):

   -17.7404 -11.2290  -9.4526  -5.5437   1.9756   4.6049   5.5996   6.3373

     occupation numbers 
     1.0000   1.0000   1.0000   1.0000   0.0000   0.0000   0.0000   0.0000

          k =-0.1667-0.3767 0.0000 (  2416 PWs)   bands (ev):

   -18.3647 -10.6123  -8.6656  -6.2258   2.8120   4.7185   4.9037   5.4867

     occupation numbers 
     1.0000   1.0000   1.0000   1.0000   0.0000   0.0000   0.0000   0.0000

          k =-0.1667-0.3229 0.0000 (  2434 PWs)   bands (ev):

   -18.9118 -10.0360  -7.8212  -6.8352   3.6048   3.9571   4.7456   5.0095

     occupation numbers 
     1.0000   1.0000   1.0000   1.0000   0.0000   0.0000   0.0000   0.0000

          k =-0.1667-0.2691 0.0000 (  2428 PWs)   bands (ev):

   -19.3786  -9.4554  -7.3619  -7.0265   3.3097   4.0313   4.3584   4.4330

     occupation numbers 
     1.0000   1.0000   1.0000   1.0000   0.0000   0.0000   0.0000   0.0000

          k =-0.1667-0.2152 0.0000 (  2422 PWs)   bands (ev):

   -19.7632  -8.8569  -7.7997  -6.3731   2.7789   3.5478   3.8240   5.0666

     occupation numbers 
     1.0000   1.0000   1.0000   1.0000   0.0000   0.0000   0.0000   0.0000

          k =-0.1667-0.1614 0.0000 (  2426 PWs)   bands (ev):

   -20.0637  -8.2499  -8.1440  -5.9364   2.3654   3.1419   3.4079   5.3116

     occupation numbers 
     1.0000   1.0000   1.0000   1.0000   0.0000   0.0000   0.0000   0.0000

          k =-0.1667-0.1076 0.0000 (  2420 PWs)   bands (ev):

   -20.2792  -8.3918  -7.6648  -5.7539   2.0696   2.8496   3.1105   5.0692

     occupation numbers 
     1.0000   1.0000   1.0000   1.0000   0.0000   0.0000   0.0000   0.0000

          k =-0.1667-0.0538 0.0000 (  2412 PWs)   bands (ev):

   -20.4088  -8.5412  -7.1733  -5.7860   1.8920   2.6736   2.9320   4.9035

     occupation numbers 
     1.0000   1.0000   1.0000   1.0000   0.0000   0.0000   0.0000   0.0000

          k =-0.1667-0.0000 0.0000 (  2415 PWs)   bands (ev):

   -20.4520  -8.5912  -6.9507  -5.8574   1.8328   2.6149   2.8725   4.8474

     occupation numbers 
     1.0000   1.0000   1.0000   1.0000   0.0000   0.0000   0.0000   0.0000

          k =-0.1667 0.0538 0.0000 (  2412 PWs)   bands (ev):

   -20.4088  -8.5413  -7.1727  -5.7866   1.8920   2.6736   2.9320   4.9036

     occupation numbers 
     1.0000   1.0000   1.0000   1.0000   0.0000   0.0000   0.0000   0.0000

          k =-0.1250 0.0807 0.0000 (  2424 PWs)   bands (ev):

   -20.5340  -8.6886  -6.7942  -5.4065   1.7203   2.4999   2.7589   4.7332

     occupation numbers 
     1.0000   1.0000   1.0000   1.0000   0.0000   0.0000   0.0000   0.0000

          k =-0.1250 0.1345 0.0000 (  2422 PWs)   bands (ev):

   -20.3609  -8.4881  -7.3092  -5.6062   1.9570   2.7353   2.9968   4.9608

     occupation numbers 
     1.0000   1.0000   1.0000   1.0000   0.0000   0.0000   0.0000   0.0000

          k =-0.1250 0.1883 0.0000 (  2418 PWs)   bands (ev):

   -20.1020  -8.1892  -7.8950  -6.0401   2.3115   3.0878   3.3533   5.3974

     occupation numbers 
     1.0000   1.0000   1.0000   1.0000   0.0000   0.0000   0.0000   0.0000

          k =-0.1250 0.2422 0.0000 (  2426 PWs)   bands (ev):

   -19.7582  -8.5041  -7.7943  -6.6801   2.7835   3.5559   3.8282   4.9836

     occupation numbers 
     1.0000   1.0000   1.0000   1.0000   0.0000   0.0000   0.0000   0.0000

          k =-0.1250 0.2960 0.0000 (  2417 PWs)   bands (ev):

   -19.3306  -9.1232  -7.4521  -7.3068   3.3726   4.1242   4.4182   4.5186

     occupation numbers 
     1.0000   1.0000   1.0000   1.0000   0.0000   0.0000   0.0000   0.0000

          k =-0.1250 0.3498 0.0000 (  2411 PWs)   bands (ev):

   -18.8210  -9.7723  -8.2561  -6.7321   3.6530   4.0736   4.2006   4.8529

     occupation numbers 
     1.0000   1.0000   1.0000   1.0000   0.0000   0.0000   0.0000   0.0000

          k =-0.1250 0.4036 0.0000 (  2413 PWs)   bands (ev):

   -18.2315 -10.5055  -8.9738  -6.0784   2.7694   3.8659   4.9015   5.6585

     occupation numbers 
     1.0000   1.0000   1.0000   1.0000   0.0000   0.0000   0.0000   0.0000

          k =-0.1250 0.4574 0.0000 (  2408 PWs)   bands (ev):

   -17.5652 -11.3595  -9.5199  -5.3590   1.8515   3.5955   5.8373   6.5690

     occupation numbers 
     1.0000   1.0000   1.0000   1.0000   0.0000   0.0000   0.0000   0.0000

          k =-0.1250 0.5112 0.0000 (  2407 PWs)   bands (ev):

   -16.8259 -12.2994  -9.8936  -4.5986   0.9326   3.3886   6.8852   7.5618

     occupation numbers 
     1.0000   1.0000   1.0000   1.0000   0.0000   0.0000   0.0000   0.0000

          k =-0.1250 0.5650 0.0000 (  2425 PWs)   bands (ev):

   -16.0191 -13.2670 -10.1265  -3.8552   0.0777   3.2491   8.0402   8.5675

     occupation numbers 
     1.0000   1.0000   1.0000   1.0000   0.0000   0.0000   0.0000   0.0000

          k =-0.1250 0.6188 0.0000 (  2423 PWs)   bands (ev):

   -15.1560 -14.2175 -10.2389  -3.2988  -0.5363   3.1789   9.2911   9.3105

     occupation numbers 
     1.0000   1.0000   1.0000   1.0000   0.0000   0.0000   0.0000   0.0000

          k =-0.1250 0.6726 0.0000 (  2423 PWs)   bands (ev):

   -15.1560 -14.2176 -10.2389  -3.2987  -0.5363   3.1789   9.2910   9.3106

     occupation numbers 
     1.0000   1.0000   1.0000   1.0000   0.0000   0.0000   0.0000   0.0000

          k =-0.1250-0.5650 0.0000 (  2425 PWs)   bands (ev):

   -16.0191 -13.2671 -10.1264  -3.8551   0.0776   3.2491   8.0402   8.5676

     occupation numbers 
     1.0000   1.0000   1.0000   1.0000   0.0000   0.0000   0.0000   0.0000

          k =-0.1250-0.5112 0.0000 (  2407 PWs)   bands (ev):

   -16.8259 -12.2996  -9.8933  -4.5985   0.9324   3.3887   6.8852   7.5618

     occupation numbers 
     1.0000   1.0000   1.0000   1.0000   0.0000   0.0000   0.0000   0.0000

          k =-0.1250-0.4574 0.0000 (  2408 PWs)   bands (ev):

   -17.5652 -11.3598  -9.5195  -5.3590   1.8512   3.5955   5.8373   6.5694

     occupation numbers 
     1.0000   1.0000   1.0000   1.0000   0.0000   0.0000   0.0000   0.0000

          k =-0.1250-0.4036 0.0000 (  2413 PWs)   bands (ev):

   -18.2315 -10.5060  -8.9732  -6.0784   2.7691   3.8660   4.9015   5.6584

     occupation numbers 
     1.0000   1.0000   1.0000   1.0000   0.0000   0.0000   0.0000   0.0000

          k =-0.1250-0.3498 0.0000 (  2411 PWs)   bands (ev):

   -18.8210  -9.7729  -8.2553  -6.7321   3.6527   4.0736   4.2007   4.8530

     occupation numbers 
     1.0000   1.0000   1.0000   1.0000   0.0000   0.0000   0.0000   0.0000

          k =-0.1250-0.2960 0.0000 (  2417 PWs)   bands (ev):

   -19.3306  -9.1239  -7.4513  -7.3067   3.3726   4.1241   4.4182   4.5183

     occupation numbers 
     1.0000   1.0000   1.0000   1.0000   0.0000   0.0000   0.0000   0.0000

          k =-0.1250-0.2422 0.0000 (  2426 PWs)   bands (ev):

   -19.7582  -8.5049  -7.7943  -6.6792   2.7835   3.5559   3.8282   4.9837

     occupation numbers 
     1.0000   1.0000   1.0000   1.0000   0.0000   0.0000   0.0000   0.0000

          k =-0.1250-0.1883 0.0000 (  2418 PWs)   bands (ev):

   -20.1020  -8.1892  -7.8957  -6.0392   2.3115   3.0878   3.3533   5.2898

     occupation numbers 
     1.0000   1.0000   1.0000   1.0000   0.0000   0.0000   0.0000   0.0000

          k =-0.1250-0.1345 0.0000 (  2422 PWs)   bands (ev):

   -20.3609  -8.4881  -7.3100  -5.6053   1.9570   2.7353   2.9968   4.9608

     occupation numbers 
     1.0000   1.0000   1.0000   1.0000   0.0000   0.0000   0.0000   0.0000

          k =-0.1250-0.0807 0.0000 (  2424 PWs)   bands (ev):

   -20.5340  -8.6885  -6.7949  -5.4057   1.7203   2.4999   2.7589   4.7332

     occupation numbers 
     1.0000   1.0000   1.0000   1.0000   0.0000   0.0000   0.0000   0.0000

          k =-0.1250-0.0269 0.0000 (  2415 PWs)   bands (ev):

   -20.6206  -8.7891  -6.4541  -5.3814   1.6019   2.3820   2.6399   4.6186

     occupation numbers 
     1.0000   1.0000   1.0000   1.0000   0.0000   0.0000   0.0000   0.0000

          k =-0.1250 0.0269 0.0000 (  2415 PWs)   bands (ev):

   -20.6206  -8.7891  -6.4538  -5.3818   1.6019   2.3820   2.6399   4.6186

     occupation numbers 
     1.0000   1.0000   1.0000   1.0000   0.0000   0.0000   0.0000   0.0000

          k =-0.0833 0.0538 0.0000 (  2419 PWs)   bands (ev):

   -20.7166  -8.9022  -6.1117  -5.0763   1.4710   2.2493   2.5080   4.4881

     occupation numbers 
     1.0000   1.0000   1.0000   1.0000   0.0000   0.0000   0.0000   0.0000

          k =-0.0833 0.1076 0.0000 (  2429 PWs)   bands (ev):

   -20.5865  -8.7508  -6.5022  -5.3023   1.6484   2.4264   2.6863   4.6614

     occupation numbers 
     1.0000   1.0000   1.0000   1.0000   0.0000   0.0000   0.0000   0.0000

          k =-0.0833 0.1614 0.0000 (  2435 PWs)   bands (ev):

   -20.3700  -8.4996  -7.0250  -5.7412   1.9438   2.7212   2.9832   4.9487

     occupation numbers 
     1.0000   1.0000   1.0000   1.0000   0.0000   0.0000   0.0000   0.0000

          k =-0.0833 0.2152 0.0000 (  2431 PWs)   bands (ev):

   -20.0679  -8.1503  -7.6150  -6.3718   2.3569   3.1333   3.3986   4.5265

     occupation numbers 
     1.0000   1.0000   1.0000   1.0000   0.0000   0.0000   0.0000   0.0000

          k =-0.0833 0.2691 0.0000 (  2423 PWs)   bands (ev):

   -19.6810  -8.2520  -7.7060  -7.1215   2.8872   3.6618   3.9281   4.1046

     occupation numbers 
     1.0000   1.0000   1.0000   1.0000   0.0000   0.0000   0.0000   0.0000

          k =-0.0833 0.3229 0.0000 (  2416 PWs)   bands (ev):

   -19.2109  -8.9661  -7.8764  -7.1709   3.5299   3.6981   4.2916   4.4453

     occupation numbers 
     1.0000   1.0000   1.0000   1.0000   0.0000   0.0000   0.0000   0.0000

          k =-0.0833 0.3767 0.0000 (  2410 PWs)   bands (ev):

   -18.6592  -9.8112  -8.5156  -6.5516   3.3301   3.5112   4.3012   5.0674

     occupation numbers 
     1.0000   1.0000   1.0000   1.0000   0.0000   0.0000   0.0000   0.0000

          k =-0.0833 0.4305 0.0000 (  2418 PWs)   bands (ev):

   -18.0283 -10.7736  -9.0013  -5.8590   2.5520   3.0250   5.1804   5.9347

     occupation numbers 
     1.0000   1.0000   1.0000   1.0000   0.0000   0.0000   0.0000   0.0000

          k =-0.0833 0.4843 0.0000 (  2406 PWs)   bands (ev):

   -17.3212 -11.7904  -9.3582  -5.1117   1.5798   2.7827   6.1739   6.9045

     occupation numbers 
     1.0000   1.0000   1.0000   1.0000   0.0000   0.0000   0.0000   0.0000

          k =-0.0833 0.5381 0.0000 (  2401 PWs)   bands (ev):

   -16.5421 -12.8135  -9.6060  -4.3493   0.6458   2.6074   7.2784   7.9566

     occupation numbers 
     1.0000   1.0000   1.0000   1.0000   0.0000   0.0000   0.0000   0.0000

          k =-0.0833 0.5919 0.0000 (  2420 PWs)   bands (ev):

   -15.6975 -13.8121  -9.7531  -3.6752  -0.1363   2.5014   8.4879   9.0194

     occupation numbers 
     1.0000   1.0000   1.0000   1.0000   0.0000   0.0000   0.0000   0.0000

          k =-0.0833 0.6457 0.0000 (  2418 PWs)   bands (ev):

   -14.8961 -14.6660  -9.8018  -3.3638  -0.4845   2.4659   9.6681   9.7662

     occupation numbers 
     1.0000   1.0000   1.0000   1.0000   0.0000   0.0000   0.0000   0.0000

          k =-0.0833-0.5919 0.0000 (  2420 PWs)   bands (ev):

   -15.6975 -13.8122  -9.7530  -3.6752  -0.1364   2.5014   8.4879   9.0196

     occupation numbers 
     1.0000   1.0000   1.0000   1.0000   0.0000   0.0000   0.0000   0.0000

          k =-0.0833-0.5381 0.0000 (  2401 PWs)   bands (ev):

   -16.5421 -12.8136  -9.6059  -4.3492   0.6456   2.6074   7.2784   7.9565

     occupation numbers 
     1.0000   1.0000   1.0000   1.0000   0.0000   0.0000   0.0000   0.0000

          k =-0.0833-0.4843 0.0000 (  2406 PWs)   bands (ev):

   -17.3213 -11.7905  -9.3581  -5.1116   1.5796   2.7827   6.1739   6.9046

     occupation numbers 
     1.0000   1.0000   1.0000   1.0000   0.0000   0.0000   0.0000   0.0000

          k =-0.0833-0.4305 0.0000 (  2418 PWs)   bands (ev):

   -18.0284 -10.7739  -9.0010  -5.8589   2.5518   3.0251   5.1804   5.9349

     occupation numbers 
     1.0000   1.0000   1.0000   1.0000   0.0000   0.0000   0.0000   0.0000

          k =-0.0833-0.3767 0.0000 (  2410 PWs)   bands (ev):

   -18.6592  -9.8117  -8.5151  -6.5516   3.3302   3.5110   4.3011   5.0674

     occupation numbers 
     1.0000   1.0000   1.0000   1.0000   0.0000   0.0000   0.0000   0.0000

          k =-0.0833-0.3229 0.0000 (  2416 PWs)   bands (ev):

   -19.2109  -8.9669  -7.8756  -7.1708   3.5300   3.6982   4.2916   4.4450

     occupation numbers 
     1.0000   1.0000   1.0000   1.0000   0.0000   0.0000   0.0000   0.0000

          k =-0.0833-0.2691 0.0000 (  2423 PWs)   bands (ev):

   -19.6811  -8.2529  -7.7060  -7.1205   2.8872   3.6618   3.9281   4.1047

     occupation numbers 
     1.0000   1.0000   1.0000   1.0000   0.0000   0.0000   0.0000   0.0000

          k =-0.0833-0.2152 0.0000 (  2431 PWs)   bands (ev):

   -20.0679  -8.1503  -7.6158  -6.3709   2.3569   3.1333   3.3986   4.5266

     occupation numbers 
     1.0000   1.0000   1.0000   1.0000   0.0000   0.0000   0.0000   0.0000

          k =-0.0833-0.1614 0.0000 (  2435 PWs)   bands (ev):

   -20.3700  -8.4996  -7.0258  -5.7403   1.9438   2.7212   2.9832   4.9410

     occupation numbers 
     1.0000   1.0000   1.0000   1.0000   0.0000   0.0000   0.0000   0.0000

          k =-0.0833-0.1076 0.0000 (  2429 PWs)   bands (ev):

   -20.5865  -8.7508  -6.5029  -5.3015   1.6484   2.4264   2.6863   4.6613

     occupation numbers 
     1.0000   1.0000   1.0000   1.0000   0.0000   0.0000   0.0000   0.0000

          k =-0.0833-0.0538 0.0000 (  2419 PWs)   bands (ev):

   -20.7166  -8.9022  -6.1122  -5.0757   1.4710   2.2493   2.5080   4.4881

     occupation numbers 
     1.0000   1.0000   1.0000   1.0000   0.0000   0.0000   0.0000   0.0000

          k =-0.0833 0.0000 0.0000 (  2415 PWs)   bands (ev):

   -20.7600  -8.9528  -5.9592  -5.0165   1.4118   2.1903   2.4485   4.4302

     occupation numbers 
     1.0000   1.0000   1.0000   1.0000   0.0000   0.0000   0.0000   0.0000

          k =-0.0417 0.0269 0.0000 (  2425 PWs)   bands (ev):

   -20.8264  -9.0310  -5.6958  -4.8072   1.3216   2.0988   2.3576   4.3402

     occupation numbers 
     1.0000   1.0000   1.0000   1.0000   0.0000   0.0000   0.0000   0.0000

          k =-0.0417 0.0807 0.0000 (  2432 PWs)   bands (ev):

   -20.7395  -8.9297  -5.9279  -5.0328   1.4398   2.2170   2.4764   4.4562

     occupation numbers 
     1.0000   1.0000   1.0000   1.0000   0.0000   0.0000   0.0000   0.0000

          k =-0.0417 0.1345 0.0000 (  2434 PWs)   bands (ev):

   -20.5660  -8.7276  -6.3354  -5.4799   1.6759   2.4532   2.7138   4.7073

     occupation numbers 
     1.0000   1.0000   1.0000   1.0000   0.0000   0.0000   0.0000   0.0000

          k =-0.0417 0.1883 0.0000 (  2436 PWs)   bands (ev):

   -20.3063  -8.4261  -6.8531  -6.1178   2.0300   2.8072   3.0697   4.3107

     occupation numbers 
     1.0000   1.0000   1.0000   1.0000   0.0000   0.0000   0.0000   0.0000

          k =-0.0417 0.2422 0.0000 (  2420 PWs)   bands (ev):

   -19.9612  -8.0276  -7.4553  -6.8699   2.5016   3.2784   3.5420   3.8807

     occupation numbers 
     1.0000   1.0000   1.0000   1.0000   0.0000   0.0000   0.0000   0.0000

          k =-0.0417 0.2960 0.0000 (  2421 PWs)   bands (ev):

   -19.5319  -8.2085  -7.5808  -7.5356   3.0884   3.4521   3.8662   4.1403

     occupation numbers 
     1.0000   1.0000   1.0000   1.0000   0.0000   0.0000   0.0000   0.0000

          k =-0.0417 0.3498 0.0000 (  2414 PWs)   bands (ev):

   -19.0199  -9.1512  -8.1394  -6.9555   3.0570   3.7997   4.1696   4.5704

     occupation numbers 
     1.0000   1.0000   1.0000   1.0000   0.0000   0.0000   0.0000   0.0000

          k =-0.0417 0.4036 0.0000 (  2413 PWs)   bands (ev):

   -18.4270 -10.1890  -8.5849  -6.2957   2.7189   3.1936   4.6212   5.3860

     occupation numbers 
     1.0000   1.0000   1.0000   1.0000   0.0000   0.0000   0.0000   0.0000

          k =-0.0417 0.4574 0.0000 (  2412 PWs)   bands (ev):

   -17.7559 -11.2562  -8.9409  -5.5706   2.1901   2.4413   5.5584   6.3113

     occupation numbers 
     1.0000   1.0000   1.0000   1.0000   0.0000   0.0000   0.0000   0.0000

          k =-0.0417 0.5112 0.0000 (  2406 PWs)   bands (ev):

   -17.0097 -12.3187  -9.2102  -4.8077   1.2019   2.2300   6.6088   7.3371

     occupation numbers 
     1.0000   1.0000   1.0000   1.0000   0.0000   0.0000   0.0000   0.0000

          k =-0.0417 0.5650 0.0000 (  2408 PWs)   bands (ev):

   -16.1933 -13.3543  -9.3912  -4.0720   0.3072   2.0880   7.7685   8.4411

     occupation numbers 
     1.0000   1.0000   1.0000   1.0000   0.0000   0.0000   0.0000   0.0000

          k =-0.0417 0.6188 0.0000 (  2410 PWs)   bands (ev):

   -15.3191 -14.3404  -9.4822  -3.5393  -0.3077   2.0168   9.0301   9.5221

     occupation numbers 
     1.0000   1.0000   1.0000   1.0000   0.0000   0.0000   0.0000   0.0000

          k =-0.0417-0.6188 0.0000 (  2410 PWs)   bands (ev):

   -15.3191 -14.3404  -9.4822  -3.5393  -0.3077   2.0168   9.0301   9.5220

     occupation numbers 
     1.0000   1.0000   1.0000   1.0000   0.0000   0.0000   0.0000   0.0000

          k =-0.0417-0.5650 0.0000 (  2408 PWs)   bands (ev):

   -16.1933 -13.3543  -9.3912  -4.0719   0.3071   2.0880   7.7685   8.4411

     occupation numbers 
     1.0000   1.0000   1.0000   1.0000   0.0000   0.0000   0.0000   0.0000

          k =-0.0417-0.5112 0.0000 (  2406 PWs)   bands (ev):

   -17.0097 -12.3187  -9.2102  -4.8077   1.2018   2.2300   6.6088   7.3374

     occupation numbers 
     1.0000   1.0000   1.0000   1.0000   0.0000   0.0000   0.0000   0.0000

          k =-0.0417-0.4574 0.0000 (  2412 PWs)   bands (ev):

   -17.7559 -11.2562  -8.9408  -5.5705   2.1900   2.4413   5.5584   6.3113

     occupation numbers 
     1.0000   1.0000   1.0000   1.0000   0.0000   0.0000   0.0000   0.0000

          k =-0.0417-0.4036 0.0000 (  2413 PWs)   bands (ev):

   -18.4270 -10.1892  -8.5847  -6.2956   2.7189   3.1935   4.6212   5.3860

     occupation numbers 
     1.0000   1.0000   1.0000   1.0000   0.0000   0.0000   0.0000   0.0000

          k =-0.0417-0.3498 0.0000 (  2414 PWs)   bands (ev):

   -19.0199  -9.1516  -8.1390  -6.9555   3.0570   3.7997   4.1695   4.5703

     occupation numbers 
     1.0000   1.0000   1.0000   1.0000   0.0000   0.0000   0.0000   0.0000

          k =-0.0417-0.2960 0.0000 (  2421 PWs)   bands (ev):

   -19.5319  -8.2092  -7.5800  -7.5356   3.0884   3.4521   3.8662   4.1403

     occupation numbers 
     1.0000   1.0000   1.0000   1.0000   0.0000   0.0000   0.0000   0.0000

          k =-0.0417-0.2422 0.0000 (  2420 PWs)   bands (ev):

   -19.9612  -8.0276  -7.4562  -6.8689   2.5016   3.2784   3.5421   3.8808

     occupation numbers 
     1.0000   1.0000   1.0000   1.0000   0.0000   0.0000   0.0000   0.0000

          k =-0.0417-0.1883 0.0000 (  2436 PWs)   bands (ev):

   -20.3063  -8.4261  -6.8538  -6.1169   2.0300   2.8072   3.0697   4.3107

     occupation numbers 
     1.0000   1.0000   1.0000   1.0000   0.0000   0.0000   0.0000   0.0000

          k =-0.0417-0.1345 0.0000 (  2434 PWs)   bands (ev):

   -20.5660  -8.7276  -6.3360  -5.4792   1.6759   2.4532   2.7138   4.7073

     occupation numbers 
     1.0000   1.0000   1.0000   1.0000   0.0000   0.0000   0.0000   0.0000

          k =-0.0417-0.0807 0.0000 (  2432 PWs)   bands (ev):

   -20.7395  -8.9297  -5.9284  -5.0323   1.4398   2.2170   2.4764   4.4562

     occupation numbers 
     1.0000   1.0000   1.0000   1.0000   0.0000   0.0000   0.0000   0.0000

          k =-0.0417-0.0269 0.0000 (  2425 PWs)   bands (ev):

   -20.8264  -9.0310  -5.6959  -4.8070   1.3216   2.0988   2.3576   4.3402

     occupation numbers 
     1.0000   1.0000   1.0000   1.0000   0.0000   0.0000   0.0000   0.0000

     the Fermi energy is    -2.1431 ev

!    total energy              =     -36.85663464 Ry
     total all-electron energy =      -152.384829 Ry
     estimated scf accuracy    <          7.4E-09 Ry
     smearing contrib. (-TS)   =       0.00005990 Ry
     internal energy E=F+TS    =     -36.85669454 Ry

     The total energy is F=E-TS. E is the sum of the following terms:
     one-electron contribution =    -146.79537545 Ry
     hartree contribution      =      74.93377027 Ry
     xc contribution           =      -9.12915591 Ry
     ewald contribution        =      56.46216952 Ry
     one-center paw contrib.   =     -12.32810297 Ry
      -> PAW hartree energy AE =       8.63242458 Ry
      -> PAW hartree energy PS =      -8.62423564 Ry
      -> PAW xc energy AE      =     -10.46330450 Ry
      -> PAW xc energy PS      =       4.29106770 Ry
      -> total E_H with PAW    =      74.94195922 Ry
      -> total E_XC with PAW   =     -15.30139272 Ry

     convergence has been achieved in   5 iterations

     negative rho (up, down):  2.063E-03 0.000E+00

     Forces acting on atoms (cartesian axes, Ry/au):

     atom    1 type  1   force =     0.00014899   -0.02980157   -0.00000007
     atom    2 type  1   force =    -0.00014899    0.02980157    0.00000007
     The non-local contrib.  to forces
     atom    1 type  1   force =    -0.00005119    0.08427341   -0.00000054
     atom    2 type  1   force =    -0.00009842   -0.08382035   -0.00000049
     The ionic contribution  to forces
     atom    1 type  1   force =    -0.00025811    0.69818607   -0.00000000
     atom    2 type  1   force =     0.00025811   -0.69818607    0.00000000
     The local contribution  to forces
     atom    1 type  1   force =     0.00021453   -0.80869945    0.00001009
     atom    2 type  1   force =    -0.00005673    0.80819471    0.00001020
     The core correction contribution to forces
     atom    1 type  1   force =     0.00027524   -0.00328723    0.00000004
     atom    2 type  1   force =    -0.00022048    0.00389139    0.00000004
     The Hubbard contrib.    to forces
     atom    1 type  1   force =     0.00000000    0.00000000    0.00000000
     atom    2 type  1   force =     0.00000000    0.00000000    0.00000000
     The SCF correction term to forces
     atom    1 type  1   force =    -0.00000002    0.00001294   -0.00000000
     atom    2 type  1   force =     0.00000000    0.00000922   -0.00000000

     Total force =     0.042146     Total SCF correction =     0.000016
     Energy error            =      3.7E-05 Ry
     Gradient error          =      3.0E-02 Ry/Bohr

     number of scf cycles    =   2
     number of bfgs steps    =   1

     energy             old  =     -36.8566713216 Ry
     energy             new  =     -36.8566346381 Ry

     CASE: energy            _new > energy            _old

     new trust radius        =       0.0144579257 bohr
     new conv_thr            =       0.0000000100 Ry


ATOMIC_POSITIONS (crystal)
C               -0.0018310721        0.0036694598        0.0000000000    1   1   0
C                0.3351640721        0.3296635402        0.0000000000    1   1   0



     Writing config-only to output data dir ./tmp/graphene10.0.save/ :
     XML data file
     NEW-OLD atomic charge density approx. for the potential

     Check: negative core charge=   -0.000014

     negative rho (up, down):  2.062E-03 0.000E+00

     total cpu time spent up to now is       20.8 secs

     per-process dynamical memory:    41.0 Mb

     Self-consistent Calculation

     iteration #  1     ecut=    40.00 Ry     beta= 0.70
     Davidson diagonalization with overlap

---- Real-time Memory Report at c_bands before calling an iterative solver
            82 MiB given to the printing process from OS
            40 MiB allocation reported by mallinfo(arena+hblkhd)
         24989 MiB available memory on the node where the printing process lives
------------------
     ethr =  1.00E-06,  avg # of iterations =  5.3

     negative rho (up, down):  2.063E-03 0.000E+00

     total cpu time spent up to now is       23.1 secs

     total energy              =     -36.85708046 Ry
     estimated scf accuracy    <       0.00008526 Ry

     iteration #  2     ecut=    40.00 Ry     beta= 0.70
     Davidson diagonalization with overlap

---- Real-time Memory Report at c_bands before calling an iterative solver
            82 MiB given to the printing process from OS
            46 MiB allocation reported by mallinfo(arena+hblkhd)
         24961 MiB available memory on the node where the printing process lives
------------------
     ethr =  1.07E-06,  avg # of iterations =  2.0

     negative rho (up, down):  2.063E-03 0.000E+00

     total cpu time spent up to now is       24.3 secs

     total energy              =     -36.85709053 Ry
     estimated scf accuracy    <       0.00000125 Ry

     iteration #  3     ecut=    40.00 Ry     beta= 0.70
     Davidson diagonalization with overlap

---- Real-time Memory Report at c_bands before calling an iterative solver
            82 MiB given to the printing process from OS
            47 MiB allocation reported by mallinfo(arena+hblkhd)
         24982 MiB available memory on the node where the printing process lives
------------------
     ethr =  1.57E-08,  avg # of iterations =  2.1

     negative rho (up, down):  2.063E-03 0.000E+00

     total cpu time spent up to now is       25.5 secs

     total energy              =     -36.85709081 Ry
     estimated scf accuracy    <       0.00000010 Ry

     iteration #  4     ecut=    40.00 Ry     beta= 0.70
     Davidson diagonalization with overlap

---- Real-time Memory Report at c_bands before calling an iterative solver
            82 MiB given to the printing process from OS
            47 MiB allocation reported by mallinfo(arena+hblkhd)
         24994 MiB available memory on the node where the printing process lives
------------------
     ethr =  1.21E-09,  avg # of iterations =  2.1

     negative rho (up, down):  2.063E-03 0.000E+00

     total cpu time spent up to now is       26.8 secs

     total energy              =     -36.85709082 Ry
     estimated scf accuracy    <       0.00000004 Ry

     iteration #  5     ecut=    40.00 Ry     beta= 0.70
     Davidson diagonalization with overlap

---- Real-time Memory Report at c_bands before calling an iterative solver
            82 MiB given to the printing process from OS
            48 MiB allocation reported by mallinfo(arena+hblkhd)
         24960 MiB available memory on the node where the printing process lives
------------------
     ethr =  5.33E-10,  avg # of iterations =  1.4

     negative rho (up, down):  2.063E-03 0.000E+00

     total cpu time spent up to now is       27.9 secs

     End of self-consistent calculation

          k = 0.0000 0.0000 0.0000 (  2423 PWs)   bands (ev):

   -20.8665  -9.0780  -5.3506  -4.9107   1.2725   2.0471   2.3070   4.2881

     occupation numbers 
     1.0000   1.0000   1.0000   1.0000   0.0000   0.0000   0.0000   0.0000

          k = 0.0000 0.0538 0.0000 (  2428 PWs)   bands (ev):

   -20.8232  -9.0271  -5.4641  -5.0401   1.3315   2.1062   2.3663   4.3462

     occupation numbers 
     1.0000   1.0000   1.0000   1.0000   0.0000   0.0000   0.0000   0.0000

          k = 0.0000 0.1076 0.0000 (  2432 PWs)   bands (ev):

   -20.6934  -8.8745  -5.7768  -5.4172   1.5085   2.2835   2.5442   4.5206

     occupation numbers 
     1.0000   1.0000   1.0000   1.0000   0.0000   0.0000   0.0000   0.0000

          k = 0.0000 0.1614 0.0000 (  2430 PWs)   bands (ev):

   -20.4774  -8.6213  -6.2232  -6.0118   1.8034   2.5788   2.8407   4.4627

     occupation numbers 
     1.0000   1.0000   1.0000   1.0000   0.0000   0.0000   0.0000   0.0000

          k = 0.0000 0.2152 0.0000 (  2426 PWs)   bands (ev):

   -20.1761  -8.2691  -6.7822  -6.7353   2.2160   2.9917   3.2552   4.0418

     occupation numbers 
     1.0000   1.0000   1.0000   1.0000   0.0000   0.0000   0.0000   0.0000

          k = 0.0000 0.2691 0.0000 (  2424 PWs)   bands (ev):

   -19.7902  -7.8206  -7.6847  -7.2597   2.7456   3.5217   3.5962   3.7970

     occupation numbers 
     1.0000   1.0000   1.0000   1.0000   0.0000   0.0000   0.0000   0.0000

          k = 0.0000 0.3229 0.0000 (  2416 PWs)   bands (ev):

   -19.3211  -8.6775  -7.7588  -7.2798   3.1760   3.4011   4.1670   4.4439

     occupation numbers 
     1.0000   1.0000   1.0000   1.0000   0.0000   0.0000   0.0000   0.0000

          k = 0.0000 0.3767 0.0000 (  2420 PWs)   bands (ev):

   -18.7705  -9.7241  -8.2083  -6.6530   2.8081   3.6978   4.1602   4.9299

     occupation numbers 
     1.0000   1.0000   1.0000   1.0000   0.0000   0.0000   0.0000   0.0000

          k = 0.0000 0.4305 0.0000 (  2414 PWs)   bands (ev):

   -18.1406 -10.7943  -8.5918  -5.9499   2.4934   2.6759   5.0396   5.8027

     occupation numbers 
     1.0000   1.0000   1.0000   1.0000   0.0000   0.0000   0.0000   0.0000

          k = 0.0000 0.4843 0.0000 (  2414 PWs)   bands (ev):

   -17.4342 -11.8639  -8.8985  -5.1884   1.6447   2.2437   6.0334   6.7831

     occupation numbers 
     1.0000   1.0000   1.0000   1.0000   0.0000   0.0000   0.0000   0.0000

          k = 0.0000 0.5381 0.0000 (  2406 PWs)   bands (ev):

   -16.6548 -12.9133  -9.1217  -4.4065   0.6574   2.0635   7.1386   7.8599

     occupation numbers 
     1.0000   1.0000   1.0000   1.0000   0.0000   0.0000   0.0000   0.0000

          k = 0.0000 0.5919 0.0000 (  2404 PWs)   bands (ev):

   -15.8068 -13.9272  -9.2572  -3.7067  -0.1711   1.9548   8.3502   9.0001

     occupation numbers 
     1.0000   1.0000   1.0000   1.0000   0.0000   0.0000   0.0000   0.0000

          k = 0.0000-0.6457 0.0000 (  2410 PWs)   bands (ev):

   -14.9234 -14.8667  -9.3027  -3.3783  -0.5437   1.9184   9.6514   9.6638

     occupation numbers 
     1.0000   1.0000   1.0000   1.0000   0.0000   0.0000   0.0000   0.0000

          k = 0.0000-0.5919 0.0000 (  2404 PWs)   bands (ev):

   -15.8068 -13.9272  -9.2572  -3.7067  -0.1711   1.9548   8.3502   9.0002

     occupation numbers 
     1.0000   1.0000   1.0000   1.0000   0.0000   0.0000   0.0000   0.0000

          k = 0.0000-0.5381 0.0000 (  2406 PWs)   bands (ev):

   -16.6548 -12.9133  -9.1217  -4.4065   0.6574   2.0635   7.1386   7.8599

     occupation numbers 
     1.0000   1.0000   1.0000   1.0000   0.0000   0.0000   0.0000   0.0000

          k = 0.0000-0.4843 0.0000 (  2414 PWs)   bands (ev):

   -17.4342 -11.8639  -8.8985  -5.1884   1.6447   2.2437   6.0334   7.1076

     occupation numbers 
     1.0000   1.0000   1.0000   1.0000   0.0000   0.0000   0.0000   0.0000

          k = 0.0000-0.4305 0.0000 (  2414 PWs)   bands (ev):

   -18.1406 -10.7943  -8.5918  -5.9499   2.4934   2.6759   5.0396   5.8027

     occupation numbers 
     1.0000   1.0000   1.0000   1.0000   0.0000   0.0000   0.0000   0.0000

          k = 0.0000-0.3767 0.0000 (  2420 PWs)   bands (ev):

   -18.7705  -9.7241  -8.2083  -6.6530   2.8081   3.6978   4.1602   4.9299

     occupation numbers 
     1.0000   1.0000   1.0000   1.0000   0.0000   0.0000   0.0000   0.0000

          k = 0.0000-0.3229 0.0000 (  2416 PWs)   bands (ev):

   -19.3211  -8.6775  -7.7588  -7.2798   3.1760   3.4011   4.1670   4.4439

     occupation numbers 
     1.0000   1.0000   1.0000   1.0000   0.0000   0.0000   0.0000   0.0000

          k = 0.0000-0.2691 0.0000 (  2424 PWs)   bands (ev):

   -19.7902  -7.8206  -7.6847  -7.2597   2.7456   3.5217   3.5962   3.7970

     occupation numbers 
     1.0000   1.0000   1.0000   1.0000   0.0000   0.0000   0.0000   0.0000

          k = 0.0000-0.2152 0.0000 (  2426 PWs)   bands (ev):

   -20.1761  -8.2691  -6.7822  -6.7353   2.2160   2.9917   3.2552   4.0418

     occupation numbers 
     1.0000   1.0000   1.0000   1.0000   0.0000   0.0000   0.0000   0.0000

          k = 0.0000-0.1614 0.0000 (  2430 PWs)   bands (ev):

   -20.4774  -8.6213  -6.2232  -6.0118   1.8034   2.5788   2.8407   4.4627

     occupation numbers 
     1.0000   1.0000   1.0000   1.0000   0.0000   0.0000   0.0000   0.0000

          k = 0.0000-0.1076 0.0000 (  2432 PWs)   bands (ev):

   -20.6934  -8.8745  -5.7768  -5.4172   1.5085   2.2835   2.5442   4.5203

     occupation numbers 
     1.0000   1.0000   1.0000   1.0000   0.0000   0.0000   0.0000   0.0000

          k = 0.0000-0.0538 0.0000 (  2428 PWs)   bands (ev):

   -20.8232  -9.0271  -5.4641  -5.0401   1.3315   2.1062   2.3663   5.0428

     occupation numbers 
     1.0000   1.0000   1.0000   1.0000   0.0000   0.0000   0.0000   0.0000

          k = 0.0417-0.0269 0.0000 (  2425 PWs)   bands (ev):

   -20.8299  -9.0351  -5.4936  -5.0139   1.3221   2.0973   2.3569   4.3375

     occupation numbers 
     1.0000   1.0000   1.0000   1.0000   0.0000   0.0000   0.0000   0.0000

          k = 0.0417 0.0269 0.0000 (  2425 PWs)   bands (ev):

   -20.8299  -9.0351  -5.4938  -5.0137   1.3221   2.0973   2.3569   4.3375

     occupation numbers 
     1.0000   1.0000   1.0000   1.0000   0.0000   0.0000   0.0000   0.0000

          k = 0.0417 0.0807 0.0000 (  2432 PWs)   bands (ev):

   -20.7434  -8.9334  -5.7607  -5.2084   1.4402   2.2155   2.4756   4.4534

     occupation numbers 
     1.0000   1.0000   1.0000   1.0000   0.0000   0.0000   0.0000   0.0000

          k = 0.0417 0.1345 0.0000 (  2434 PWs)   bands (ev):

   -20.5705  -8.7306  -6.2141  -5.6140   1.6763   2.4517   2.7130   4.6850

     occupation numbers 
     1.0000   1.0000   1.0000   1.0000   0.0000   0.0000   0.0000   0.0000

          k = 0.0417 0.1883 0.0000 (  2436 PWs)   bands (ev):

   -20.3118  -8.4279  -6.7866  -6.1986   2.0302   2.8057   3.0688   4.4068

     occupation numbers 
     1.0000   1.0000   1.0000   1.0000   0.0000   0.0000   0.0000   0.0000

          k = 0.0417 0.2422 0.0000 (  2420 PWs)   bands (ev):

   -19.9682  -8.0276  -7.4675  -6.8701   2.5017   3.2770   3.5417   3.9754

     occupation numbers 
     1.0000   1.0000   1.0000   1.0000   0.0000   0.0000   0.0000   0.0000

          k = 0.0417 0.2960 0.0000 (  2421 PWs)   bands (ev):

   -19.5407  -8.2942  -7.5330  -7.5028   3.0889   3.5429   3.8645   4.1394

     occupation numbers 
     1.0000   1.0000   1.0000   1.0000   0.0000   0.0000   0.0000   0.0000

          k = 0.0417 0.3498 0.0000 (  2414 PWs)   bands (ev):

   -19.0310  -9.2514  -8.0407  -6.9488   3.1435   3.7996   4.1297   4.5719

     occupation numbers 
     1.0000   1.0000   1.0000   1.0000   0.0000   0.0000   0.0000   0.0000

          k = 0.0417 0.4036 0.0000 (  2413 PWs)   bands (ev):

   -18.4409 -10.2797  -8.4888  -6.2830   2.8008   3.1401   4.6205   5.3863

     occupation numbers 
     1.0000   1.0000   1.0000   1.0000   0.0000   0.0000   0.0000   0.0000

          k = 0.0417 0.4574 0.0000 (  2412 PWs)   bands (ev):

   -17.7729 -11.3341  -8.8504  -5.5484   2.1198   2.5188   5.5572   6.3123

     occupation numbers 
     1.0000   1.0000   1.0000   1.0000   0.0000   0.0000   0.0000   0.0000

          k = 0.0417 0.5112 0.0000 (  2406 PWs)   bands (ev):

   -17.0303 -12.3852  -9.1246  -4.7700   1.1104   2.3042   6.6069   7.3397

     occupation numbers 
     1.0000   1.0000   1.0000   1.0000   0.0000   0.0000   0.0000   0.0000

          k = 0.0417 0.5650 0.0000 (  2408 PWs)   bands (ev):

   -16.2172 -13.4123  -9.3089  -4.0075   0.1855   2.1599   7.7657   8.4476

     occupation numbers 
     1.0000   1.0000   1.0000   1.0000   0.0000   0.0000   0.0000   0.0000

          k = 0.0417-0.6726 0.0000 (  2410 PWs)   bands (ev):

   -15.3388 -14.3998  -9.4014  -3.4382  -0.4678   2.0874   9.0259   9.5415

     occupation numbers 
     1.0000   1.0000   1.0000   1.0000   0.0000   0.0000   0.0000   0.0000

          k = 0.0417-0.6188 0.0000 (  2410 PWs)   bands (ev):

   -15.3388 -14.3998  -9.4014  -3.4382  -0.4678   2.0874   9.0259   9.5415

     occupation numbers 
     1.0000   1.0000   1.0000   1.0000   0.0000   0.0000   0.0000   0.0000

          k = 0.0417-0.5650 0.0000 (  2408 PWs)   bands (ev):

   -16.2171 -13.4122  -9.3089  -4.0076   0.1855   2.1598   7.7657   8.4476

     occupation numbers 
     1.0000   1.0000   1.0000   1.0000   0.0000   0.0000   0.0000   0.0000

          k = 0.0417-0.5112 0.0000 (  2406 PWs)   bands (ev):

   -17.0303 -12.3852  -9.1246  -4.7700   1.1105   2.3042   6.6069   7.3400

     occupation numbers 
     1.0000   1.0000   1.0000   1.0000   0.0000   0.0000   0.0000   0.0000

          k = 0.0417-0.4574 0.0000 (  2412 PWs)   bands (ev):

   -17.7729 -11.3341  -8.8505  -5.5485   2.1198   2.5188   5.5572   6.3123

     occupation numbers 
     1.0000   1.0000   1.0000   1.0000   0.0000   0.0000   0.0000   0.0000

          k = 0.0417-0.4036 0.0000 (  2413 PWs)   bands (ev):

   -18.4408 -10.2796  -8.4889  -6.2830   2.8008   3.1401   4.6205   5.3863

     occupation numbers 
     1.0000   1.0000   1.0000   1.0000   0.0000   0.0000   0.0000   0.0000

          k = 0.0417-0.3498 0.0000 (  2414 PWs)   bands (ev):

   -19.0310  -9.2512  -8.0409  -6.9488   3.1435   3.7996   4.1298   4.5719

     occupation numbers 
     1.0000   1.0000   1.0000   1.0000   0.0000   0.0000   0.0000   0.0000

          k = 0.0417-0.2960 0.0000 (  2421 PWs)   bands (ev):

   -19.5407  -8.2939  -7.5330  -7.5032   3.0889   3.5429   3.8645   4.1394

     occupation numbers 
     1.0000   1.0000   1.0000   1.0000   0.0000   0.0000   0.0000   0.0000

          k = 0.0417-0.2422 0.0000 (  2420 PWs)   bands (ev):

   -19.9682  -8.0276  -7.4670  -6.8707   2.5017   3.2770   3.5417   3.9754

     occupation numbers 
     1.0000   1.0000   1.0000   1.0000   0.0000   0.0000   0.0000   0.0000

          k = 0.0417-0.1883 0.0000 (  2436 PWs)   bands (ev):

   -20.3118  -8.4279  -6.7860  -6.1992   2.0302   2.8057   3.0688   4.4068

     occupation numbers 
     1.0000   1.0000   1.0000   1.0000   0.0000   0.0000   0.0000   0.0000

          k = 0.0417-0.1345 0.0000 (  2434 PWs)   bands (ev):

   -20.5705  -8.7306  -6.2135  -5.6146   1.6763   2.4517   2.7130   4.6850

     occupation numbers 
     1.0000   1.0000   1.0000   1.0000   0.0000   0.0000   0.0000   0.0000

          k = 0.0417-0.0807 0.0000 (  2432 PWs)   bands (ev):

   -20.7434  -8.9334  -5.7603  -5.2088   1.4402   2.2155   2.4756   4.4534

     occupation numbers 
     1.0000   1.0000   1.0000   1.0000   0.0000   0.0000   0.0000   0.0000

          k = 0.0833-0.0538 0.0000 (  2419 PWs)   bands (ev):

   -20.7203  -8.9068  -5.9515  -5.2452   1.4713   2.2478   2.5071   4.4852

     occupation numbers 
     1.0000   1.0000   1.0000   1.0000   0.0000   0.0000   0.0000   0.0000

          k = 0.0833-0.0000 0.0000 (  2415 PWs)   bands (ev):

   -20.7636  -8.9575  -5.7601  -5.2225   1.4121   2.1887   2.4476   4.4274

     occupation numbers 
     1.0000   1.0000   1.0000   1.0000   0.0000   0.0000   0.0000   0.0000

          k = 0.0833 0.0538 0.0000 (  2419 PWs)   bands (ev):

   -20.7203  -8.9068  -5.9520  -5.2447   1.4713   2.2478   2.5071   4.4852

     occupation numbers 
     1.0000   1.0000   1.0000   1.0000   0.0000   0.0000   0.0000   0.0000

          k = 0.0833 0.1076 0.0000 (  2429 PWs)   bands (ev):

   -20.5907  -8.7548  -6.3958  -5.4215   1.6487   2.4248   2.6854   4.6583

     occupation numbers 
     1.0000   1.0000   1.0000   1.0000   0.0000   0.0000   0.0000   0.0000

          k = 0.0833 0.1614 0.0000 (  2435 PWs)   bands (ev):

   -20.3751  -8.5027  -6.9596  -5.8223   1.9441   2.7196   2.9824   4.9455

     occupation numbers 
     1.0000   1.0000   1.0000   1.0000   0.0000   0.0000   0.0000   0.0000

          k = 0.0833 0.2152 0.0000 (  2431 PWs)   bands (ev):

   -20.0742  -8.1520  -7.5868  -6.4156   2.3571   3.1317   3.3977   4.6270

     occupation numbers 
     1.0000   1.0000   1.0000   1.0000   0.0000   0.0000   0.0000   0.0000

          k = 0.0833 0.2691 0.0000 (  2423 PWs)   bands (ev):

   -19.6890  -8.2651  -7.7056  -7.1204   2.8873   3.6598   3.9289   4.1998

     occupation numbers 
     1.0000   1.0000   1.0000   1.0000   0.0000   0.0000   0.0000   0.0000

          k = 0.0833 0.3229 0.0000 (  2416 PWs)   bands (ev):

   -19.2209  -9.0223  -7.8267  -7.1673   3.5317   3.7878   4.2752   4.4360

     occupation numbers 
     1.0000   1.0000   1.0000   1.0000   0.0000   0.0000   0.0000   0.0000

          k = 0.0833 0.3767 0.0000 (  2410 PWs)   bands (ev):

   -18.6718  -9.8911  -8.4353  -6.5433   3.4161   3.4704   4.3008   5.0685

     occupation numbers 
     1.0000   1.0000   1.0000   1.0000   0.0000   0.0000   0.0000   0.0000

          k = 0.0833 0.4305 0.0000 (  2418 PWs)   bands (ev):

   -18.0440 -10.8536  -8.9136  -5.8435   2.4959   3.1058   5.1795   5.9359

     occupation numbers 
     1.0000   1.0000   1.0000   1.0000   0.0000   0.0000   0.0000   0.0000

          k = 0.0833 0.4843 0.0000 (  2406 PWs)   bands (ev):

   -17.3404 -11.8615  -9.2724  -5.0844   1.5052   2.8592   6.1724   6.9072

     occupation numbers 
     1.0000   1.0000   1.0000   1.0000   0.0000   0.0000   0.0000   0.0000

          k = 0.0833 0.5381 0.0000 (  2401 PWs)   bands (ev):

   -16.5651 -12.8750  -9.5233  -4.3020   0.5464   2.6808   7.2761   7.9624

     occupation numbers 
     1.0000   1.0000   1.0000   1.0000   0.0000   0.0000   0.0000   0.0000

          k = 0.0833-0.6996 0.0000 (  2420 PWs)   bands (ev):

   -15.7230 -13.8672  -9.6726  -3.5940  -0.2725   2.5729   8.4844   9.0356

     occupation numbers 
     1.0000   1.0000   1.0000   1.0000   0.0000   0.0000   0.0000   0.0000

          k = 0.0833-0.6457 0.0000 (  2418 PWs)   bands (ev):

   -14.8329 -14.8086  -9.7222  -3.2545  -0.6496   2.5368   9.7759   9.7914

     occupation numbers 
     1.0000   1.0000   1.0000   1.0000   0.0000   0.0000   0.0000   0.0000

          k = 0.0833-0.5919 0.0000 (  2420 PWs)   bands (ev):

   -15.7230 -13.8672  -9.6727  -3.5940  -0.2724   2.5729   8.4844   9.0356

     occupation numbers 
     1.0000   1.0000   1.0000   1.0000   0.0000   0.0000   0.0000   0.0000

          k = 0.0833-0.5381 0.0000 (  2401 PWs)   bands (ev):

   -16.5651 -12.8749  -9.5234  -4.3020   0.5464   2.6808   7.2761   7.9624

     occupation numbers 
     1.0000   1.0000   1.0000   1.0000   0.0000   0.0000   0.0000   0.0000

          k = 0.0833-0.4843 0.0000 (  2406 PWs)   bands (ev):

   -17.3404 -11.8614  -9.2724  -5.0844   1.5053   2.8592   6.1724   6.9071

     occupation numbers 
     1.0000   1.0000   1.0000   1.0000   0.0000   0.0000   0.0000   0.0000

          k = 0.0833-0.4305 0.0000 (  2418 PWs)   bands (ev):

   -18.0440 -10.8535  -8.9137  -5.8435   2.4960   3.1058   5.1795   5.9360

     occupation numbers 
     1.0000   1.0000   1.0000   1.0000   0.0000   0.0000   0.0000   0.0000

          k = 0.0833-0.3767 0.0000 (  2410 PWs)   bands (ev):

   -18.6718  -9.8909  -8.4355  -6.5434   3.4160   3.4705   4.3008   5.0685

     occupation numbers 
     1.0000   1.0000   1.0000   1.0000   0.0000   0.0000   0.0000   0.0000

          k = 0.0833-0.3229 0.0000 (  2416 PWs)   bands (ev):

   -19.2209  -9.0219  -7.8271  -7.1673   3.5317   3.7878   4.2752   4.4360

     occupation numbers 
     1.0000   1.0000   1.0000   1.0000   0.0000   0.0000   0.0000   0.0000

          k = 0.0833-0.2691 0.0000 (  2423 PWs)   bands (ev):

   -19.6890  -8.2647  -7.7056  -7.1210   2.8873   3.6598   3.9289   4.1998

     occupation numbers 
     1.0000   1.0000   1.0000   1.0000   0.0000   0.0000   0.0000   0.0000

          k = 0.0833-0.2152 0.0000 (  2431 PWs)   bands (ev):

   -20.0741  -8.1520  -7.5863  -6.4162   2.3571   3.1317   3.3977   4.6270

     occupation numbers 
     1.0000   1.0000   1.0000   1.0000   0.0000   0.0000   0.0000   0.0000

          k = 0.0833-0.1614 0.0000 (  2435 PWs)   bands (ev):

   -20.3751  -8.5027  -6.9590  -5.8230   1.9441   2.7196   2.9824   5.0403

     occupation numbers 
     1.0000   1.0000   1.0000   1.0000   0.0000   0.0000   0.0000   0.0000

          k = 0.0833-0.1076 0.0000 (  2429 PWs)   bands (ev):

   -20.5907  -8.7548  -6.3952  -5.4221   1.6487   2.4248   2.6854   4.6583

     occupation numbers 
     1.0000   1.0000   1.0000   1.0000   0.0000   0.0000   0.0000   0.0000

          k = 0.1250-0.0807 0.0000 (  2424 PWs)   bands (ev):

   -20.5380  -8.6939  -6.6846  -5.5295   1.7204   2.4982   2.7578   4.7299

     occupation numbers 
     1.0000   1.0000   1.0000   1.0000   0.0000   0.0000   0.0000   0.0000

          k = 0.1250-0.0269 0.0000 (  2415 PWs)   bands (ev):

   -20.6243  -8.7947  -6.2831  -5.5630   1.6019   2.3804   2.6387   4.6155

     occupation numbers 
     1.0000   1.0000   1.0000   1.0000   0.0000   0.0000   0.0000   0.0000

          k = 0.1250 0.0269 0.0000 (  2415 PWs)   bands (ev):

   -20.6243  -8.7947  -6.2834  -5.5626   1.6019   2.3804   2.6387   4.6155

     occupation numbers 
     1.0000   1.0000   1.0000   1.0000   0.0000   0.0000   0.0000   0.0000

          k = 0.1250 0.0807 0.0000 (  2424 PWs)   bands (ev):

   -20.5380  -8.6938  -6.6851  -5.5290   1.7204   2.4982   2.7578   4.7300

     occupation numbers 
     1.0000   1.0000   1.0000   1.0000   0.0000   0.0000   0.0000   0.0000

          k = 0.1250 0.1345 0.0000 (  2422 PWs)   bands (ev):

   -20.3656  -8.4927  -7.2400  -5.6922   1.9572   2.7336   2.9958   4.9569

     occupation numbers 
     1.0000   1.0000   1.0000   1.0000   0.0000   0.0000   0.0000   0.0000

          k = 0.1250 0.1883 0.0000 (  2418 PWs)   bands (ev):

   -20.1078  -8.1928  -7.8526  -6.1006   2.3117   3.0860   3.3524   5.2833

     occupation numbers 
     1.0000   1.0000   1.0000   1.0000   0.0000   0.0000   0.0000   0.0000

          k = 0.1250 0.2422 0.0000 (  2426 PWs)   bands (ev):

   -19.7654  -8.4849  -7.7963  -6.7156   2.7837   3.5535   3.8273   5.0893

     occupation numbers 
     1.0000   1.0000   1.0000   1.0000   0.0000   0.0000   0.0000   0.0000

          k = 0.1250 0.2960 0.0000 (  2417 PWs)   bands (ev):

   -19.3397  -9.1290  -7.4578  -7.3063   3.3726   4.1154   4.4185   4.5169

     occupation numbers 
     1.0000   1.0000   1.0000   1.0000   0.0000   0.0000   0.0000   0.0000

          k = 0.1250 0.3498 0.0000 (  2411 PWs)   bands (ev):

   -18.8325  -9.8070  -8.2265  -6.7282   3.6274   4.0756   4.2899   4.8554

     occupation numbers 
     1.0000   1.0000   1.0000   1.0000   0.0000   0.0000   0.0000   0.0000

          k = 0.1250 0.4036 0.0000 (  2413 PWs)   bands (ev):

   -18.2460 -10.5651  -8.9120  -6.0690   2.7303   3.9507   4.9009   5.6604

     occupation numbers 
     1.0000   1.0000   1.0000   1.0000   0.0000   0.0000   0.0000   0.0000

          k = 0.1250 0.4574 0.0000 (  2408 PWs)   bands (ev):

   -17.5831 -11.4276  -9.4421  -5.3410   1.7962   3.6748   5.8362   6.5718

     occupation numbers 
     1.0000   1.0000   1.0000   1.0000   0.0000   0.0000   0.0000   0.0000

          k = 0.1250 0.5112 0.0000 (  2407 PWs)   bands (ev):

   -16.8479 -12.3632  -9.8129  -4.5661   0.8568   3.4637   6.8834   7.5677

     occupation numbers 
     1.0000   1.0000   1.0000   1.0000   0.0000   0.0000   0.0000   0.0000

          k = 0.1250-0.7265 0.0000 (  2425 PWs)   bands (ev):

   -16.0455 -13.3229 -10.0470  -3.7966  -0.0283   3.3214   8.0374   8.5828

     occupation numbers 
     1.0000   1.0000   1.0000   1.0000   0.0000   0.0000   0.0000   0.0000

          k = 0.1250-0.6726 0.0000 (  2423 PWs)   bands (ev):

   -15.1832 -14.2704 -10.1607  -3.2000  -0.6846   3.2498   9.2870   9.3508

     occupation numbers 
     1.0000   1.0000   1.0000   1.0000   0.0000   0.0000   0.0000   0.0000

          k = 0.1250-0.6188 0.0000 (  2423 PWs)   bands (ev):

   -15.1832 -14.2704 -10.1607  -3.2000  -0.6845   3.2498   9.2870   9.3508

     occupation numbers 
     1.0000   1.0000   1.0000   1.0000   0.0000   0.0000   0.0000   0.0000

          k = 0.1250-0.5650 0.0000 (  2425 PWs)   bands (ev):

   -16.0455 -13.3229 -10.0471  -3.7967  -0.0282   3.3214   8.0374   8.5828

     occupation numbers 
     1.0000   1.0000   1.0000   1.0000   0.0000   0.0000   0.0000   0.0000

          k = 0.1250-0.5112 0.0000 (  2407 PWs)   bands (ev):

   -16.8479 -12.3631  -9.8130  -4.5662   0.8569   3.4637   6.8834   7.5677

     occupation numbers 
     1.0000   1.0000   1.0000   1.0000   0.0000   0.0000   0.0000   0.0000

          k = 0.1250-0.4574 0.0000 (  2408 PWs)   bands (ev):

   -17.5831 -11.4275  -9.4423  -5.3411   1.7963   3.6747   5.8362   6.5718

     occupation numbers 
     1.0000   1.0000   1.0000   1.0000   0.0000   0.0000   0.0000   0.0000

          k = 0.1250-0.4036 0.0000 (  2413 PWs)   bands (ev):

   -18.2459 -10.5648  -8.9123  -6.0691   2.7305   3.9506   4.9009   5.6602

     occupation numbers 
     1.0000   1.0000   1.0000   1.0000   0.0000   0.0000   0.0000   0.0000

          k = 0.1250-0.3498 0.0000 (  2411 PWs)   bands (ev):

   -18.8325  -9.8066  -8.2269  -6.7282   3.6275   4.0756   4.2898   4.8553

     occupation numbers 
     1.0000   1.0000   1.0000   1.0000   0.0000   0.0000   0.0000   0.0000

          k = 0.1250-0.2960 0.0000 (  2417 PWs)   bands (ev):

   -19.3397  -9.1286  -7.4583  -7.3064   3.3726   4.1154   4.4185   4.5171

     occupation numbers 
     1.0000   1.0000   1.0000   1.0000   0.0000   0.0000   0.0000   0.0000

          k = 0.1250-0.2422 0.0000 (  2426 PWs)   bands (ev):

   -19.7654  -8.4845  -7.7963  -6.7161   2.7837   3.5535   3.8273   5.0893

     occupation numbers 
     1.0000   1.0000   1.0000   1.0000   0.0000   0.0000   0.0000   0.0000

          k = 0.1250-0.1883 0.0000 (  2418 PWs)   bands (ev):

   -20.1078  -8.1928  -7.8521  -6.1012   2.3117   3.0859   3.3524   5.2835

     occupation numbers 
     1.0000   1.0000   1.0000   1.0000   0.0000   0.0000   0.0000   0.0000

          k = 0.1250-0.1345 0.0000 (  2422 PWs)   bands (ev):

   -20.3656  -8.4927  -7.2395  -5.6928   1.9572   2.7336   2.9958   4.9569

     occupation numbers 
     1.0000   1.0000   1.0000   1.0000   0.0000   0.0000   0.0000   0.0000

          k = 0.1667-0.1076 0.0000 (  2420 PWs)   bands (ev):

   -20.2836  -8.3983  -7.5886  -5.8476   2.0696   2.8476   3.1093   5.0649

     occupation numbers 
     1.0000   1.0000   1.0000   1.0000   0.0000   0.0000   0.0000   0.0000

          k = 0.1667-0.0538 0.0000 (  2412 PWs)   bands (ev):

   -20.4127  -8.5481  -7.0504  -5.9231   1.8919   2.6718   2.9306   4.9000

     occupation numbers 
     1.0000   1.0000   1.0000   1.0000   0.0000   0.0000   0.0000   0.0000

          k = 0.1667-0.0000 0.0000 (  2415 PWs)   bands (ev):

   -20.4558  -8.5982  -6.7758  -6.0450   1.8326   2.6131   2.8710   4.8439

     occupation numbers 
     1.0000   1.0000   1.0000   1.0000   0.0000   0.0000   0.0000   0.0000

          k = 0.1667 0.0538 0.0000 (  2412 PWs)   bands (ev):

   -20.4127  -8.5481  -7.0508  -5.9226   1.8919   2.6718   2.9306   4.8999

     occupation numbers 
     1.0000   1.0000   1.0000   1.0000   0.0000   0.0000   0.0000   0.0000

          k = 0.1667 0.1076 0.0000 (  2420 PWs)   bands (ev):

   -20.2836  -8.3983  -7.5890  -5.8470   2.0696   2.8476   3.1093   5.0649

     occupation numbers 
     1.0000   1.0000   1.0000   1.0000   0.0000   0.0000   0.0000   0.0000

          k = 0.1667 0.1614 0.0000 (  2426 PWs)   bands (ev):

   -20.0691  -8.1995  -8.1497  -6.0066   2.3655   3.1397   3.4069   5.3058

     occupation numbers 
     1.0000   1.0000   1.0000   1.0000   0.0000   0.0000   0.0000   0.0000

          k = 0.1667 0.2152 0.0000 (  2422 PWs)   bands (ev):

   -19.7698  -8.8236  -7.8043  -6.4262   2.7791   3.5448   3.8231   5.0825

     occupation numbers 
     1.0000   1.0000   1.0000   1.0000   0.0000   0.0000   0.0000   0.0000

          k = 0.1667 0.2691 0.0000 (  2428 PWs)   bands (ev):

   -19.3870  -9.4368  -7.3648  -7.0617   3.3098   4.0222   4.3574   4.4486

     occupation numbers 
     1.0000   1.0000   1.0000   1.0000   0.0000   0.0000   0.0000   0.0000

          k = 0.1667 0.3229 0.0000 (  2434 PWs)   bands (ev):

   -18.9224 -10.0332  -7.8348  -6.8355   3.5966   3.9570   4.7492   5.0088

     occupation numbers 
     1.0000   1.0000   1.0000   1.0000   0.0000   0.0000   0.0000   0.0000

          k = 0.1667 0.3767 0.0000 (  2416 PWs)   bands (ev):

   -18.3782 -10.6286  -8.6528  -6.2223   2.7927   4.7189   4.9924   5.4889

     occupation numbers 
     1.0000   1.0000   1.0000   1.0000   0.0000   0.0000   0.0000   0.0000

          k = 0.1667 0.4305 0.0000 (  2414 PWs)   bands (ev):

   -17.7574 -11.2669  -9.4105  -5.5342   1.9423   4.6866   5.5989   6.3403

     occupation numbers 
     1.0000   1.0000   1.0000   1.0000   0.0000   0.0000   0.0000   0.0000

          k = 0.1667 0.4843 0.0000 (  2406 PWs)   bands (ev):

   -17.0641 -12.0011 -10.0086  -4.7856   1.0654   4.4445   6.5889   7.2763

     occupation numbers 
     1.0000   1.0000   1.0000   1.0000   0.0000   0.0000   0.0000   0.0000

          k = 0.1667-0.7534 0.0000 (  2425 PWs)   bands (ev):

   -16.3042 -12.8360 -10.4083  -4.0049   0.1910   4.2681   7.6870   8.2278

     occupation numbers 
     1.0000   1.0000   1.0000   1.0000   0.0000   0.0000   0.0000   0.0000

          k = 0.1667-0.6996 0.0000 (  2425 PWs)   bands (ev):

   -15.4860 -13.7236 -10.6301  -3.2698  -0.6017   4.1614   8.8838   8.9448

     occupation numbers 
     1.0000   1.0000   1.0000   1.0000   0.0000   0.0000   0.0000   0.0000

          k = 0.1667-0.6457 0.0000 (  2431 PWs)   bands (ev):

   -14.6754 -14.5617 -10.7010  -2.8855  -1.0056   4.1256   9.1523  10.1392

     occupation numbers 
     1.0000   1.0000   1.0000   1.0027   0.0000   0.0000   0.0000   0.0000

          k = 0.1667-0.5919 0.0000 (  2425 PWs)   bands (ev):

   -15.4860 -13.7236 -10.6302  -3.2698  -0.6016   4.1614   8.8838   8.9447

     occupation numbers 
     1.0000   1.0000   1.0000   1.0000   0.0000   0.0000   0.0000   0.0000

          k = 0.1667-0.5381 0.0000 (  2425 PWs)   bands (ev):

   -16.3042 -12.8359 -10.4084  -4.0050   0.1911   4.2681   7.6871   8.2277

     occupation numbers 
     1.0000   1.0000   1.0000   1.0000   0.0000   0.0000   0.0000   0.0000

          k = 0.1667-0.4843 0.0000 (  2406 PWs)   bands (ev):

   -17.0641 -12.0009 -10.0089  -4.7857   1.0656   4.4444   6.5889   7.2763

     occupation numbers 
     1.0000   1.0000   1.0000   1.0000   0.0000   0.0000   0.0000   0.0000

          k = 0.1667-0.4305 0.0000 (  2414 PWs)   bands (ev):

   -17.7573 -11.2666  -9.4108  -5.5342   1.9425   4.6866   5.5989   6.3402

     occupation numbers 
     1.0000   1.0000   1.0000   1.0000   0.0000   0.0000   0.0000   0.0000

          k = 0.1667-0.3767 0.0000 (  2416 PWs)   bands (ev):

   -18.3781 -10.6283  -8.6532  -6.2223   2.7928   4.7189   4.9923   5.4889

     occupation numbers 
     1.0000   1.0000   1.0000   1.0000   0.0000   0.0000   0.0000   0.0000

          k = 0.1667-0.3229 0.0000 (  2434 PWs)   bands (ev):

   -18.9224 -10.0329  -7.8353  -6.8356   3.5968   3.9570   4.7493   5.0089

     occupation numbers 
     1.0000   1.0000   1.0000   1.0000   0.0000   0.0000   0.0000   0.0000

          k = 0.1667-0.2691 0.0000 (  2428 PWs)   bands (ev):

   -19.3870  -9.4364  -7.3648  -7.0622   3.3098   4.0222   4.3574   4.4488

     occupation numbers 
     1.0000   1.0000   1.0000   1.0000   0.0000   0.0000   0.0000   0.0000

          k = 0.1667-0.2152 0.0000 (  2422 PWs)   bands (ev):

   -19.7698  -8.8232  -7.8043  -6.4268   2.7791   3.5448   3.8231   5.0826

     occupation numbers 
     1.0000   1.0000   1.0000   1.0000   0.0000   0.0000   0.0000   0.0000

          k = 0.1667-0.1614 0.0000 (  2426 PWs)   bands (ev):

   -20.0691  -8.1990  -8.1497  -6.0072   2.3655   3.1397   3.4069   5.3058

     occupation numbers 
     1.0000   1.0000   1.0000   1.0000   0.0000   0.0000   0.0000   0.0000

          k = 0.2083-0.1345 0.0000 (  2423 PWs)   bands (ev):

   -19.9584  -8.5842  -8.0230  -6.1786   2.5186   3.2925   3.5612   5.2646

     occupation numbers 
     1.0000   1.0000   1.0000   1.0000   0.0000   0.0000   0.0000   0.0000

          k = 0.2083-0.0807 0.0000 (  2426 PWs)   bands (ev):

   -20.1296  -8.2200  -7.9744  -6.2768   2.2818   3.0616   3.3232   5.2622

     occupation numbers 
     1.0000   1.0000   1.0000   1.0000   0.0000   0.0000   0.0000   0.0000

          k = 0.2083-0.0269 0.0000 (  2405 PWs)   bands (ev):

   -20.2153  -8.3188  -7.4872  -6.5176   2.1633   2.9453   3.2042   5.1679

     occupation numbers 
     1.0000   1.0000   1.0000   1.0000   0.0000   0.0000   0.0000   0.0000

          k = 0.2083 0.0269 0.0000 (  2405 PWs)   bands (ev):

   -20.2153  -8.3188  -7.4875  -6.5173   2.1633   2.9453   3.2042   5.1679

     occupation numbers 
     1.0000   1.0000   1.0000   1.0000   0.0000   0.0000   0.0000   0.0000

          k = 0.2083 0.0807 0.0000 (  2426 PWs)   bands (ev):

   -20.1296  -8.2200  -7.9748  -6.2763   2.2818   3.0616   3.3232   5.2622

     occupation numbers 
     1.0000   1.0000   1.0000   1.0000   0.0000   0.0000   0.0000   0.0000

          k = 0.2083 0.1345 0.0000 (  2423 PWs)   bands (ev):

   -19.9584  -8.5846  -8.0230  -6.1781   2.5186   3.2926   3.5612   5.2643

     occupation numbers 
     1.0000   1.0000   1.0000   1.0000   0.0000   0.0000   0.0000   0.0000

          k = 0.2083 0.1883 0.0000 (  2429 PWs)   bands (ev):

   -19.7024  -9.2148  -7.7296  -6.3379   2.8735   3.6309   3.9183   4.7946

     occupation numbers 
     1.0000   1.0000   1.0000   1.0000   0.0000   0.0000   0.0000   0.0000

          k = 0.2083 0.2422 0.0000 (  2434 PWs)   bands (ev):

   -19.3629  -9.8290  -7.3421  -6.7673   3.3459   3.9394   4.3211   4.3940

     occupation numbers 
     1.0000   1.0000   1.0000   1.0000   0.0000   0.0000   0.0000   0.0000

          k = 0.2083 0.2960 0.0000 (  2440 PWs)   bands (ev):

   -18.9415 -10.4098  -7.4180  -6.8644   3.4051   3.9349   4.7422   4.9878

     occupation numbers 
     1.0000   1.0000   1.0000   1.0000   0.0000   0.0000   0.0000   0.0000

          k = 0.2083 0.3498 0.0000 (  2429 PWs)   bands (ev):

   -18.4403 -10.9527  -8.2119  -6.3015   2.6845   4.6398   5.4218   5.6987

     occupation numbers 
     1.0000   1.0000   1.0000   1.0000   0.0000   0.0000   0.0000   0.0000

          k = 0.2083 0.4036 0.0000 (  2424 PWs)   bands (ev):

   -17.8627 -11.4682  -9.0629  -5.6606   1.9247   5.4588   5.8364   6.2149

     occupation numbers 
     1.0000   1.0000   1.0000   1.0000   0.0000   0.0000   0.0000   0.0000

          k = 0.2083 0.4574 0.0000 (  2426 PWs)   bands (ev):

   -17.2132 -11.9894  -9.8772  -4.9524   1.1362   5.5611   6.3931   7.0948

     occupation numbers 
     1.0000   1.0000   1.0000   1.0000   0.0000   0.0000   0.0000   0.0000

          k = 0.2083-0.7803 0.0000 (  2426 PWs)   bands (ev):

   -16.4984 -12.5774 -10.5474  -4.1935   0.3268   5.3511   7.4345   7.9924

     occupation numbers 
     1.0000   1.0000   1.0000   1.0000   0.0000   0.0000   0.0000   0.0000

          k = 0.2083-0.7265 0.0000 (  2423 PWs)   bands (ev):

   -15.7290 -13.2787 -10.9906  -3.4167  -0.4787   5.2087   8.5768   8.6505

     occupation numbers 
     1.0000   1.0000   1.0000   1.0000   0.0000   0.0000   0.0000   0.0000

          k = 0.2083-0.6726 0.0000 (  2429 PWs)   bands (ev):

   -14.9304 -14.0600 -11.1992  -2.7440  -1.1647   5.1368   8.8342   9.7977

     occupation numbers 
     1.0000   1.0000   1.0000   1.0174   0.0000   0.0000   0.0000   0.0000

          k = 0.2083-0.6188 0.0000 (  2429 PWs)   bands (ev):

   -14.9304 -14.0599 -11.1993  -2.7441  -1.1646   5.1368   8.8341   9.7978

     occupation numbers 
     1.0000   1.0000   1.0000   1.0174   0.0000   0.0000   0.0000   0.0000

          k = 0.2083-0.5650 0.0000 (  2423 PWs)   bands (ev):

   -15.7290 -13.2786 -10.9907  -3.4168  -0.4785   5.2087   8.5768   8.6504

     occupation numbers 
     1.0000   1.0000   1.0000   1.0000   0.0000   0.0000   0.0000   0.0000

          k = 0.2083-0.5112 0.0000 (  2426 PWs)   bands (ev):

   -16.4983 -12.5772 -10.5476  -4.1936   0.3270   5.3511   7.4345   7.9923

     occupation numbers 
     1.0000   1.0000   1.0000   1.0000   0.0000   0.0000   0.0000   0.0000

          k = 0.2083-0.4574 0.0000 (  2426 PWs)   bands (ev):

   -17.2131 -11.9892  -9.8775  -4.9525   1.1364   5.5611   6.3931   7.0948

     occupation numbers 
     1.0000   1.0000   1.0000   1.0000   0.0000   0.0000   0.0000   0.0000

          k = 0.2083-0.4036 0.0000 (  2424 PWs)   bands (ev):

   -17.8627 -11.4679  -9.0633  -5.6607   1.9250   5.4588   5.8364   6.2148

     occupation numbers 
     1.0000   1.0000   1.0000   1.0000   0.0000   0.0000   0.0000   0.0000

          k = 0.2083-0.3498 0.0000 (  2429 PWs)   bands (ev):

   -18.4403 -10.9524  -8.2123  -6.3016   2.6847   4.6398   5.4218   5.6988

     occupation numbers 
     1.0000   1.0000   1.0000   1.0000   0.0000   0.0000   0.0000   0.0000

          k = 0.2083-0.2960 0.0000 (  2440 PWs)   bands (ev):

   -18.9414 -10.4095  -7.4185  -6.8645   3.4053   3.9349   4.7422   4.9878

     occupation numbers 
     1.0000   1.0000   1.0000   1.0000   0.0000   0.0000   0.0000   0.0000

          k = 0.2083-0.2422 0.0000 (  2434 PWs)   bands (ev):

   -19.3629  -9.8286  -7.3422  -6.7679   3.3459   3.9394   4.3213   4.3940

     occupation numbers 
     1.0000   1.0000   1.0000   1.0000   0.0000   0.0000   0.0000   0.0000

          k = 0.2083-0.1883 0.0000 (  2429 PWs)   bands (ev):

   -19.7024  -9.2144  -7.7296  -6.3384   2.8735   3.6309   3.9183   4.7948

     occupation numbers 
     1.0000   1.0000   1.0000   1.0000   0.0000   0.0000   0.0000   0.0000

          k = 0.2500-0.1614 0.0000 (  2427 PWs)   bands (ev):

   -19.5638  -9.6190  -7.5728  -6.5015   3.0668   3.7942   4.1133   4.4278

     occupation numbers 
     1.0000   1.0000   1.0000   1.0000   0.0000   0.0000   0.0000   0.0000

          k = 0.2500-0.1076 0.0000 (  2419 PWs)   bands (ev):

   -19.7762  -8.9782  -7.8137  -6.6126   2.7712   3.5428   3.8161   4.8786

     occupation numbers 
     1.0000   1.0000   1.0000   1.0000   0.0000   0.0000   0.0000   0.0000

          k = 0.2500-0.0538 0.0000 (  2421 PWs)   bands (ev):

   -19.9041  -8.3796  -7.9591  -6.9174   2.5939   3.3751   3.6380   5.2160

     occupation numbers 
     1.0000   1.0000   1.0000   1.0000   0.0000   0.0000   0.0000   0.0000

          k = 0.2500 0.0000 0.0000 (  2411 PWs)   bands (ev):

   -19.9468  -8.0489  -8.0078  -7.1554   2.5348   3.3183   3.5786   5.3573

     occupation numbers 
     1.0000   1.0000   1.0000   1.0000   0.0000   0.0000   0.0000   0.0000

          k = 0.2500 0.0538 0.0000 (  2421 PWs)   bands (ev):

   -19.9041  -8.3799  -7.9591  -6.9170   2.5939   3.3751   3.6380   5.2160

     occupation numbers 
     1.0000   1.0000   1.0000   1.0000   0.0000   0.0000   0.0000   0.0000

          k = 0.2500 0.1076 0.0000 (  2419 PWs)   bands (ev):

   -19.7762  -8.9786  -7.8137  -6.6121   2.7712   3.5428   3.8161   4.8785

     occupation numbers 
     1.0000   1.0000   1.0000   1.0000   0.0000   0.0000   0.0000   0.0000

          k = 0.2500 0.1614 0.0000 (  2427 PWs)   bands (ev):

   -19.5638  -9.6193  -7.5728  -6.5009   3.0668   3.7942   4.1133   4.4277

     occupation numbers 
     1.0000   1.0000   1.0000   1.0000   0.0000   0.0000   0.0000   0.0000

          k = 0.2500 0.2152 0.0000 (  2424 PWs)   bands (ev):

   -19.2678 -10.2470  -7.2386  -6.6618   3.4804   3.6945   4.3494   4.5296

     occupation numbers 
     1.0000   1.0000   1.0000   1.0000   0.0000   0.0000   0.0000   0.0000

          k = 0.2500 0.2691 0.0000 (  2436 PWs)   bands (ev):

   -18.8900 -10.8373  -7.0982  -6.8147   3.0991   4.0112   4.8278   5.0648

     occupation numbers 
     1.0000   1.0000   1.0000   1.0000   0.0000   0.0000   0.0000   0.0000

          k = 0.2500 0.3229 0.0000 (  2433 PWs)   bands (ev):

   -18.4327 -11.3777  -7.7573  -6.3059   2.4399   4.6582   5.4544   5.7179

     occupation numbers 
     1.0000   1.0000   1.0000   1.0000   0.0000   0.0000   0.0000   0.0000

          k = 0.2500 0.3767 0.0000 (  2440 PWs)   bands (ev):

   -17.8995 -11.8640  -8.5617  -5.7188   1.7592   5.4199   6.1928   6.4878

     occupation numbers 
     1.0000   1.0000   1.0000   1.0000   0.0000   0.0000   0.0000   0.0000

          k = 0.2500 0.4305 0.0000 (  2431 PWs)   bands (ev):

   -17.2955 -12.3010  -9.4297  -5.0625   1.0632   6.2938   6.7542   7.0222

     occupation numbers 
     1.0000   1.0000   1.0000   1.0000   0.0000   0.0000   0.0000   0.0000

          k = 0.2500-0.8072 0.0000 (  2432 PWs)   bands (ev):

   -16.6290 -12.7102 -10.2787  -4.3493   0.3488   6.5062   7.2808   7.8814

     occupation numbers 
     1.0000   1.0000   1.0000   1.0000   0.0000   0.0000   0.0000   0.0000

          k = 0.2500-0.7534 0.0000 (  2426 PWs)   bands (ev):

   -15.9144 -13.1417 -11.0068  -3.5957  -0.3865   6.3270   8.3672   8.5173

     occupation numbers 
     1.0000   1.0000   1.0000   1.0000   0.0000   0.0000   0.0000   0.0000

          k = 0.2500-0.6996 0.0000 (  2433 PWs)   bands (ev):

   -15.1848 -13.6615 -11.4923  -2.8312  -1.1316   6.2178   8.6348   9.5373

     occupation numbers 
     1.0000   1.0000   1.0000   1.0060   0.0000   0.0000   0.0000   0.0000

          k = 0.2500-0.6457 0.0000 (  2439 PWs)   bands (ev):

   -14.6631 -14.1110 -11.6577  -2.2753  -1.6796   6.1810   8.6077  10.6915

     occupation numbers 
     1.0000   1.0000   1.0000   0.8437   0.0028   0.0000   0.0000   0.0000

          k = 0.2500-0.5919 0.0000 (  2433 PWs)   bands (ev):

   -15.1848 -13.6614 -11.4924  -2.8314  -1.1314   6.2178   8.6347   9.5373

     occupation numbers 
     1.0000   1.0000   1.0000   1.0060   0.0000   0.0000   0.0000   0.0000

          k = 0.2500-0.5381 0.0000 (  2426 PWs)   bands (ev):

   -15.9144 -13.1415 -11.0070  -3.5958  -0.3863   6.3270   8.3672   8.5172

     occupation numbers 
     1.0000   1.0000   1.0000   1.0000   0.0000   0.0000   0.0000   0.0000

          k = 0.2500-0.4843 0.0000 (  2432 PWs)   bands (ev):

   -16.6289 -12.7099 -10.2790  -4.3494   0.3490   6.5062   7.2808   7.8814

     occupation numbers 
     1.0000   1.0000   1.0000   1.0000   0.0000   0.0000   0.0000   0.0000

          k = 0.2500-0.4305 0.0000 (  2431 PWs)   bands (ev):

   -17.2954 -12.3008  -9.4300  -5.0627   1.0635   6.2938   6.7542   7.0221

     occupation numbers 
     1.0000   1.0000   1.0000   1.0000   0.0000   0.0000   0.0000   0.0000

          k = 0.2500-0.3767 0.0000 (  2440 PWs)   bands (ev):

   -17.8994 -11.8638  -8.5621  -5.7189   1.7594   5.4199   6.1929   6.4878

     occupation numbers 
     1.0000   1.0000   1.0000   1.0000   0.0000   0.0000   0.0000   0.0000

          k = 0.2500-0.3229 0.0000 (  2433 PWs)   bands (ev):

   -18.4327 -11.3774  -7.7577  -6.3060   2.4402   4.6582   5.4544   5.7179

     occupation numbers 
     1.0000   1.0000   1.0000   1.0000   0.0000   0.0000   0.0000   0.0000

          k = 0.2500-0.2691 0.0000 (  2436 PWs)   bands (ev):

   -18.8900 -10.8370  -7.0986  -6.8148   3.0993   4.0113   4.8278   5.0648

     occupation numbers 
     1.0000   1.0000   1.0000   1.0000   0.0000   0.0000   0.0000   0.0000

          k = 0.2500-0.2152 0.0000 (  2424 PWs)   bands (ev):

   -19.2678 -10.2467  -7.2386  -6.6623   3.4804   3.6946   4.3495   4.5296

     occupation numbers 
     1.0000   1.0000   1.0000   1.0000   0.0000   0.0000   0.0000   0.0000

          k = 0.2917-0.1883 0.0000 (  2432 PWs)   bands (ev):

   -19.1025 -10.6578  -7.0552  -6.7986   3.3073   3.7133   4.5497   4.7641

     occupation numbers 
     1.0000   1.0000   1.0000   1.0000   0.0000   0.0000   0.0000   0.0000

          k = 0.2917-0.1345 0.0000 (  2439 PWs)   bands (ev):

   -19.3547 -10.0119  -7.3352  -6.9184   3.3594   3.7965   4.2462   4.4087

     occupation numbers 
     1.0000   1.0000   1.0000   1.0000   0.0000   0.0000   0.0000   0.0000

          k = 0.2917-0.0807 0.0000 (  2427 PWs)   bands (ev):

   -19.5237  -9.3630  -7.5235  -7.2580   3.1236   3.8768   4.1719   4.3556

     occupation numbers 
     1.0000   1.0000   1.0000   1.0000   0.0000   0.0000   0.0000   0.0000

          k = 0.2917-0.0269 0.0000 (  2421 PWs)   bands (ev):

   -19.6085  -8.8154  -7.6668  -7.6182   3.0057   3.7876   4.0536   4.5699

     occupation numbers 
     1.0000   1.0000   1.0000   1.0000   0.0000   0.0000   0.0000   0.0000

          k = 0.2917 0.0269 0.0000 (  2421 PWs)   bands (ev):

   -19.6085  -8.8156  -7.6665  -7.6182   3.0057   3.7876   4.0536   4.5698

     occupation numbers 
     1.0000   1.0000   1.0000   1.0000   0.0000   0.0000   0.0000   0.0000

          k = 0.2917 0.0807 0.0000 (  2427 PWs)   bands (ev):

   -19.5237  -9.3633  -7.5235  -7.2576   3.1236   3.8768   4.1719   4.3556

     occupation numbers 
     1.0000   1.0000   1.0000   1.0000   0.0000   0.0000   0.0000   0.0000

          k = 0.2917 0.1345 0.0000 (  2439 PWs)   bands (ev):

   -19.3547 -10.0123  -7.3351  -6.9180   3.3594   3.7964   4.2462   4.4087

     occupation numbers 
     1.0000   1.0000   1.0000   1.0000   0.0000   0.0000   0.0000   0.0000

          k = 0.2917 0.1883 0.0000 (  2432 PWs)   bands (ev):

   -19.1025 -10.6581  -7.0552  -6.7981   3.3071   3.7133   4.5497   4.7641

     occupation numbers 
     1.0000   1.0000   1.0000   1.0000   0.0000   0.0000   0.0000   0.0000

          k = 0.2917 0.2422 0.0000 (  2431 PWs)   bands (ev):

   -18.7688 -11.2678  -6.9595  -6.6871   2.7208   4.1852   5.0068   5.2387

     occupation numbers 
     1.0000   1.0000   1.0000   1.0000   0.0000   0.0000   0.0000   0.0000

          k = 0.2917 0.2960 0.0000 (  2427 PWs)   bands (ev):

   -18.3561 -11.8241  -7.3989  -6.2361   2.1060   4.7742   5.5832   5.8333

     occupation numbers 
     1.0000   1.0000   1.0000   1.0000   0.0000   0.0000   0.0000   0.0000

          k = 0.2917 0.3498 0.0000 (  2431 PWs)   bands (ev):

   -17.8685 -12.3167  -8.0605  -5.7090   1.4874   5.4784   6.2695   6.5465

     occupation numbers 
     1.0000   1.0000   1.0000   1.0000   0.0000   0.0000   0.0000   0.0000

          k = 0.2917 0.4036 0.0000 (  2445 PWs)   bands (ev):

   -17.3123 -12.7397  -8.8661  -5.1152   0.8731   6.2954   7.0515   7.3753

     occupation numbers 
     1.0000   1.0000   1.0000   1.0000   0.0000   0.0000   0.0000   0.0000

          k = 0.2917-0.8341 0.0000 (  2438 PWs)   bands (ev):

   -16.6985 -13.0908  -9.7377  -4.4673   0.2615   7.2199   7.6432   7.8826

     occupation numbers 
     1.0000   1.0000   1.0000   1.0000   0.0000   0.0000   0.0000   0.0000

          k = 0.2917-0.7803 0.0000 (  2436 PWs)   bands (ev):

   -16.0481 -13.3737 -10.6000  -3.7811  -0.3571   7.4271   8.2573   8.5432

     occupation numbers 
     1.0000   1.0000   1.0000   1.0000   0.0000   0.0000   0.0000   0.0000

          k = 0.2917-0.7265 0.0000 (  2425 PWs)   bands (ev):

   -15.4094 -13.6022 -11.3567  -3.0761  -0.9931   7.2813   8.6205   9.3740

     occupation numbers 
     1.0000   1.0000   1.0000   1.0001   0.0000   0.0000   0.0000   0.0000

          k = 0.2917-0.6726 0.0000 (  2443 PWs)   bands (ev):

   -14.9211 -13.7838 -11.8417  -2.3823  -1.6442   7.2064   8.4930  10.5227

     occupation numbers 
     1.0000   1.0000   1.0000   1.0292   0.0015   0.0000   0.0000   0.0000

          k = 0.2917-0.6188 0.0000 (  2443 PWs)   bands (ev):

   -14.9211 -13.7836 -11.8418  -2.3826  -1.6440   7.2064   8.4929  10.5228

     occupation numbers 
     1.0000   1.0000   1.0000   1.0295   0.0015   0.0000   0.0000   0.0000

          k = 0.2917-0.5650 0.0000 (  2425 PWs)   bands (ev):

   -15.4094 -13.6020 -11.3569  -3.0764  -0.9928   7.2813   8.6204   9.3740

     occupation numbers 
     1.0000   1.0000   1.0000   1.0001   0.0000   0.0000   0.0000   0.0000

          k = 0.2917-0.5112 0.0000 (  2436 PWs)   bands (ev):

   -16.0481 -13.3735 -10.6003  -3.7813  -0.3568   7.4272   8.2573   8.5431

     occupation numbers 
     1.0000   1.0000   1.0000   1.0000   0.0000   0.0000   0.0000   0.0000

          k = 0.2917-0.4574 0.0000 (  2438 PWs)   bands (ev):

   -16.6985 -13.0906  -9.7380  -4.4675   0.2618   7.2199   7.6433   7.8826

     occupation numbers 
     1.0000   1.0000   1.0000   1.0000   0.0000   0.0000   0.0000   0.0000

          k = 0.2917-0.4036 0.0000 (  2445 PWs)   bands (ev):

   -17.3123 -12.7395  -8.8664  -5.1154   0.8734   6.2954   7.0515   7.3753

     occupation numbers 
     1.0000   1.0000   1.0000   1.0000   0.0000   0.0000   0.0000   0.0000

          k = 0.2917-0.3498 0.0000 (  2431 PWs)   bands (ev):

   -17.8684 -12.3165  -8.0609  -5.7091   1.4877   5.4784   6.2695   6.5465

     occupation numbers 
     1.0000   1.0000   1.0000   1.0000   0.0000   0.0000   0.0000   0.0000

          k = 0.2917-0.2960 0.0000 (  2427 PWs)   bands (ev):

   -18.3560 -11.8238  -7.3994  -6.2362   2.1062   4.7742   5.5832   5.8333

     occupation numbers 
     1.0000   1.0000   1.0000   1.0000   0.0000   0.0000   0.0000   0.0000

          k = 0.2917-0.2422 0.0000 (  2431 PWs)   bands (ev):

   -18.7687 -11.2675  -6.9599  -6.6872   2.7210   4.1852   5.0068   5.2387

     occupation numbers 
     1.0000   1.0000   1.0000   1.0000   0.0000   0.0000   0.0000   0.0000

          k = 0.3333-0.2152 0.0000 (  2431 PWs)   bands (ev):

   -18.5790 -11.6747  -7.0566  -6.4833   2.3032   4.4560   5.2811   5.5041

     occupation numbers 
     1.0000   1.0000   1.0000   1.0000   0.0000   0.0000   0.0000   0.0000

          k = 0.3333-0.1614 0.0000 (  2430 PWs)   bands (ev):

   -18.8682 -11.0418  -7.1831  -6.7935   2.8576   4.0450   4.8676   5.0987

     occupation numbers 
     1.0000   1.0000   1.0000   1.0000   0.0000   0.0000   0.0000   0.0000

          k = 0.3333-0.1076 0.0000 (  2436 PWs)   bands (ev):

   -19.0766 -10.3776  -7.5452  -7.0187   3.3417   3.7513   4.5659   4.8051

     occupation numbers 
     1.0000   1.0000   1.0000   1.0000   0.0000   0.0000   0.0000   0.0000

          k = 0.3333-0.0538 0.0000 (  2431 PWs)   bands (ev):

   -19.2022  -9.7341  -8.0371  -7.1551   3.5751   3.6916   4.3731   4.6283

     occupation numbers 
     1.0000   1.0000   1.0000   1.0000   0.0000   0.0000   0.0000   0.0000

          k = 0.3333-0.0000 0.0000 (  2429 PWs)   bands (ev):

   -19.2442  -9.3599  -8.3661  -7.2008   3.5164   3.8283   4.2996   4.5693

     occupation numbers 
     1.0000   1.0000   1.0000   1.0000   0.0000   0.0000   0.0000   0.0000

          k = 0.3333 0.0538 0.0000 (  2431 PWs)   bands (ev):

   -19.2022  -9.7344  -8.0368  -7.1551   3.5751   3.6915   4.3731   4.6283

     occupation numbers 
     1.0000   1.0000   1.0000   1.0000   0.0000   0.0000   0.0000   0.0000

          k = 0.3333 0.1076 0.0000 (  2436 PWs)   bands (ev):

   -19.0766 -10.3779  -7.5448  -7.0187   3.3416   3.7513   4.5659   4.8051

     occupation numbers 
     1.0000   1.0000   1.0000   1.0000   0.0000   0.0000   0.0000   0.0000

          k = 0.3333 0.1614 0.0000 (  2430 PWs)   bands (ev):

   -18.8682 -11.0420  -7.1826  -6.7934   2.8574   4.0449   4.8676   5.0987

     occupation numbers 
     1.0000   1.0000   1.0000   1.0000   0.0000   0.0000   0.0000   0.0000

          k = 0.3333 0.2152 0.0000 (  2431 PWs)   bands (ev):

   -18.5790 -11.6750  -7.0561  -6.4832   2.3030   4.4560   5.2811   5.5043

     occupation numbers 
     1.0000   1.0000   1.0000   1.0000   0.0000   0.0000   0.0000   0.0000

          k = 0.3333 0.2691 0.0000 (  2433 PWs)   bands (ev):

   -18.2118 -12.2542  -7.2170  -6.0936   1.7256   4.9849   5.8068   5.9619

     occupation numbers 
     1.0000   1.0000   1.0000   1.0000   0.0000   0.0000   0.0000   0.0000

          k = 0.3333 0.3229 0.0000 (  2437 PWs)   bands (ev):

   -17.7716 -12.7656  -7.6563  -5.6328   1.1561   5.6315   6.4417   6.4536

     occupation numbers 
     1.0000   1.0000   1.0000   1.0000   0.0000   0.0000   0.0000   0.0000

          k = 0.3333 0.3767 0.0000 (  2441 PWs)   bands (ev):

   -17.2665 -13.1975  -8.3149  -5.1123   0.6118   6.3926   7.1768   7.1991

     occupation numbers 
     1.0000   1.0000   1.0000   1.0000   0.0000   0.0000   0.0000   0.0000

          k = 0.3333-0.8610 0.0000 (  2440 PWs)   bands (ev):

   -16.7122 -13.5357  -9.1141  -4.5484   0.0993   7.2626   7.9798   8.0486

     occupation numbers 
     1.0000   1.0000   1.0000   1.0000   0.0000   0.0000   0.0000   0.0000

          k = 0.3333-0.8072 0.0000 (  2430 PWs)   bands (ev):

   -16.1414 -13.7567  -9.9783  -3.9636  -0.3824   8.1987   8.3306   8.6873

     occupation numbers 
     1.0000   1.0000   1.0000   1.0000   0.0000   0.0000   0.0000   0.0000

          k = 0.3333-0.7534 0.0000 (  2436 PWs)   bands (ev):

   -15.6274 -13.8115 -10.8353  -3.3921  -0.8350   8.1546   8.7821   9.3099

     occupation numbers 
     1.0000   1.0000   1.0000   1.0000   0.0000   0.0000   0.0000   0.0000

          k = 0.3333-0.6996 0.0000 (  2423 PWs)   bands (ev):

   -15.2912 -13.6521 -11.5806  -2.8983  -1.2340   8.0501   8.5382  10.4151

     occupation numbers 
     1.0000   1.0000   1.0000   1.0022   0.0000   0.0000   0.0000   0.0000

          k = 0.3333-0.6457 0.0000 (  2431 PWs)   bands (ev):

   -15.1874 -13.4831 -11.9387  -2.6637  -1.4326   8.0130   8.4266  10.7539

     occupation numbers 
     1.0000   1.0000   1.0000   1.0376   0.0000   0.0000   0.0000   0.0000

          k = 0.3333-0.5919 0.0000 (  2423 PWs)   bands (ev):

   -15.2912 -13.6519 -11.5808  -2.8985  -1.2338   8.0502   8.5381  10.4152

     occupation numbers 
     1.0000   1.0000   1.0000   1.0022   0.0000   0.0000   0.0000   0.0000

          k = 0.3333-0.5381 0.0000 (  2436 PWs)   bands (ev):

   -15.6274 -13.8113 -10.8356  -3.3923  -0.8347   8.1547   8.7819   9.3100

     occupation numbers 
     1.0000   1.0000   1.0000   1.0000   0.0000   0.0000   0.0000   0.0000

          k = 0.3333-0.4843 0.0000 (  2430 PWs)   bands (ev):

   -16.1414 -13.7565  -9.9786  -3.9639  -0.3821   8.1987   8.3310   8.6872

     occupation numbers 
     1.0000   1.0000   1.0000   1.0000   0.0000   0.0000   0.0000   0.0000

          k = 0.3333-0.4305 0.0000 (  2440 PWs)   bands (ev):

   -16.7122 -13.5355  -9.1144  -4.5486   0.0996   7.2626   7.9798   8.0489

     occupation numbers 
     1.0000   1.0000   1.0000   1.0000   0.0000   0.0000   0.0000   0.0000

          k = 0.3333-0.3767 0.0000 (  2441 PWs)   bands (ev):

   -17.2664 -13.1972  -8.3153  -5.1124   0.6121   6.3926   7.1768   7.1991

     occupation numbers 
     1.0000   1.0000   1.0000   1.0000   0.0000   0.0000   0.0000   0.0000

          k = 0.3333-0.3229 0.0000 (  2437 PWs)   bands (ev):

   -17.7715 -12.7654  -7.6567  -5.6329   1.1564   5.6315   6.4417   6.4536

     occupation numbers 
     1.0000   1.0000   1.0000   1.0000   0.0000   0.0000   0.0000   0.0000

          k = 0.3333-0.2691 0.0000 (  2433 PWs)   bands (ev):

   -18.2118 -12.2540  -7.2174  -6.0937   1.7259   4.9849   5.8068   5.9620

     occupation numbers 
     1.0000   1.0000   1.0000   1.0000   0.0000   0.0000   0.0000   0.0000

          k = 0.3750-0.2422 0.0000 (  2436 PWs)   bands (ev):

   -18.0020 -12.6470  -7.2657  -5.8811   1.3306   5.2839   5.8667   6.1245

     occupation numbers 
     1.0000   1.0000   1.0000   1.0000   0.0000   0.0000   0.0000   0.0000

          k = 0.3750-0.1883 0.0000 (  2438 PWs)   bands (ev):

   -18.3226 -12.0426  -7.3983  -6.2053   1.8682   4.8241   5.6504   5.8620

     occupation numbers 
     1.0000   1.0000   1.0000   1.0000   0.0000   0.0000   0.0000   0.0000

          k = 0.3750-0.1345 0.0000 (  2438 PWs)   bands (ev):

   -18.5668 -11.3860  -7.7771  -6.4561   2.3751   4.4752   5.2876   5.5348

     occupation numbers 
     1.0000   1.0000   1.0000   1.0000   0.0000   0.0000   0.0000   0.0000

          k = 0.3750-0.0807 0.0000 (  2433 PWs)   bands (ev):

   -18.7312 -10.7084  -8.3142  -6.6267   2.7878   4.2416   5.0377   5.3018

     occupation numbers 
     1.0000   1.0000   1.0000   1.0000   0.0000   0.0000   0.0000   0.0000

          k = 0.3750-0.0269 0.0000 (  2431 PWs)   bands (ev):

   -18.8138 -10.1143  -8.8525  -6.7129   3.0274   4.1246   4.9071   5.1844

     occupation numbers 
     1.0000   1.0000   1.0000   1.0000   0.0000   0.0000   0.0000   0.0000

          k = 0.3750 0.0269 0.0000 (  2431 PWs)   bands (ev):

   -18.8138 -10.1145  -8.8523  -6.7129   3.0273   4.1246   4.9071   5.1844

     occupation numbers 
     1.0000   1.0000   1.0000   1.0000   0.0000   0.0000   0.0000   0.0000

          k = 0.3750 0.0807 0.0000 (  2433 PWs)   bands (ev):

   -18.7312 -10.7087  -8.3138  -6.6266   2.7877   4.2416   5.0377   5.3018

     occupation numbers 
     1.0000   1.0000   1.0000   1.0000   0.0000   0.0000   0.0000   0.0000

          k = 0.3750 0.1345 0.0000 (  2438 PWs)   bands (ev):

   -18.5668 -11.3863  -7.7767  -6.4560   2.3749   4.4752   5.2876   5.5348

     occupation numbers 
     1.0000   1.0000   1.0000   1.0000   0.0000   0.0000   0.0000   0.0000

          k = 0.3750 0.1883 0.0000 (  2438 PWs)   bands (ev):

   -18.3226 -12.0429  -7.3979  -6.2052   1.8680   4.8241   5.6504   5.8620

     occupation numbers 
     1.0000   1.0000   1.0000   1.0000   0.0000   0.0000   0.0000   0.0000

          k = 0.3750 0.2422 0.0000 (  2436 PWs)   bands (ev):

   -18.0021 -12.6472  -7.2653  -5.8810   1.3303   5.2839   5.8667   6.1245

     occupation numbers 
     1.0000   1.0000   1.0000   1.0000   0.0000   0.0000   0.0000   0.0000

          k = 0.3750 0.2960 0.0000 (  2436 PWs)   bands (ev):

   -17.6115 -13.1810  -7.4244  -5.4935   0.8062   5.8239   6.0184   6.7079

     occupation numbers 
     1.0000   1.0000   1.0000   1.0000   0.0000   0.0000   0.0000   0.0000

          k = 0.3750 0.3498 0.0000 (  2443 PWs)   bands (ev):

   -17.1626 -13.6268  -7.8609  -5.0582   0.3257   6.3958   6.6157   7.3947

     occupation numbers 
     1.0000   1.0000   1.0000   1.0000   0.0000   0.0000   0.0000   0.0000

          k = 0.3750-0.8879 0.0000 (  2445 PWs)   bands (ev):

   -16.6795 -13.9593  -8.5120  -4.5975  -0.0908   7.1738   7.4087   8.1639

     occupation numbers 
     1.0000   1.0000   1.0000   1.0000   0.0000   0.0000   0.0000   0.0000

          k = 0.3750-0.8341 0.0000 (  2444 PWs)   bands (ev):

   -16.2155 -14.1284  -9.2990  -4.1428  -0.4291   8.0624   8.3098   8.9040

     occupation numbers 
     1.0000   1.0000   1.0000   1.0000   0.0000   0.0000   0.0000   0.0000

          k = 0.3750-0.7803 0.0000 (  2438 PWs)   bands (ev):

   -15.8702 -14.0456 -10.1469  -3.7361  -0.6804   8.4610   9.0329   9.3152

     occupation numbers 
     1.0000   1.0000   1.0000   1.0000   0.0000   0.0000   0.0000   0.0000

          k = 0.3750-0.7265 0.0000 (  2431 PWs)   bands (ev):

   -15.7103 -13.6743 -10.9805  -3.4267  -0.8421   8.3806   8.6815   9.9459

     occupation numbers 
     1.0000   1.0000   1.0000   1.0000   0.0000   0.0000   0.0000   0.0000

          k = 0.3750-0.6726 0.0000 (  2423 PWs)   bands (ev):

   -15.6683 -13.2040 -11.6503  -3.2591  -0.9188   8.3051   8.4392   9.9001

     occupation numbers 
     1.0000   1.0000   1.0000   1.0000   0.0000   0.0000   0.0000   0.0000

          k = 0.3750-0.6188 0.0000 (  2423 PWs)   bands (ev):

   -15.6683 -13.2038 -11.6505  -3.2592  -0.9187   8.3051   8.4392   9.9001

     occupation numbers 
     1.0000   1.0000   1.0000   1.0000   0.0000   0.0000   0.0000   0.0000

          k = 0.3750-0.5650 0.0000 (  2431 PWs)   bands (ev):

   -15.7103 -13.6741 -10.9807  -3.4269  -0.8418   8.3807   8.6815   9.9460

     occupation numbers 
     1.0000   1.0000   1.0000   1.0000   0.0000   0.0000   0.0000   0.0000

          k = 0.3750-0.5112 0.0000 (  2438 PWs)   bands (ev):

   -15.8702 -14.0453 -10.1472  -3.7364  -0.6800   8.4613   9.0327   9.3153

     occupation numbers 
     1.0000   1.0000   1.0000   1.0000   0.0000   0.0000   0.0000   0.0000

          k = 0.3750-0.4574 0.0000 (  2444 PWs)   bands (ev):

   -16.2155 -14.1282  -9.2993  -4.1430  -0.4287   8.0627   8.3099   8.9039

     occupation numbers 
     1.0000   1.0000   1.0000   1.0000   0.0000   0.0000   0.0000   0.0000

          k = 0.3750-0.4036 0.0000 (  2445 PWs)   bands (ev):

   -16.6795 -13.9591  -8.5124  -4.5977  -0.0904   7.1738   7.4087   8.1639

     occupation numbers 
     1.0000   1.0000   1.0000   1.0000   0.0000   0.0000   0.0000   0.0000

          k = 0.3750-0.3498 0.0000 (  2443 PWs)   bands (ev):

   -17.1626 -13.6266  -7.8612  -5.0584   0.3260   6.3958   6.6157   7.3947

     occupation numbers 
     1.0000   1.0000   1.0000   1.0000   0.0000   0.0000   0.0000   0.0000

          k = 0.3750-0.2960 0.0000 (  2436 PWs)   bands (ev):

   -17.6115 -13.1808  -7.4248  -5.4937   0.8065   5.8240   6.0184   6.7079

     occupation numbers 
     1.0000   1.0000   1.0000   1.0000   0.0000   0.0000   0.0000   0.0000

          k = 0.4167-0.2691 0.0000 (  2449 PWs)   bands (ev):

   -17.3929 -13.5442  -7.4195  -5.2962   0.4674   5.7572   6.2717   7.0666

     occupation numbers 
     1.0000   1.0000   1.0000   1.0000   0.0000   0.0000   0.0000   0.0000

          k = 0.4167-0.2152 0.0000 (  2439 PWs)   bands (ev):

   -17.7299 -12.9894  -7.5575  -5.6018   0.9407   5.6682   6.0921   6.5347

     occupation numbers 
     1.0000   1.0000   1.0000   1.0000   0.0000   0.0000   0.0000   0.0000

          k = 0.4167-0.1614 0.0000 (  2440 PWs)   bands (ev):

   -18.0021 -12.3607  -7.9500  -5.8565   1.4284   5.2899   6.1124   6.3360

     occupation numbers 
     1.0000   1.0000   1.0000   1.0000   0.0000   0.0000   0.0000   0.0000

          k = 0.4167-0.1076 0.0000 (  2438 PWs)   bands (ev):

   -18.2008 -11.6832  -8.5173  -6.0465   1.8698   5.0022   5.8023   6.0712

     occupation numbers 
     1.0000   1.0000   1.0000   1.0000   0.0000   0.0000   0.0000   0.0000

          k = 0.4167-0.0538 0.0000 (  2436 PWs)   bands (ev):

   -18.3214 -11.0079  -9.1516  -6.1637   2.1883   4.8280   5.6096   5.8973

     occupation numbers 
     1.0000   1.0000   1.0000   1.0000   0.0000   0.0000   0.0000   0.0000

          k = 0.4167-0.0000 0.0000 (  2431 PWs)   bands (ev):

   -18.3618 -10.6002  -9.5501  -6.2032   2.3062   4.7698   5.5434   5.8388

     occupation numbers 
     1.0000   1.0000   1.0000   1.0000   0.0000   0.0000   0.0000   0.0000

          k = 0.4167 0.0538 0.0000 (  2436 PWs)   bands (ev):

   -18.3214 -11.0082  -9.1513  -6.1637   2.1882   4.8280   5.6096   5.8973

     occupation numbers 
     1.0000   1.0000   1.0000   1.0000   0.0000   0.0000   0.0000   0.0000

          k = 0.4167 0.1076 0.0000 (  2438 PWs)   bands (ev):

   -18.2008 -11.6834  -8.5169  -6.0465   1.8697   5.0022   5.8023   6.0712

     occupation numbers 
     1.0000   1.0000   1.0000   1.0000   0.0000   0.0000   0.0000   0.0000

          k = 0.4167 0.1614 0.0000 (  2440 PWs)   bands (ev):

   -18.0022 -12.3609  -7.9496  -5.8564   1.4282   5.2899   6.1124   6.3359

     occupation numbers 
     1.0000   1.0000   1.0000   1.0000   0.0000   0.0000   0.0000   0.0000

          k = 0.4167 0.2152 0.0000 (  2439 PWs)   bands (ev):

   -17.7300 -12.9896  -7.5571  -5.6017   0.9405   5.6682   6.0921   6.5348

     occupation numbers 
     1.0000   1.0000   1.0000   1.0000   0.0000   0.0000   0.0000   0.0000

          k = 0.4167 0.2691 0.0000 (  2449 PWs)   bands (ev):

   -17.3929 -13.5444  -7.4191  -5.2961   0.4671   5.7572   6.2717   7.0666

     occupation numbers 
     1.0000   1.0000   1.0000   1.0000   0.0000   0.0000   0.0000   0.0000

          k = 0.4167 0.3229 0.0000 (  2450 PWs)   bands (ev):

   -17.0089 -14.0000  -7.5753  -4.9600   0.0537   5.9031   6.8929   7.7040

     occupation numbers 
     1.0000   1.0000   1.0000   1.0000   0.0000   0.0000   0.0000   0.0000

          k = 0.4167-0.9148 0.0000 (  2445 PWs)   bands (ev):

   -16.6175 -14.3134  -8.0062  -4.6227  -0.2630   6.4054   7.6379   8.4331

     occupation numbers 
     1.0000   1.0000   1.0000   1.0000   0.0000   0.0000   0.0000   0.0000

          k = 0.4167-0.8610 0.0000 (  2446 PWs)   bands (ev):

   -16.3026 -14.4022  -8.6466  -4.3206  -0.4565   7.1861   8.4717   8.8741

     occupation numbers 
     1.0000   1.0000   1.0000   1.0000   0.0000   0.0000   0.0000   0.0000

          k = 0.4167-0.8072 0.0000 (  2444 PWs)   bands (ev):

   -16.1585 -14.1775  -9.4165  -4.0875  -0.5191   7.9953   8.6165   9.0759

     occupation numbers 
     1.0000   1.0000   1.0000   1.0000   0.0000   0.0000   0.0000   0.0000

          k = 0.4167-0.7534 0.0000 (  2436 PWs)   bands (ev):

   -16.1554 -13.6843 -10.2397  -3.9381  -0.4799   8.0325   8.6567   9.1470

     occupation numbers 
     1.0000   1.0000   1.0000   1.0000   0.0000   0.0000   0.0000   0.0000

          k = 0.4167-0.6996 0.0000 (  2424 PWs)   bands (ev):

   -16.1914 -13.0735 -11.0259  -3.8622  -0.4062   7.8966   8.3466   9.1329

     occupation numbers 
     1.0000   1.0000   1.0000   1.0000   0.0000   0.0000   0.0000   0.0000

          k = 0.4167-0.6457 0.0000 (  2417 PWs)   bands (ev):

   -16.2085 -12.6823 -11.4729  -3.8399  -0.3710   7.8462   8.2314   9.0866

     occupation numbers 
     1.0000   1.0000   1.0000   1.0000   0.0000   0.0000   0.0000   0.0000

          k = 0.4167-0.5919 0.0000 (  2424 PWs)   bands (ev):

   -16.1914 -13.0733 -11.0262  -3.8623  -0.4061   7.8966   8.3465   9.1330

     occupation numbers 
     1.0000   1.0000   1.0000   1.0000   0.0000   0.0000   0.0000   0.0000

          k = 0.4167-0.5381 0.0000 (  2436 PWs)   bands (ev):

   -16.1554 -13.6841 -10.2400  -3.9383  -0.4797   8.0326   8.6566   9.1471

     occupation numbers 
     1.0000   1.0000   1.0000   1.0000   0.0000   0.0000   0.0000   0.0000

          k = 0.4167-0.4843 0.0000 (  2444 PWs)   bands (ev):

   -16.1585 -14.1773  -9.4168  -4.0877  -0.5188   7.9955   8.6163   9.0757

     occupation numbers 
     1.0000   1.0000   1.0000   1.0000   0.0000   0.0000   0.0000   0.0000

          k = 0.4167-0.4305 0.0000 (  2446 PWs)   bands (ev):

   -16.3026 -14.4019  -8.6470  -4.3209  -0.4561   7.1862   8.4718   8.8740

     occupation numbers 
     1.0000   1.0000   1.0000   1.0000   0.0000   0.0000   0.0000   0.0000

          k = 0.4167-0.3767 0.0000 (  2445 PWs)   bands (ev):

   -16.6175 -14.3132  -8.0066  -4.6229  -0.2626   6.4054   7.6379   8.4331

     occupation numbers 
     1.0000   1.0000   1.0000   1.0000   0.0000   0.0000   0.0000   0.0000

          k = 0.4167-0.3229 0.0000 (  2450 PWs)   bands (ev):

   -17.0088 -13.9998  -7.5757  -4.9602   0.0541   5.9032   6.8929   7.7040

     occupation numbers 
     1.0000   1.0000   1.0000   1.0000   0.0000   0.0000   0.0000   0.0000

          k = 0.4583-0.2960 0.0000 (  2452 PWs)   bands (ev):

   -16.8190 -14.2931  -7.5134  -4.8267  -0.1742   5.7318   7.2775   8.1026

     occupation numbers 
     1.0000   1.0000   1.0000   1.0000   0.0000   0.0000   0.0000   0.0000

          k = 0.4583-0.2422 0.0000 (  2441 PWs)   bands (ev):

   -17.1229 -13.8414  -7.6566  -5.0472   0.1587   5.9500   6.7143   7.5146

     occupation numbers 
     1.0000   1.0000   1.0000   1.0000   0.0000   0.0000   0.0000   0.0000

          k = 0.4583-0.1883 0.0000 (  2435 PWs)   bands (ev):

   -17.4002 -13.2713  -8.0609  -5.2610   0.5668   6.1582   6.6183   7.0326

     occupation numbers 
     1.0000   1.0000   1.0000   1.0000   0.0000   0.0000   0.0000   0.0000

          k = 0.4583-0.1345 0.0000 (  2438 PWs)   bands (ev):

   -17.6216 -12.6221  -8.6515  -5.4412   0.9870   5.8499   6.6603   6.9188

     occupation numbers 
     1.0000   1.0000   1.0000   1.0000   0.0000   0.0000   0.0000   0.0000

          k = 0.4583-0.0807 0.0000 (  2430 PWs)   bands (ev):

   -17.7739 -11.9316  -9.3376  -5.5701   1.3431   5.6220   6.4023   6.7046

     occupation numbers 
     1.0000   1.0000   1.0000   1.0000   0.0000   0.0000   0.0000   0.0000

          k = 0.4583-0.0269 0.0000 (  2425 PWs)   bands (ev):

   -17.8513 -11.3072  -9.9703  -5.6370   1.5517   5.5066   6.2681   6.5892

     occupation numbers 
     1.0000   1.0000   1.0000   1.0000   0.0000   0.0000   0.0000   0.0000

          k = 0.4583 0.0269 0.0000 (  2425 PWs)   bands (ev):

   -17.8513 -11.3074  -9.9701  -5.6370   1.5517   5.5066   6.2681   6.5892

     occupation numbers 
     1.0000   1.0000   1.0000   1.0000   0.0000   0.0000   0.0000   0.0000

          k = 0.4583 0.0807 0.0000 (  2430 PWs)   bands (ev):

   -17.7739 -11.9318  -9.3373  -5.5700   1.3430   5.6220   6.4023   6.7045

     occupation numbers 
     1.0000   1.0000   1.0000   1.0000   0.0000   0.0000   0.0000   0.0000

          k = 0.4583 0.1345 0.0000 (  2438 PWs)   bands (ev):

   -17.6216 -12.6224  -8.6511  -5.4411   0.9867   5.8499   6.6603   6.9187

     occupation numbers 
     1.0000   1.0000   1.0000   1.0000   0.0000   0.0000   0.0000   0.0000

          k = 0.4583 0.1883 0.0000 (  2435 PWs)   bands (ev):

   -17.4002 -13.2715  -8.0605  -5.2609   0.5666   6.1582   6.6183   7.0326

     occupation numbers 
     1.0000   1.0000   1.0000   1.0000   0.0000   0.0000   0.0000   0.0000

          k = 0.4583 0.2422 0.0000 (  2441 PWs)   bands (ev):

   -17.1229 -13.8417  -7.6562  -5.0470   0.1584   5.9499   6.7143   7.5146

     occupation numbers 
     1.0000   1.0000   1.0000   1.0000   0.0000   0.0000   0.0000   0.0000

          k = 0.4583 0.2960 0.0000 (  2452 PWs)   bands (ev):

   -16.8190 -14.2933  -7.5130  -4.8265  -0.1745   5.7318   7.2775   8.1025

     occupation numbers 
     1.0000   1.0000   1.0000   1.0000   0.0000   0.0000   0.0000   0.0000

          k = 0.4583-0.9417 0.0000 (  2448 PWs)   bands (ev):

   -16.5549 -14.5556  -7.6655  -4.6328  -0.3817   5.8965   7.9608   8.8555

     occupation numbers 
     1.0000   1.0000   1.0000   1.0000   0.0000   0.0000   0.0000   0.0000

          k = 0.4583-0.8879 0.0000 (  2455 PWs)   bands (ev):

   -16.4351 -14.5236  -8.0892  -4.4973  -0.4328   6.4236   8.2786   8.7814

     occupation numbers 
     1.0000   1.0000   1.0000   1.0000   0.0000   0.0000   0.0000   0.0000

          k = 0.4583-0.8341 0.0000 (  2450 PWs)   bands (ev):

   -16.4826 -14.1774  -8.7156  -4.4317  -0.3333   7.1912   7.8830   8.6176

     occupation numbers 
     1.0000   1.0000   1.0000   1.0000   0.0000   0.0000   0.0000   0.0000

          k = 0.4583-0.7803 0.0000 (  2438 PWs)   bands (ev):

   -16.5995 -13.6242  -9.4637  -4.4208  -0.1346   7.4002   8.2059   8.2610

     occupation numbers 
     1.0000   1.0000   1.0000   1.0000   0.0000   0.0000   0.0000   0.0000

          k = 0.4583-0.7265 0.0000 (  2423 PWs)   bands (ev):

   -16.7052 -12.9685 -10.2519  -4.4356   0.0790   7.2018   7.9013   8.3403

     occupation numbers 
     1.0000   1.0000   1.0000   1.0000   0.0000   0.0000   0.0000   0.0000

          k = 0.4583-0.6726 0.0000 (  2416 PWs)   bands (ev):

   -16.7642 -12.3506 -10.9387  -4.4500   0.2165   7.0922   7.7332   8.2360

     occupation numbers 
     1.0000   1.0000   1.0000   1.0000   0.0000   0.0000   0.0000   0.0000

          k = 0.4583-0.6188 0.0000 (  2416 PWs)   bands (ev):

   -16.7642 -12.3504 -10.9389  -4.4501   0.2166   7.0922   7.7332   8.2360

     occupation numbers 
     1.0000   1.0000   1.0000   1.0000   0.0000   0.0000   0.0000   0.0000

          k = 0.4583-0.5650 0.0000 (  2423 PWs)   bands (ev):

   -16.7052 -12.9683 -10.2521  -4.4357   0.0792   7.2018   7.9013   8.3404

     occupation numbers 
     1.0000   1.0000   1.0000   1.0000   0.0000   0.0000   0.0000   0.0000

          k = 0.4583-0.5112 0.0000 (  2438 PWs)   bands (ev):

   -16.5995 -13.6239  -9.4640  -4.4210  -0.1343   7.4003   8.2059   8.2610

     occupation numbers 
     1.0000   1.0000   1.0000   1.0000   0.0000   0.0000   0.0000   0.0000

          k = 0.4583-0.4574 0.0000 (  2450 PWs)   bands (ev):

   -16.4826 -14.1772  -8.7159  -4.4319  -0.3330   7.1913   7.8830   8.6175

     occupation numbers 
     1.0000   1.0000   1.0000   1.0000   0.0000   0.0000   0.0000   0.0000

          k = 0.4583-0.4036 0.0000 (  2455 PWs)   bands (ev):

   -16.4351 -14.5234  -8.0895  -4.4975  -0.4324   6.4236   8.2786   8.7813

     occupation numbers 
     1.0000   1.0000   1.0000   1.0000   0.0000   0.0000   0.0000   0.0000

          k = 0.4583-0.3498 0.0000 (  2448 PWs)   bands (ev):

   -16.5548 -14.5554  -7.6659  -4.6330  -0.3813   5.8965   7.9608   8.8555

     occupation numbers 
     1.0000   1.0000   1.0000   1.0000   0.0000   0.0000   0.0000   0.0000

          k =-0.5000 0.3229 0.0000 (  2458 PWs)   bands (ev):

   -16.5277 -14.6431  -7.5450  -4.6355  -0.4236   5.7186   8.2952   8.4655

     occupation numbers 
     1.0000   1.0000   1.0000   1.0000   0.0000   0.0000   0.0000   0.0000

          k =-0.5000 0.3767 0.0000 (  2448 PWs)   bands (ev):

   -16.6166 -14.4789  -7.6929  -4.6689  -0.3395   5.9152   7.7482   8.5840

     occupation numbers 
     1.0000   1.0000   1.0000   1.0000   0.0000   0.0000   0.0000   0.0000

          k =-0.5000 0.4305 0.0000 (  2445 PWs)   bands (ev):

   -16.8132 -14.0583  -8.1077  -4.7556  -0.1089   6.4544   7.2538   8.0424

     occupation numbers 
     1.0000   1.0000   1.0000   1.0000   0.0000   0.0000   0.0000   0.0000

          k =-0.5000 0.4843 0.0000 (  2437 PWs)   bands (ev):

   -17.0198 -13.4850  -8.7177  -4.8648   0.2104   6.7487   7.3702   7.6048

     occupation numbers 
     1.0000   1.0000   1.0000   1.0000   0.0000   0.0000   0.0000   0.0000

          k =-0.5000 0.5381 0.0000 (  2427 PWs)   bands (ev):

   -17.1864 -12.8238  -9.4387  -4.9652   0.5402   6.4948   7.2759   7.5911

     occupation numbers 
     1.0000   1.0000   1.0000   1.0000   0.0000   0.0000   0.0000   0.0000

          k =-0.5000 0.5919 0.0000 (  2418 PWs)   bands (ev):

   -17.2919 -12.1405 -10.1731  -5.0340   0.7921   6.3260   7.0665   7.4300

     occupation numbers 
     1.0000   1.0000   1.0000   1.0000   0.0000   0.0000   0.0000   0.0000

          k =-0.5000 0.6457 0.0000 (  2425 PWs)   bands (ev):

   -17.3279 -11.7166 -10.6167  -5.0583   0.8871   6.2689   6.9935   7.3730

     occupation numbers 
     1.0000   1.0000   1.0000   1.0000   0.0000   0.0000   0.0000   0.0000

          k =-0.5000 0.6996 0.0000 (  2418 PWs)   bands (ev):

   -17.2919 -12.1407 -10.1729  -5.0339   0.7920   6.3260   7.0665   7.4300

     occupation numbers 
     1.0000   1.0000   1.0000   1.0000   0.0000   0.0000   0.0000   0.0000

          k =-0.5000 0.7534 0.0000 (  2427 PWs)   bands (ev):

   -17.1864 -12.8241  -9.4384  -4.9651   0.5400   6.4948   7.2759   7.5911

     occupation numbers 
     1.0000   1.0000   1.0000   1.0000   0.0000   0.0000   0.0000   0.0000

          k =-0.5000 0.8072 0.0000 (  2437 PWs)   bands (ev):

   -17.0198 -13.4853  -8.7173  -4.8646   0.2101   6.7486   7.3702   7.6048

     occupation numbers 
     1.0000   1.0000   1.0000   1.0000   0.0000   0.0000   0.0000   0.0000

          k =-0.5000 0.8610 0.0000 (  2445 PWs)   bands (ev):

   -16.8133 -14.0585  -8.1073  -4.7554  -0.1093   6.4544   7.2539   8.0425

     occupation numbers 
     1.0000   1.0000   1.0000   1.0000   0.0000   0.0000   0.0000   0.0000

          k =-0.5000 0.9148 0.0000 (  2448 PWs)   bands (ev):

   -16.6166 -14.4791  -7.6926  -4.6687  -0.3398   5.9151   7.7481   8.5840

     occupation numbers 
     1.0000   1.0000   1.0000   1.0000   0.0000   0.0000   0.0000   0.0000

          k =-0.5000-0.3229 0.0000 (  2458 PWs)   bands (ev):

   -16.5277 -14.6433  -7.5446  -4.6353  -0.4240   5.7186   8.2951   8.4656

     occupation numbers 
     1.0000   1.0000   1.0000   1.0000   0.0000   0.0000   0.0000   0.0000

          k =-0.5000-0.2691 0.0000 (  2448 PWs)   bands (ev):

   -16.6166 -14.4791  -7.6926  -4.6687  -0.3398   5.9151   7.7481   8.5840

     occupation numbers 
     1.0000   1.0000   1.0000   1.0000   0.0000   0.0000   0.0000   0.0000

          k =-0.5000-0.2152 0.0000 (  2445 PWs)   bands (ev):

   -16.8133 -14.0585  -8.1073  -4.7554  -0.1093   6.4544   7.2539   8.0424

     occupation numbers 
     1.0000   1.0000   1.0000   1.0000   0.0000   0.0000   0.0000   0.0000

          k =-0.5000-0.1614 0.0000 (  2437 PWs)   bands (ev):

   -17.0198 -13.4853  -8.7173  -4.8646   0.2101   6.7486   7.3702   7.6048

     occupation numbers 
     1.0000   1.0000   1.0000   1.0000   0.0000   0.0000   0.0000   0.0000

          k =-0.5000-0.1076 0.0000 (  2427 PWs)   bands (ev):

   -17.1864 -12.8241  -9.4384  -4.9651   0.5400   6.4948   7.2759   7.5911

     occupation numbers 
     1.0000   1.0000   1.0000   1.0000   0.0000   0.0000   0.0000   0.0000

          k =-0.5000-0.0538 0.0000 (  2418 PWs)   bands (ev):

   -17.2919 -12.1407 -10.1729  -5.0339   0.7920   6.3260   7.0665   7.4300

     occupation numbers 
     1.0000   1.0000   1.0000   1.0000   0.0000   0.0000   0.0000   0.0000

          k =-0.5000 0.0000 0.0000 (  2425 PWs)   bands (ev):

   -17.3279 -11.7166 -10.6167  -5.0583   0.8871   6.2689   6.9935   7.3730

     occupation numbers 
     1.0000   1.0000   1.0000   1.0000   0.0000   0.0000   0.0000   0.0000

          k =-0.5000 0.0538 0.0000 (  2418 PWs)   bands (ev):

   -17.2919 -12.1405 -10.1731  -5.0340   0.7921   6.3260   7.0665   7.4300

     occupation numbers 
     1.0000   1.0000   1.0000   1.0000   0.0000   0.0000   0.0000   0.0000

          k =-0.5000 0.1076 0.0000 (  2427 PWs)   bands (ev):

   -17.1864 -12.8238  -9.4387  -4.9652   0.5402   6.4948   7.2759   7.5911

     occupation numbers 
     1.0000   1.0000   1.0000   1.0000   0.0000   0.0000   0.0000   0.0000

          k =-0.5000 0.1614 0.0000 (  2437 PWs)   bands (ev):

   -17.0198 -13.4850  -8.7177  -4.8648   0.2104   6.7487   7.3702   7.6048

     occupation numbers 
     1.0000   1.0000   1.0000   1.0000   0.0000   0.0000   0.0000   0.0000

          k =-0.5000 0.2152 0.0000 (  2445 PWs)   bands (ev):

   -16.8132 -14.0583  -8.1077  -4.7556  -0.1089   6.4544   7.2538   8.0424

     occupation numbers 
     1.0000   1.0000   1.0000   1.0000   0.0000   0.0000   0.0000   0.0000

          k =-0.5000 0.2691 0.0000 (  2448 PWs)   bands (ev):

   -16.6166 -14.4789  -7.6929  -4.6689  -0.3395   5.9152   7.7482   8.5840

     occupation numbers 
     1.0000   1.0000   1.0000   1.0000   0.0000   0.0000   0.0000   0.0000

          k =-0.4583 0.2960 0.0000 (  2452 PWs)   bands (ev):

   -16.8190 -14.2931  -7.5134  -4.8267  -0.1742   5.7318   7.2775   8.1026

     occupation numbers 
     1.0000   1.0000   1.0000   1.0000   0.0000   0.0000   0.0000   0.0000

          k =-0.4583 0.3498 0.0000 (  2448 PWs)   bands (ev):

   -16.5548 -14.5554  -7.6659  -4.6330  -0.3813   5.8965   7.9608   8.8556

     occupation numbers 
     1.0000   1.0000   1.0000   1.0000   0.0000   0.0000   0.0000   0.0000

          k =-0.4583 0.4036 0.0000 (  2455 PWs)   bands (ev):

   -16.4351 -14.5234  -8.0895  -4.4975  -0.4324   6.4236   8.2786   8.7814

     occupation numbers 
     1.0000   1.0000   1.0000   1.0000   0.0000   0.0000   0.0000   0.0000

          k =-0.4583 0.4574 0.0000 (  2450 PWs)   bands (ev):

   -16.4826 -14.1772  -8.7159  -4.4319  -0.3330   7.1913   7.8830   8.6175

     occupation numbers 
     1.0000   1.0000   1.0000   1.0000   0.0000   0.0000   0.0000   0.0000

          k =-0.4583 0.5112 0.0000 (  2438 PWs)   bands (ev):

   -16.5995 -13.6239  -9.4640  -4.4210  -0.1343   7.4003   8.2059   8.2610

     occupation numbers 
     1.0000   1.0000   1.0000   1.0000   0.0000   0.0000   0.0000   0.0000

          k =-0.4583 0.5650 0.0000 (  2423 PWs)   bands (ev):

   -16.7052 -12.9683 -10.2521  -4.4357   0.0792   7.2018   7.9013   8.3404

     occupation numbers 
     1.0000   1.0000   1.0000   1.0000   0.0000   0.0000   0.0000   0.0000

          k =-0.4583 0.6188 0.0000 (  2416 PWs)   bands (ev):

   -16.7642 -12.3504 -10.9389  -4.4501   0.2166   7.0922   7.7332   8.2360

     occupation numbers 
     1.0000   1.0000   1.0000   1.0000   0.0000   0.0000   0.0000   0.0000

          k =-0.4583 0.6726 0.0000 (  2416 PWs)   bands (ev):

   -16.7642 -12.3506 -10.9387  -4.4500   0.2165   7.0922   7.7332   8.2360

     occupation numbers 
     1.0000   1.0000   1.0000   1.0000   0.0000   0.0000   0.0000   0.0000

          k =-0.4583 0.7265 0.0000 (  2423 PWs)   bands (ev):

   -16.7052 -12.9685 -10.2519  -4.4356   0.0790   7.2018   7.9013   8.3403

     occupation numbers 
     1.0000   1.0000   1.0000   1.0000   0.0000   0.0000   0.0000   0.0000

          k =-0.4583 0.7803 0.0000 (  2438 PWs)   bands (ev):

   -16.5995 -13.6242  -9.4637  -4.4208  -0.1346   7.4002   8.2059   8.2610

     occupation numbers 
     1.0000   1.0000   1.0000   1.0000   0.0000   0.0000   0.0000   0.0000

          k =-0.4583 0.8341 0.0000 (  2450 PWs)   bands (ev):

   -16.4826 -14.1774  -8.7156  -4.4317  -0.3333   7.1912   7.8830   8.6175

     occupation numbers 
     1.0000   1.0000   1.0000   1.0000   0.0000   0.0000   0.0000   0.0000

          k =-0.4583 0.8879 0.0000 (  2455 PWs)   bands (ev):

   -16.4351 -14.5236  -8.0892  -4.4973  -0.4328   6.4236   8.2786   8.7814

     occupation numbers 
     1.0000   1.0000   1.0000   1.0000   0.0000   0.0000   0.0000   0.0000

          k =-0.4583-0.3498 0.0000 (  2448 PWs)   bands (ev):

   -16.5549 -14.5556  -7.6655  -4.6328  -0.3817   5.8965   7.9608   8.8555

     occupation numbers 
     1.0000   1.0000   1.0000   1.0000   0.0000   0.0000   0.0000   0.0000

          k =-0.4583-0.2960 0.0000 (  2452 PWs)   bands (ev):

   -16.8190 -14.2933  -7.5130  -4.8265  -0.1745   5.7318   7.2775   8.1025

     occupation numbers 
     1.0000   1.0000   1.0000   1.0000   0.0000   0.0000   0.0000   0.0000

          k =-0.4583-0.2422 0.0000 (  2441 PWs)   bands (ev):

   -17.1229 -13.8417  -7.6562  -5.0470   0.1584   5.9499   6.7143   7.5146

     occupation numbers 
     1.0000   1.0000   1.0000   1.0000   0.0000   0.0000   0.0000   0.0000

          k =-0.4583-0.1883 0.0000 (  2435 PWs)   bands (ev):

   -17.4002 -13.2715  -8.0605  -5.2609   0.5666   6.1582   6.6183   7.0326

     occupation numbers 
     1.0000   1.0000   1.0000   1.0000   0.0000   0.0000   0.0000   0.0000

          k =-0.4583-0.1345 0.0000 (  2438 PWs)   bands (ev):

   -17.6216 -12.6224  -8.6511  -5.4411   0.9867   5.8499   6.6603   6.9187

     occupation numbers 
     1.0000   1.0000   1.0000   1.0000   0.0000   0.0000   0.0000   0.0000

          k =-0.4583-0.0807 0.0000 (  2430 PWs)   bands (ev):

   -17.7739 -11.9318  -9.3373  -5.5700   1.3430   5.6220   6.4023   6.7045

     occupation numbers 
     1.0000   1.0000   1.0000   1.0000   0.0000   0.0000   0.0000   0.0000

          k =-0.4583-0.0269 0.0000 (  2425 PWs)   bands (ev):

   -17.8513 -11.3074  -9.9701  -5.6370   1.5517   5.5066   6.2681   6.5892

     occupation numbers 
     1.0000   1.0000   1.0000   1.0000   0.0000   0.0000   0.0000   0.0000

          k =-0.4583 0.0269 0.0000 (  2425 PWs)   bands (ev):

   -17.8513 -11.3072  -9.9703  -5.6370   1.5517   5.5066   6.2681   6.5892

     occupation numbers 
     1.0000   1.0000   1.0000   1.0000   0.0000   0.0000   0.0000   0.0000

          k =-0.4583 0.0807 0.0000 (  2430 PWs)   bands (ev):

   -17.7739 -11.9316  -9.3376  -5.5701   1.3431   5.6220   6.4023   6.7046

     occupation numbers 
     1.0000   1.0000   1.0000   1.0000   0.0000   0.0000   0.0000   0.0000

          k =-0.4583 0.1345 0.0000 (  2438 PWs)   bands (ev):

   -17.6216 -12.6221  -8.6515  -5.4412   0.9870   5.8499   6.6603   6.9188

     occupation numbers 
     1.0000   1.0000   1.0000   1.0000   0.0000   0.0000   0.0000   0.0000

          k =-0.4583 0.1883 0.0000 (  2435 PWs)   bands (ev):

   -17.4002 -13.2713  -8.0609  -5.2610   0.5668   6.1582   6.6183   7.0326

     occupation numbers 
     1.0000   1.0000   1.0000   1.0000   0.0000   0.0000   0.0000   0.0000

          k =-0.4583 0.2422 0.0000 (  2441 PWs)   bands (ev):

   -17.1229 -13.8414  -7.6566  -5.0472   0.1587   5.9500   6.7143   7.5146

     occupation numbers 
     1.0000   1.0000   1.0000   1.0000   0.0000   0.0000   0.0000   0.0000

          k =-0.4167 0.2691 0.0000 (  2449 PWs)   bands (ev):

   -17.3929 -13.5442  -7.4195  -5.2962   0.4674   5.7572   6.2717   7.0666

     occupation numbers 
     1.0000   1.0000   1.0000   1.0000   0.0000   0.0000   0.0000   0.0000

          k =-0.4167 0.3229 0.0000 (  2450 PWs)   bands (ev):

   -17.0088 -13.9998  -7.5757  -4.9602   0.0541   5.9032   6.8929   7.7040

     occupation numbers 
     1.0000   1.0000   1.0000   1.0000   0.0000   0.0000   0.0000   0.0000

          k =-0.4167 0.3767 0.0000 (  2445 PWs)   bands (ev):

   -16.6175 -14.3132  -8.0066  -4.6229  -0.2626   6.4054   7.6379   8.4331

     occupation numbers 
     1.0000   1.0000   1.0000   1.0000   0.0000   0.0000   0.0000   0.0000

          k =-0.4167 0.4305 0.0000 (  2446 PWs)   bands (ev):

   -16.3026 -14.4019  -8.6470  -4.3209  -0.4561   7.1862   8.4718   8.8740

     occupation numbers 
     1.0000   1.0000   1.0000   1.0000   0.0000   0.0000   0.0000   0.0000

          k =-0.4167 0.4843 0.0000 (  2444 PWs)   bands (ev):

   -16.1585 -14.1773  -9.4168  -4.0877  -0.5188   7.9955   8.6163   9.0757

     occupation numbers 
     1.0000   1.0000   1.0000   1.0000   0.0000   0.0000   0.0000   0.0000

          k =-0.4167 0.5381 0.0000 (  2436 PWs)   bands (ev):

   -16.1554 -13.6841 -10.2400  -3.9383  -0.4797   8.0326   8.6566   9.1471

     occupation numbers 
     1.0000   1.0000   1.0000   1.0000   0.0000   0.0000   0.0000   0.0000

          k =-0.4167 0.5919 0.0000 (  2424 PWs)   bands (ev):

   -16.1914 -13.0733 -11.0262  -3.8623  -0.4061   7.8966   8.3465   9.1330

     occupation numbers 
     1.0000   1.0000   1.0000   1.0000   0.0000   0.0000   0.0000   0.0000

          k =-0.4167 0.6457 0.0000 (  2417 PWs)   bands (ev):

   -16.2085 -12.6823 -11.4729  -3.8399  -0.3710   7.8462   8.2314   9.0866

     occupation numbers 
     1.0000   1.0000   1.0000   1.0000   0.0000   0.0000   0.0000   0.0000

          k =-0.4167 0.6996 0.0000 (  2424 PWs)   bands (ev):

   -16.1914 -13.0735 -11.0259  -3.8622  -0.4062   7.8966   8.3466   9.1329

     occupation numbers 
     1.0000   1.0000   1.0000   1.0000   0.0000   0.0000   0.0000   0.0000

          k =-0.4167 0.7534 0.0000 (  2436 PWs)   bands (ev):

   -16.1554 -13.6843 -10.2397  -3.9381  -0.4799   8.0325   8.6567   9.1470

     occupation numbers 
     1.0000   1.0000   1.0000   1.0000   0.0000   0.0000   0.0000   0.0000

          k =-0.4167 0.8072 0.0000 (  2444 PWs)   bands (ev):

   -16.1585 -14.1775  -9.4165  -4.0875  -0.5191   7.9953   8.6165   9.0759

     occupation numbers 
     1.0000   1.0000   1.0000   1.0000   0.0000   0.0000   0.0000   0.0000

          k =-0.4167 0.8610 0.0000 (  2446 PWs)   bands (ev):

   -16.3026 -14.4022  -8.6466  -4.3206  -0.4565   7.1861   8.4717   8.8741

     occupation numbers 
     1.0000   1.0000   1.0000   1.0000   0.0000   0.0000   0.0000   0.0000

          k =-0.4167-0.3767 0.0000 (  2445 PWs)   bands (ev):

   -16.6175 -14.3134  -8.0062  -4.6227  -0.2630   6.4054   7.6379   8.4331

     occupation numbers 
     1.0000   1.0000   1.0000   1.0000   0.0000   0.0000   0.0000   0.0000

          k =-0.4167-0.3229 0.0000 (  2450 PWs)   bands (ev):

   -17.0089 -14.0000  -7.5753  -4.9600   0.0537   5.9031   6.8929   7.7040

     occupation numbers 
     1.0000   1.0000   1.0000   1.0000   0.0000   0.0000   0.0000   0.0000

          k =-0.4167-0.2691 0.0000 (  2449 PWs)   bands (ev):

   -17.3929 -13.5444  -7.4191  -5.2961   0.4671   5.7572   6.2717   7.0666

     occupation numbers 
     1.0000   1.0000   1.0000   1.0000   0.0000   0.0000   0.0000   0.0000

          k =-0.4167-0.2152 0.0000 (  2439 PWs)   bands (ev):

   -17.7300 -12.9896  -7.5571  -5.6017   0.9405   5.6682   6.0921   6.5347

     occupation numbers 
     1.0000   1.0000   1.0000   1.0000   0.0000   0.0000   0.0000   0.0000

          k =-0.4167-0.1614 0.0000 (  2440 PWs)   bands (ev):

   -18.0022 -12.3609  -7.9496  -5.8564   1.4282   5.2899   6.1124   6.3359

     occupation numbers 
     1.0000   1.0000   1.0000   1.0000   0.0000   0.0000   0.0000   0.0000

          k =-0.4167-0.1076 0.0000 (  2438 PWs)   bands (ev):

   -18.2008 -11.6834  -8.5169  -6.0465   1.8697   5.0022   5.8023   6.0712

     occupation numbers 
     1.0000   1.0000   1.0000   1.0000   0.0000   0.0000   0.0000   0.0000

          k =-0.4167-0.0538 0.0000 (  2436 PWs)   bands (ev):

   -18.3214 -11.0082  -9.1513  -6.1637   2.1882   4.8280   5.6096   5.8973

     occupation numbers 
     1.0000   1.0000   1.0000   1.0000   0.0000   0.0000   0.0000   0.0000

          k =-0.4167-0.0000 0.0000 (  2431 PWs)   bands (ev):

   -18.3618 -10.6002  -9.5501  -6.2032   2.3062   4.7698   5.5434   5.8388

     occupation numbers 
     1.0000   1.0000   1.0000   1.0000   0.0000   0.0000   0.0000   0.0000

          k =-0.4167 0.0538 0.0000 (  2436 PWs)   bands (ev):

   -18.3214 -11.0079  -9.1516  -6.1637   2.1883   4.8280   5.6096   5.8973

     occupation numbers 
     1.0000   1.0000   1.0000   1.0000   0.0000   0.0000   0.0000   0.0000

          k =-0.4167 0.1076 0.0000 (  2438 PWs)   bands (ev):

   -18.2008 -11.6832  -8.5173  -6.0465   1.8698   5.0022   5.8023   6.0712

     occupation numbers 
     1.0000   1.0000   1.0000   1.0000   0.0000   0.0000   0.0000   0.0000

          k =-0.4167 0.1614 0.0000 (  2440 PWs)   bands (ev):

   -18.0021 -12.3607  -7.9500  -5.8565   1.4284   5.2899   6.1124   6.3360

     occupation numbers 
     1.0000   1.0000   1.0000   1.0000   0.0000   0.0000   0.0000   0.0000

          k =-0.4167 0.2152 0.0000 (  2439 PWs)   bands (ev):

   -17.7299 -12.9894  -7.5575  -5.6018   0.9407   5.6682   6.0921   6.5348

     occupation numbers 
     1.0000   1.0000   1.0000   1.0000   0.0000   0.0000   0.0000   0.0000

          k =-0.3750 0.2422 0.0000 (  2436 PWs)   bands (ev):

   -18.0020 -12.6470  -7.2657  -5.8811   1.3306   5.2839   5.8667   6.1245

     occupation numbers 
     1.0000   1.0000   1.0000   1.0000   0.0000   0.0000   0.0000   0.0000

          k =-0.3750 0.2960 0.0000 (  2436 PWs)   bands (ev):

   -17.6115 -13.1808  -7.4248  -5.4937   0.8065   5.8240   6.0184   6.7079

     occupation numbers 
     1.0000   1.0000   1.0000   1.0000   0.0000   0.0000   0.0000   0.0000

          k =-0.3750 0.3498 0.0000 (  2443 PWs)   bands (ev):

   -17.1626 -13.6266  -7.8612  -5.0584   0.3260   6.3958   6.6157   7.3947

     occupation numbers 
     1.0000   1.0000   1.0000   1.0000   0.0000   0.0000   0.0000   0.0000

          k =-0.3750 0.4036 0.0000 (  2445 PWs)   bands (ev):

   -16.6795 -13.9591  -8.5124  -4.5977  -0.0904   7.1738   7.4087   8.1639

     occupation numbers 
     1.0000   1.0000   1.0000   1.0000   0.0000   0.0000   0.0000   0.0000

          k =-0.3750 0.4574 0.0000 (  2444 PWs)   bands (ev):

   -16.2155 -14.1282  -9.2993  -4.1430  -0.4287   8.0627   8.3099   8.9039

     occupation numbers 
     1.0000   1.0000   1.0000   1.0000   0.0000   0.0000   0.0000   0.0000

          k =-0.3750 0.5112 0.0000 (  2438 PWs)   bands (ev):

   -15.8702 -14.0453 -10.1472  -3.7364  -0.6800   8.4613   9.0327   9.3153

     occupation numbers 
     1.0000   1.0000   1.0000   1.0000   0.0000   0.0000   0.0000   0.0000

          k =-0.3750 0.5650 0.0000 (  2431 PWs)   bands (ev):

   -15.7103 -13.6741 -10.9807  -3.4269  -0.8418   8.3807   8.6815   9.9460

     occupation numbers 
     1.0000   1.0000   1.0000   1.0000   0.0000   0.0000   0.0000   0.0000

          k =-0.3750 0.6188 0.0000 (  2423 PWs)   bands (ev):

   -15.6683 -13.2038 -11.6505  -3.2592  -0.9187   8.3051   8.4392   9.9001

     occupation numbers 
     1.0000   1.0000   1.0000   1.0000   0.0000   0.0000   0.0000   0.0000

          k =-0.3750 0.6726 0.0000 (  2423 PWs)   bands (ev):

   -15.6683 -13.2040 -11.6503  -3.2591  -0.9188   8.3051   8.4392   9.9001

     occupation numbers 
     1.0000   1.0000   1.0000   1.0000   0.0000   0.0000   0.0000   0.0000

          k =-0.3750 0.7265 0.0000 (  2431 PWs)   bands (ev):

   -15.7103 -13.6743 -10.9805  -3.4267  -0.8421   8.3806   8.6815   9.9459

     occupation numbers 
     1.0000   1.0000   1.0000   1.0000   0.0000   0.0000   0.0000   0.0000

          k =-0.3750 0.7803 0.0000 (  2438 PWs)   bands (ev):

   -15.8702 -14.0456 -10.1469  -3.7361  -0.6804   8.4610   9.0329   9.3152

     occupation numbers 
     1.0000   1.0000   1.0000   1.0000   0.0000   0.0000   0.0000   0.0000

          k =-0.3750 0.8341 0.0000 (  2444 PWs)   bands (ev):

   -16.2155 -14.1284  -9.2990  -4.1428  -0.4291   8.0624   8.3098   8.9040

     occupation numbers 
     1.0000   1.0000   1.0000   1.0000   0.0000   0.0000   0.0000   0.0000

          k =-0.3750-0.4036 0.0000 (  2445 PWs)   bands (ev):

   -16.6795 -13.9593  -8.5120  -4.5975  -0.0908   7.1738   7.4087   8.1639

     occupation numbers 
     1.0000   1.0000   1.0000   1.0000   0.0000   0.0000   0.0000   0.0000

          k =-0.3750-0.3498 0.0000 (  2443 PWs)   bands (ev):

   -17.1626 -13.6268  -7.8609  -5.0582   0.3257   6.3958   6.6157   7.3948

     occupation numbers 
     1.0000   1.0000   1.0000   1.0000   0.0000   0.0000   0.0000   0.0000

          k =-0.3750-0.2960 0.0000 (  2436 PWs)   bands (ev):

   -17.6115 -13.1810  -7.4244  -5.4935   0.8062   5.8239   6.0184   6.7079

     occupation numbers 
     1.0000   1.0000   1.0000   1.0000   0.0000   0.0000   0.0000   0.0000

          k =-0.3750-0.2422 0.0000 (  2436 PWs)   bands (ev):

   -18.0021 -12.6472  -7.2653  -5.8810   1.3303   5.2839   5.8667   6.1245

     occupation numbers 
     1.0000   1.0000   1.0000   1.0000   0.0000   0.0000   0.0000   0.0000

          k =-0.3750-0.1883 0.0000 (  2438 PWs)   bands (ev):

   -18.3226 -12.0429  -7.3979  -6.2052   1.8680   4.8241   5.6504   5.8619

     occupation numbers 
     1.0000   1.0000   1.0000   1.0000   0.0000   0.0000   0.0000   0.0000

          k =-0.3750-0.1345 0.0000 (  2438 PWs)   bands (ev):

   -18.5668 -11.3863  -7.7767  -6.4560   2.3749   4.4752   5.2876   5.5348

     occupation numbers 
     1.0000   1.0000   1.0000   1.0000   0.0000   0.0000   0.0000   0.0000

          k =-0.3750-0.0807 0.0000 (  2433 PWs)   bands (ev):

   -18.7312 -10.7087  -8.3138  -6.6266   2.7877   4.2416   5.0377   5.3018

     occupation numbers 
     1.0000   1.0000   1.0000   1.0000   0.0000   0.0000   0.0000   0.0000

          k =-0.3750-0.0269 0.0000 (  2431 PWs)   bands (ev):

   -18.8138 -10.1145  -8.8523  -6.7129   3.0273   4.1246   4.9071   5.1844

     occupation numbers 
     1.0000   1.0000   1.0000   1.0000   0.0000   0.0000   0.0000   0.0000

          k =-0.3750 0.0269 0.0000 (  2431 PWs)   bands (ev):

   -18.8138 -10.1143  -8.8525  -6.7129   3.0274   4.1246   4.9071   5.1844

     occupation numbers 
     1.0000   1.0000   1.0000   1.0000   0.0000   0.0000   0.0000   0.0000

          k =-0.3750 0.0807 0.0000 (  2433 PWs)   bands (ev):

   -18.7312 -10.7084  -8.3142  -6.6267   2.7878   4.2416   5.0377   5.3018

     occupation numbers 
     1.0000   1.0000   1.0000   1.0000   0.0000   0.0000   0.0000   0.0000

          k =-0.3750 0.1345 0.0000 (  2438 PWs)   bands (ev):

   -18.5668 -11.3860  -7.7771  -6.4561   2.3751   4.4752   5.2876   5.5348

     occupation numbers 
     1.0000   1.0000   1.0000   1.0000   0.0000   0.0000   0.0000   0.0000

          k =-0.3750 0.1883 0.0000 (  2438 PWs)   bands (ev):

   -18.3226 -12.0426  -7.3983  -6.2053   1.8682   4.8241   5.6504   5.8620

     occupation numbers 
     1.0000   1.0000   1.0000   1.0000   0.0000   0.0000   0.0000   0.0000

          k =-0.3333 0.2152 0.0000 (  2431 PWs)   bands (ev):

   -18.5790 -11.6747  -7.0566  -6.4833   2.3032   4.4560   5.2811   5.5041

     occupation numbers 
     1.0000   1.0000   1.0000   1.0000   0.0000   0.0000   0.0000   0.0000

          k =-0.3333 0.2691 0.0000 (  2433 PWs)   bands (ev):

   -18.2118 -12.2540  -7.2174  -6.0937   1.7259   4.9849   5.8068   5.9620

     occupation numbers 
     1.0000   1.0000   1.0000   1.0000   0.0000   0.0000   0.0000   0.0000

          k =-0.3333 0.3229 0.0000 (  2437 PWs)   bands (ev):

   -17.7715 -12.7654  -7.6567  -5.6329   1.1564   5.6315   6.4417   6.4536

     occupation numbers 
     1.0000   1.0000   1.0000   1.0000   0.0000   0.0000   0.0000   0.0000

          k =-0.3333 0.3767 0.0000 (  2441 PWs)   bands (ev):

   -17.2664 -13.1972  -8.3153  -5.1124   0.6121   6.3926   7.1768   7.1991

     occupation numbers 
     1.0000   1.0000   1.0000   1.0000   0.0000   0.0000   0.0000   0.0000

          k =-0.3333 0.4305 0.0000 (  2440 PWs)   bands (ev):

   -16.7122 -13.5355  -9.1144  -4.5486   0.0996   7.2626   7.9798   8.0489

     occupation numbers 
     1.0000   1.0000   1.0000   1.0000   0.0000   0.0000   0.0000   0.0000

          k =-0.3333 0.4843 0.0000 (  2430 PWs)   bands (ev):

   -16.1414 -13.7565  -9.9786  -3.9639  -0.3821   8.1988   8.3310   8.6872

     occupation numbers 
     1.0000   1.0000   1.0000   1.0000   0.0000   0.0000   0.0000   0.0000

          k =-0.3333 0.5381 0.0000 (  2436 PWs)   bands (ev):

   -15.6274 -13.8113 -10.8356  -3.3923  -0.8347   8.1547   8.7819   9.3100

     occupation numbers 
     1.0000   1.0000   1.0000   1.0000   0.0000   0.0000   0.0000   0.0000

          k =-0.3333 0.5919 0.0000 (  2423 PWs)   bands (ev):

   -15.2912 -13.6519 -11.5808  -2.8985  -1.2338   8.0502   8.5381  10.4152

     occupation numbers 
     1.0000   1.0000   1.0000   1.0022   0.0000   0.0000   0.0000   0.0000

          k =-0.3333 0.6457 0.0000 (  2431 PWs)   bands (ev):

   -15.1874 -13.4831 -11.9387  -2.6637  -1.4326   8.0130   8.4266  10.7539

     occupation numbers 
     1.0000   1.0000   1.0000   1.0376   0.0000   0.0000   0.0000   0.0000

          k =-0.3333 0.6996 0.0000 (  2423 PWs)   bands (ev):

   -15.2912 -13.6521 -11.5806  -2.8983  -1.2340   8.0501   8.5382  10.4151

     occupation numbers 
     1.0000   1.0000   1.0000   1.0022   0.0000   0.0000   0.0000   0.0000

          k =-0.3333 0.7534 0.0000 (  2436 PWs)   bands (ev):

   -15.6274 -13.8115 -10.8353  -3.3921  -0.8350   8.1546   8.7821   9.3099

     occupation numbers 
     1.0000   1.0000   1.0000   1.0000   0.0000   0.0000   0.0000   0.0000

          k =-0.3333 0.8072 0.0000 (  2430 PWs)   bands (ev):

   -16.1414 -13.7567  -9.9783  -3.9636  -0.3824   8.1987   8.3306   8.6873

     occupation numbers 
     1.0000   1.0000   1.0000   1.0000   0.0000   0.0000   0.0000   0.0000

          k =-0.3333-0.4305 0.0000 (  2440 PWs)   bands (ev):

   -16.7122 -13.5357  -9.1141  -4.5484   0.0993   7.2626   7.9798   8.0486

     occupation numbers 
     1.0000   1.0000   1.0000   1.0000   0.0000   0.0000   0.0000   0.0000

          k =-0.3333-0.3767 0.0000 (  2441 PWs)   bands (ev):

   -17.2665 -13.1975  -8.3149  -5.1123   0.6118   6.3926   7.1768   7.1991

     occupation numbers 
     1.0000   1.0000   1.0000   1.0000   0.0000   0.0000   0.0000   0.0000

          k =-0.3333-0.3229 0.0000 (  2437 PWs)   bands (ev):

   -17.7716 -12.7656  -7.6563  -5.6328   1.1561   5.6315   6.4417   6.4536

     occupation numbers 
     1.0000   1.0000   1.0000   1.0000   0.0000   0.0000   0.0000   0.0000

          k =-0.3333-0.2691 0.0000 (  2433 PWs)   bands (ev):

   -18.2118 -12.2542  -7.2170  -6.0936   1.7256   4.9849   5.8068   5.9619

     occupation numbers 
     1.0000   1.0000   1.0000   1.0000   0.0000   0.0000   0.0000   0.0000

          k =-0.3333-0.2152 0.0000 (  2431 PWs)   bands (ev):

   -18.5790 -11.6750  -7.0561  -6.4832   2.3030   4.4560   5.2811   5.5043

     occupation numbers 
     1.0000   1.0000   1.0000   1.0000   0.0000   0.0000   0.0000   0.0000

          k =-0.3333-0.1614 0.0000 (  2430 PWs)   bands (ev):

   -18.8682 -11.0420  -7.1826  -6.7934   2.8574   4.0449   4.8676   5.0987

     occupation numbers 
     1.0000   1.0000   1.0000   1.0000   0.0000   0.0000   0.0000   0.0000

          k =-0.3333-0.1076 0.0000 (  2436 PWs)   bands (ev):

   -19.0766 -10.3779  -7.5448  -7.0187   3.3416   3.7513   4.5659   4.8051

     occupation numbers 
     1.0000   1.0000   1.0000   1.0000   0.0000   0.0000   0.0000   0.0000

          k =-0.3333-0.0538 0.0000 (  2431 PWs)   bands (ev):

   -19.2022  -9.7344  -8.0368  -7.1551   3.5751   3.6915   4.3731   4.6283

     occupation numbers 
     1.0000   1.0000   1.0000   1.0000   0.0000   0.0000   0.0000   0.0000

          k =-0.3333 0.0000 0.0000 (  2429 PWs)   bands (ev):

   -19.2442  -9.3599  -8.3661  -7.2008   3.5164   3.8283   4.2996   4.5693

     occupation numbers 
     1.0000   1.0000   1.0000   1.0000   0.0000   0.0000   0.0000   0.0000

          k =-0.3333 0.0538 0.0000 (  2431 PWs)   bands (ev):

   -19.2022  -9.7341  -8.0371  -7.1551   3.5751   3.6916   4.3731   4.6283

     occupation numbers 
     1.0000   1.0000   1.0000   1.0000   0.0000   0.0000   0.0000   0.0000

          k =-0.3333 0.1076 0.0000 (  2436 PWs)   bands (ev):

   -19.0766 -10.3776  -7.5452  -7.0187   3.3417   3.7513   4.5659   4.8051

     occupation numbers 
     1.0000   1.0000   1.0000   1.0000   0.0000   0.0000   0.0000   0.0000

          k =-0.3333 0.1614 0.0000 (  2430 PWs)   bands (ev):

   -18.8682 -11.0418  -7.1831  -6.7935   2.8576   4.0450   4.8676   5.0987

     occupation numbers 
     1.0000   1.0000   1.0000   1.0000   0.0000   0.0000   0.0000   0.0000

          k =-0.2917 0.1883 0.0000 (  2432 PWs)   bands (ev):

   -19.1025 -10.6578  -7.0552  -6.7986   3.3073   3.7133   4.5497   4.7641

     occupation numbers 
     1.0000   1.0000   1.0000   1.0000   0.0000   0.0000   0.0000   0.0000

          k =-0.2917 0.2422 0.0000 (  2431 PWs)   bands (ev):

   -18.7687 -11.2675  -6.9599  -6.6872   2.7210   4.1852   5.0068   5.2387

     occupation numbers 
     1.0000   1.0000   1.0000   1.0000   0.0000   0.0000   0.0000   0.0000

          k =-0.2917 0.2960 0.0000 (  2427 PWs)   bands (ev):

   -18.3560 -11.8238  -7.3994  -6.2362   2.1062   4.7742   5.5832   5.8333

     occupation numbers 
     1.0000   1.0000   1.0000   1.0000   0.0000   0.0000   0.0000   0.0000

          k =-0.2917 0.3498 0.0000 (  2431 PWs)   bands (ev):

   -17.8684 -12.3165  -8.0609  -5.7091   1.4877   5.4784   6.2695   6.5465

     occupation numbers 
     1.0000   1.0000   1.0000   1.0000   0.0000   0.0000   0.0000   0.0000

          k =-0.2917 0.4036 0.0000 (  2445 PWs)   bands (ev):

   -17.3123 -12.7395  -8.8664  -5.1154   0.8734   6.2954   7.0515   7.3753

     occupation numbers 
     1.0000   1.0000   1.0000   1.0000   0.0000   0.0000   0.0000   0.0000

          k =-0.2917 0.4574 0.0000 (  2438 PWs)   bands (ev):

   -16.6985 -13.0906  -9.7380  -4.4675   0.2618   7.2199   7.6433   7.8826

     occupation numbers 
     1.0000   1.0000   1.0000   1.0000   0.0000   0.0000   0.0000   0.0000

          k =-0.2917 0.5112 0.0000 (  2436 PWs)   bands (ev):

   -16.0481 -13.3735 -10.6003  -3.7813  -0.3568   7.4272   8.2573   8.5431

     occupation numbers 
     1.0000   1.0000   1.0000   1.0000   0.0000   0.0000   0.0000   0.0000

          k =-0.2917 0.5650 0.0000 (  2425 PWs)   bands (ev):

   -15.4094 -13.6020 -11.3569  -3.0764  -0.9928   7.2813   8.6204   9.3740

     occupation numbers 
     1.0000   1.0000   1.0000   1.0001   0.0000   0.0000   0.0000   0.0000

          k =-0.2917 0.6188 0.0000 (  2443 PWs)   bands (ev):

   -14.9211 -13.7836 -11.8418  -2.3826  -1.6440   7.2064   8.4929  10.5228

     occupation numbers 
     1.0000   1.0000   1.0000   1.0295   0.0015   0.0000   0.0000   0.0000

          k =-0.2917 0.6726 0.0000 (  2443 PWs)   bands (ev):

   -14.9211 -13.7838 -11.8417  -2.3823  -1.6442   7.2064   8.4930  10.5227

     occupation numbers 
     1.0000   1.0000   1.0000   1.0292   0.0015   0.0000   0.0000   0.0000

          k =-0.2917 0.7265 0.0000 (  2425 PWs)   bands (ev):

   -15.4094 -13.6022 -11.3567  -3.0761  -0.9931   7.2813   8.6205   9.3740

     occupation numbers 
     1.0000   1.0000   1.0000   1.0001   0.0000   0.0000   0.0000   0.0000

          k =-0.2917 0.7803 0.0000 (  2436 PWs)   bands (ev):

   -16.0481 -13.3737 -10.6000  -3.7811  -0.3571   7.4271   8.2573   8.5432

     occupation numbers 
     1.0000   1.0000   1.0000   1.0000   0.0000   0.0000   0.0000   0.0000

          k =-0.2917-0.4574 0.0000 (  2438 PWs)   bands (ev):

   -16.6985 -13.0908  -9.7377  -4.4673   0.2615   7.2199   7.6432   7.8826

     occupation numbers 
     1.0000   1.0000   1.0000   1.0000   0.0000   0.0000   0.0000   0.0000

          k =-0.2917-0.4036 0.0000 (  2445 PWs)   bands (ev):

   -17.3123 -12.7397  -8.8661  -5.1152   0.8731   6.2954   7.0515   7.3753

     occupation numbers 
     1.0000   1.0000   1.0000   1.0000   0.0000   0.0000   0.0000   0.0000

          k =-0.2917-0.3498 0.0000 (  2431 PWs)   bands (ev):

   -17.8685 -12.3167  -8.0605  -5.7090   1.4874   5.4784   6.2695   6.5465

     occupation numbers 
     1.0000   1.0000   1.0000   1.0000   0.0000   0.0000   0.0000   0.0000

          k =-0.2917-0.2960 0.0000 (  2427 PWs)   bands (ev):

   -18.3561 -11.8241  -7.3989  -6.2361   2.1060   4.7742   5.5832   5.8333

     occupation numbers 
     1.0000   1.0000   1.0000   1.0000   0.0000   0.0000   0.0000   0.0000

          k =-0.2917-0.2422 0.0000 (  2431 PWs)   bands (ev):

   -18.7688 -11.2678  -6.9595  -6.6871   2.7208   4.1852   5.0068   5.2387

     occupation numbers 
     1.0000   1.0000   1.0000   1.0000   0.0000   0.0000   0.0000   0.0000

          k =-0.2917-0.1883 0.0000 (  2432 PWs)   bands (ev):

   -19.1025 -10.6581  -7.0552  -6.7981   3.3071   3.7133   4.5497   4.7641

     occupation numbers 
     1.0000   1.0000   1.0000   1.0000   0.0000   0.0000   0.0000   0.0000

          k =-0.2917-0.1345 0.0000 (  2439 PWs)   bands (ev):

   -19.3547 -10.0123  -7.3351  -6.9180   3.3594   3.7964   4.2462   4.4087

     occupation numbers 
     1.0000   1.0000   1.0000   1.0000   0.0000   0.0000   0.0000   0.0000

          k =-0.2917-0.0807 0.0000 (  2427 PWs)   bands (ev):

   -19.5237  -9.3633  -7.5235  -7.2576   3.1236   3.8768   4.1719   4.3556

     occupation numbers 
     1.0000   1.0000   1.0000   1.0000   0.0000   0.0000   0.0000   0.0000

          k =-0.2917-0.0269 0.0000 (  2421 PWs)   bands (ev):

   -19.6085  -8.8156  -7.6665  -7.6182   3.0057   3.7876   4.0536   4.5698

     occupation numbers 
     1.0000   1.0000   1.0000   1.0000   0.0000   0.0000   0.0000   0.0000

          k =-0.2917 0.0269 0.0000 (  2421 PWs)   bands (ev):

   -19.6085  -8.8154  -7.6668  -7.6182   3.0057   3.7876   4.0536   4.5699

     occupation numbers 
     1.0000   1.0000   1.0000   1.0000   0.0000   0.0000   0.0000   0.0000

          k =-0.2917 0.0807 0.0000 (  2427 PWs)   bands (ev):

   -19.5237  -9.3630  -7.5235  -7.2580   3.1236   3.8768   4.1719   4.3556

     occupation numbers 
     1.0000   1.0000   1.0000   1.0000   0.0000   0.0000   0.0000   0.0000

          k =-0.2917 0.1345 0.0000 (  2439 PWs)   bands (ev):

   -19.3547 -10.0119  -7.3352  -6.9184   3.3594   3.7965   4.2462   4.4087

     occupation numbers 
     1.0000   1.0000   1.0000   1.0000   0.0000   0.0000   0.0000   0.0000

          k =-0.2500 0.1614 0.0000 (  2427 PWs)   bands (ev):

   -19.5638  -9.6190  -7.5728  -6.5015   3.0668   3.7942   4.1133   4.4278

     occupation numbers 
     1.0000   1.0000   1.0000   1.0000   0.0000   0.0000   0.0000   0.0000

          k =-0.2500 0.2152 0.0000 (  2424 PWs)   bands (ev):

   -19.2678 -10.2467  -7.2386  -6.6623   3.4804   3.6946   4.3495   4.5296

     occupation numbers 
     1.0000   1.0000   1.0000   1.0000   0.0000   0.0000   0.0000   0.0000

          k =-0.2500 0.2691 0.0000 (  2436 PWs)   bands (ev):

   -18.8900 -10.8370  -7.0986  -6.8148   3.0993   4.0113   4.8278   5.0648

     occupation numbers 
     1.0000   1.0000   1.0000   1.0000   0.0000   0.0000   0.0000   0.0000

          k =-0.2500 0.3229 0.0000 (  2433 PWs)   bands (ev):

   -18.4327 -11.3774  -7.7577  -6.3060   2.4402   4.6582   5.4544   5.7179

     occupation numbers 
     1.0000   1.0000   1.0000   1.0000   0.0000   0.0000   0.0000   0.0000

          k =-0.2500 0.3767 0.0000 (  2440 PWs)   bands (ev):

   -17.8994 -11.8638  -8.5621  -5.7189   1.7594   5.4199   6.1928   6.4878

     occupation numbers 
     1.0000   1.0000   1.0000   1.0000   0.0000   0.0000   0.0000   0.0000

          k =-0.2500 0.4305 0.0000 (  2431 PWs)   bands (ev):

   -17.2954 -12.3008  -9.4300  -5.0627   1.0635   6.2938   6.7542   7.0221

     occupation numbers 
     1.0000   1.0000   1.0000   1.0000   0.0000   0.0000   0.0000   0.0000

          k =-0.2500 0.4843 0.0000 (  2432 PWs)   bands (ev):

   -16.6289 -12.7099 -10.2790  -4.3494   0.3490   6.5062   7.2808   7.8813

     occupation numbers 
     1.0000   1.0000   1.0000   1.0000   0.0000   0.0000   0.0000   0.0000

          k =-0.2500 0.5381 0.0000 (  2426 PWs)   bands (ev):

   -15.9144 -13.1415 -11.0070  -3.5958  -0.3863   6.3270   8.3672   8.5172

     occupation numbers 
     1.0000   1.0000   1.0000   1.0000   0.0000   0.0000   0.0000   0.0000

          k =-0.2500 0.5919 0.0000 (  2433 PWs)   bands (ev):

   -15.1848 -13.6614 -11.4924  -2.8314  -1.1314   6.2178   8.6347   9.5373

     occupation numbers 
     1.0000   1.0000   1.0000   1.0060   0.0000   0.0000   0.0000   0.0000

          k =-0.2500 0.6457 0.0000 (  2439 PWs)   bands (ev):

   -14.6631 -14.1110 -11.6577  -2.2753  -1.6796   6.1810   8.6077  10.6913

     occupation numbers 
     1.0000   1.0000   1.0000   0.8437   0.0028   0.0000   0.0000   0.0000

          k =-0.2500 0.6996 0.0000 (  2433 PWs)   bands (ev):

   -15.1848 -13.6615 -11.4923  -2.8312  -1.1316   6.2178   8.6348   9.5373

     occupation numbers 
     1.0000   1.0000   1.0000   1.0060   0.0000   0.0000   0.0000   0.0000

          k =-0.2500 0.7534 0.0000 (  2426 PWs)   bands (ev):

   -15.9144 -13.1417 -11.0068  -3.5957  -0.3865   6.3270   8.3672   8.5173

     occupation numbers 
     1.0000   1.0000   1.0000   1.0000   0.0000   0.0000   0.0000   0.0000

          k =-0.2500-0.4843 0.0000 (  2432 PWs)   bands (ev):

   -16.6290 -12.7102 -10.2787  -4.3493   0.3488   6.5062   7.2808   7.8814

     occupation numbers 
     1.0000   1.0000   1.0000   1.0000   0.0000   0.0000   0.0000   0.0000

          k =-0.2500-0.4305 0.0000 (  2431 PWs)   bands (ev):

   -17.2955 -12.3010  -9.4297  -5.0625   1.0632   6.2938   6.7542   7.0222

     occupation numbers 
     1.0000   1.0000   1.0000   1.0000   0.0000   0.0000   0.0000   0.0000

          k =-0.2500-0.3767 0.0000 (  2440 PWs)   bands (ev):

   -17.8995 -11.8640  -8.5617  -5.7188   1.7592   5.4199   6.1928   6.4878

     occupation numbers 
     1.0000   1.0000   1.0000   1.0000   0.0000   0.0000   0.0000   0.0000

          k =-0.2500-0.3229 0.0000 (  2433 PWs)   bands (ev):

   -18.4327 -11.3777  -7.7573  -6.3059   2.4399   4.6582   5.4544   5.7179

     occupation numbers 
     1.0000   1.0000   1.0000   1.0000   0.0000   0.0000   0.0000   0.0000

          k =-0.2500-0.2691 0.0000 (  2436 PWs)   bands (ev):

   -18.8900 -10.8373  -7.0982  -6.8147   3.0991   4.0112   4.8278   5.0648

     occupation numbers 
     1.0000   1.0000   1.0000   1.0000   0.0000   0.0000   0.0000   0.0000

          k =-0.2500-0.2152 0.0000 (  2424 PWs)   bands (ev):

   -19.2678 -10.2470  -7.2386  -6.6618   3.4804   3.6945   4.3494   4.5296

     occupation numbers 
     1.0000   1.0000   1.0000   1.0000   0.0000   0.0000   0.0000   0.0000

          k =-0.2500-0.1614 0.0000 (  2427 PWs)   bands (ev):

   -19.5638  -9.6193  -7.5728  -6.5009   3.0668   3.7942   4.1133   4.4277

     occupation numbers 
     1.0000   1.0000   1.0000   1.0000   0.0000   0.0000   0.0000   0.0000

          k =-0.2500-0.1076 0.0000 (  2419 PWs)   bands (ev):

   -19.7762  -8.9786  -7.8137  -6.6121   2.7712   3.5428   3.8161   4.8785

     occupation numbers 
     1.0000   1.0000   1.0000   1.0000   0.0000   0.0000   0.0000   0.0000

          k =-0.2500-0.0538 0.0000 (  2421 PWs)   bands (ev):

   -19.9041  -8.3799  -7.9591  -6.9170   2.5939   3.3751   3.6380   5.2160

     occupation numbers 
     1.0000   1.0000   1.0000   1.0000   0.0000   0.0000   0.0000   0.0000

          k =-0.2500 0.0000 0.0000 (  2411 PWs)   bands (ev):

   -19.9468  -8.0489  -8.0078  -7.1554   2.5348   3.3183   3.5786   5.3573

     occupation numbers 
     1.0000   1.0000   1.0000   1.0000   0.0000   0.0000   0.0000   0.0000

          k =-0.2500 0.0538 0.0000 (  2421 PWs)   bands (ev):

   -19.9041  -8.3796  -7.9591  -6.9174   2.5939   3.3751   3.6380   5.2158

     occupation numbers 
     1.0000   1.0000   1.0000   1.0000   0.0000   0.0000   0.0000   0.0000

          k =-0.2500 0.1076 0.0000 (  2419 PWs)   bands (ev):

   -19.7762  -8.9782  -7.8137  -6.6126   2.7712   3.5428   3.8161   4.8785

     occupation numbers 
     1.0000   1.0000   1.0000   1.0000   0.0000   0.0000   0.0000   0.0000

          k =-0.2083 0.1345 0.0000 (  2423 PWs)   bands (ev):

   -19.9584  -8.5842  -8.0230  -6.1786   2.5186   3.2925   3.5612   5.2644

     occupation numbers 
     1.0000   1.0000   1.0000   1.0000   0.0000   0.0000   0.0000   0.0000

          k =-0.2083 0.1883 0.0000 (  2429 PWs)   bands (ev):

   -19.7024  -9.2144  -7.7296  -6.3384   2.8735   3.6309   3.9183   4.7947

     occupation numbers 
     1.0000   1.0000   1.0000   1.0000   0.0000   0.0000   0.0000   0.0000

          k =-0.2083 0.2422 0.0000 (  2434 PWs)   bands (ev):

   -19.3629  -9.8286  -7.3422  -6.7679   3.3459   3.9394   4.3213   4.3940

     occupation numbers 
     1.0000   1.0000   1.0000   1.0000   0.0000   0.0000   0.0000   0.0000

          k =-0.2083 0.2960 0.0000 (  2440 PWs)   bands (ev):

   -18.9414 -10.4095  -7.4185  -6.8645   3.4053   3.9349   4.7422   4.9878

     occupation numbers 
     1.0000   1.0000   1.0000   1.0000   0.0000   0.0000   0.0000   0.0000

          k =-0.2083 0.3498 0.0000 (  2429 PWs)   bands (ev):

   -18.4403 -10.9524  -8.2123  -6.3016   2.6847   4.6398   5.4218   5.6987

     occupation numbers 
     1.0000   1.0000   1.0000   1.0000   0.0000   0.0000   0.0000   0.0000

          k =-0.2083 0.4036 0.0000 (  2424 PWs)   bands (ev):

   -17.8627 -11.4679  -9.0633  -5.6607   1.9250   5.4588   5.8364   6.2148

     occupation numbers 
     1.0000   1.0000   1.0000   1.0000   0.0000   0.0000   0.0000   0.0000

          k =-0.2083 0.4574 0.0000 (  2426 PWs)   bands (ev):

   -17.2131 -11.9892  -9.8775  -4.9525   1.1364   5.5611   6.3931   7.0949

     occupation numbers 
     1.0000   1.0000   1.0000   1.0000   0.0000   0.0000   0.0000   0.0000

          k =-0.2083 0.5112 0.0000 (  2426 PWs)   bands (ev):

   -16.4983 -12.5772 -10.5476  -4.1936   0.3270   5.3511   7.4345   7.9923

     occupation numbers 
     1.0000   1.0000   1.0000   1.0000   0.0000   0.0000   0.0000   0.0000

          k =-0.2083 0.5650 0.0000 (  2423 PWs)   bands (ev):

   -15.7290 -13.2786 -10.9907  -3.4168  -0.4785   5.2087   8.5768   8.6504

     occupation numbers 
     1.0000   1.0000   1.0000   1.0000   0.0000   0.0000   0.0000   0.0000

          k =-0.2083 0.6188 0.0000 (  2429 PWs)   bands (ev):

   -14.9304 -14.0599 -11.1993  -2.7441  -1.1646   5.1368   8.8341   9.7978

     occupation numbers 
     1.0000   1.0000   1.0000   1.0174   0.0000   0.0000   0.0000   0.0000

          k =-0.2083 0.6726 0.0000 (  2429 PWs)   bands (ev):

   -14.9304 -14.0600 -11.1992  -2.7440  -1.1647   5.1368   8.8342   9.7977

     occupation numbers 
     1.0000   1.0000   1.0000   1.0174   0.0000   0.0000   0.0000   0.0000

          k =-0.2083 0.7265 0.0000 (  2423 PWs)   bands (ev):

   -15.7290 -13.2787 -10.9906  -3.4167  -0.4787   5.2087   8.5768   8.6505

     occupation numbers 
     1.0000   1.0000   1.0000   1.0000   0.0000   0.0000   0.0000   0.0000

          k =-0.2083-0.5112 0.0000 (  2426 PWs)   bands (ev):

   -16.4984 -12.5774 -10.5474  -4.1935   0.3268   5.3511   7.4345   7.9923

     occupation numbers 
     1.0000   1.0000   1.0000   1.0000   0.0000   0.0000   0.0000   0.0000

          k =-0.2083-0.4574 0.0000 (  2426 PWs)   bands (ev):

   -17.2132 -11.9894  -9.8772  -4.9524   1.1362   5.5611   6.3931   7.0948

     occupation numbers 
     1.0000   1.0000   1.0000   1.0000   0.0000   0.0000   0.0000   0.0000

          k =-0.2083-0.4036 0.0000 (  2424 PWs)   bands (ev):

   -17.8627 -11.4682  -9.0629  -5.6606   1.9247   5.4588   5.8364   6.2149

     occupation numbers 
     1.0000   1.0000   1.0000   1.0000   0.0000   0.0000   0.0000   0.0000

          k =-0.2083-0.3498 0.0000 (  2429 PWs)   bands (ev):

   -18.4403 -10.9527  -8.2119  -6.3015   2.6845   4.6398   5.4218   5.6987

     occupation numbers 
     1.0000   1.0000   1.0000   1.0000   0.0000   0.0000   0.0000   0.0000

          k =-0.2083-0.2960 0.0000 (  2440 PWs)   bands (ev):

   -18.9415 -10.4098  -7.4180  -6.8644   3.4051   3.9349   4.7422   4.9878

     occupation numbers 
     1.0000   1.0000   1.0000   1.0000   0.0000   0.0000   0.0000   0.0000

          k =-0.2083-0.2422 0.0000 (  2434 PWs)   bands (ev):

   -19.3629  -9.8290  -7.3421  -6.7673   3.3459   3.9394   4.3211   4.3940

     occupation numbers 
     1.0000   1.0000   1.0000   1.0000   0.0000   0.0000   0.0000   0.0000

          k =-0.2083-0.1883 0.0000 (  2429 PWs)   bands (ev):

   -19.7024  -9.2148  -7.7296  -6.3379   2.8735   3.6309   3.9183   4.7946

     occupation numbers 
     1.0000   1.0000   1.0000   1.0000   0.0000   0.0000   0.0000   0.0000

          k =-0.2083-0.1345 0.0000 (  2423 PWs)   bands (ev):

   -19.9584  -8.5846  -8.0230  -6.1781   2.5186   3.2926   3.5612   5.2643

     occupation numbers 
     1.0000   1.0000   1.0000   1.0000   0.0000   0.0000   0.0000   0.0000

          k =-0.2083-0.0807 0.0000 (  2426 PWs)   bands (ev):

   -20.1296  -8.2200  -7.9748  -6.2763   2.2818   3.0616   3.3232   5.2622

     occupation numbers 
     1.0000   1.0000   1.0000   1.0000   0.0000   0.0000   0.0000   0.0000

          k =-0.2083-0.0269 0.0000 (  2405 PWs)   bands (ev):

   -20.2153  -8.3188  -7.4875  -6.5173   2.1633   2.9453   3.2042   5.1679

     occupation numbers 
     1.0000   1.0000   1.0000   1.0000   0.0000   0.0000   0.0000   0.0000

          k =-0.2083 0.0269 0.0000 (  2405 PWs)   bands (ev):

   -20.2153  -8.3188  -7.4872  -6.5176   2.1633   2.9453   3.2042   5.1679

     occupation numbers 
     1.0000   1.0000   1.0000   1.0000   0.0000   0.0000   0.0000   0.0000

          k =-0.2083 0.0807 0.0000 (  2426 PWs)   bands (ev):

   -20.1296  -8.2200  -7.9744  -6.2768   2.2818   3.0616   3.3232   5.2622

     occupation numbers 
     1.0000   1.0000   1.0000   1.0000   0.0000   0.0000   0.0000   0.0000

          k =-0.1667 0.1076 0.0000 (  2420 PWs)   bands (ev):

   -20.2836  -8.3983  -7.5886  -5.8476   2.0696   2.8476   3.1093   5.0649

     occupation numbers 
     1.0000   1.0000   1.0000   1.0000   0.0000   0.0000   0.0000   0.0000

          k =-0.1667 0.1614 0.0000 (  2426 PWs)   bands (ev):

   -20.0691  -8.1990  -8.1497  -6.0072   2.3655   3.1397   3.4069   5.3058

     occupation numbers 
     1.0000   1.0000   1.0000   1.0000   0.0000   0.0000   0.0000   0.0000

          k =-0.1667 0.2152 0.0000 (  2422 PWs)   bands (ev):

   -19.7698  -8.8232  -7.8043  -6.4268   2.7791   3.5448   3.8231   5.0825

     occupation numbers 
     1.0000   1.0000   1.0000   1.0000   0.0000   0.0000   0.0000   0.0000

          k =-0.1667 0.2691 0.0000 (  2428 PWs)   bands (ev):

   -19.3870  -9.4364  -7.3648  -7.0622   3.3098   4.0222   4.3574   4.4488

     occupation numbers 
     1.0000   1.0000   1.0000   1.0000   0.0000   0.0000   0.0000   0.0000

          k =-0.1667 0.3229 0.0000 (  2434 PWs)   bands (ev):

   -18.9224 -10.0329  -7.8353  -6.8356   3.5968   3.9570   4.7492   5.0088

     occupation numbers 
     1.0000   1.0000   1.0000   1.0000   0.0000   0.0000   0.0000   0.0000

          k =-0.1667 0.3767 0.0000 (  2416 PWs)   bands (ev):

   -18.3781 -10.6283  -8.6532  -6.2223   2.7928   4.7189   4.9923   5.4890

     occupation numbers 
     1.0000   1.0000   1.0000   1.0000   0.0000   0.0000   0.0000   0.0000

          k =-0.1667 0.4305 0.0000 (  2414 PWs)   bands (ev):

   -17.7573 -11.2666  -9.4108  -5.5342   1.9425   4.6866   5.5989   6.3403

     occupation numbers 
     1.0000   1.0000   1.0000   1.0000   0.0000   0.0000   0.0000   0.0000

          k =-0.1667 0.4843 0.0000 (  2406 PWs)   bands (ev):

   -17.0641 -12.0009 -10.0089  -4.7857   1.0656   4.4444   6.5889   7.2763

     occupation numbers 
     1.0000   1.0000   1.0000   1.0000   0.0000   0.0000   0.0000   0.0000

          k =-0.1667 0.5381 0.0000 (  2425 PWs)   bands (ev):

   -16.3042 -12.8359 -10.4084  -4.0050   0.1911   4.2681   7.6871   8.2277

     occupation numbers 
     1.0000   1.0000   1.0000   1.0000   0.0000   0.0000   0.0000   0.0000

          k =-0.1667 0.5919 0.0000 (  2425 PWs)   bands (ev):

   -15.4860 -13.7236 -10.6302  -3.2698  -0.6016   4.1614   8.8838   8.9447

     occupation numbers 
     1.0000   1.0000   1.0000   1.0000   0.0000   0.0000   0.0000   0.0000

          k =-0.1667 0.6457 0.0000 (  2431 PWs)   bands (ev):

   -14.6754 -14.5617 -10.7010  -2.8855  -1.0056   4.1256   9.1523  10.1389

     occupation numbers 
     1.0000   1.0000   1.0000   1.0027   0.0000   0.0000   0.0000   0.0000

          k =-0.1667 0.6996 0.0000 (  2425 PWs)   bands (ev):

   -15.4860 -13.7236 -10.6301  -3.2698  -0.6017   4.1614   8.8838   8.9448

     occupation numbers 
     1.0000   1.0000   1.0000   1.0000   0.0000   0.0000   0.0000   0.0000

          k =-0.1667-0.5381 0.0000 (  2425 PWs)   bands (ev):

   -16.3042 -12.8360 -10.4083  -4.0049   0.1910   4.2681   7.6870   8.2277

     occupation numbers 
     1.0000   1.0000   1.0000   1.0000   0.0000   0.0000   0.0000   0.0000

          k =-0.1667-0.4843 0.0000 (  2406 PWs)   bands (ev):

   -17.0641 -12.0011 -10.0086  -4.7856   1.0654   4.4445   6.5889   7.2763

     occupation numbers 
     1.0000   1.0000   1.0000   1.0000   0.0000   0.0000   0.0000   0.0000

          k =-0.1667-0.4305 0.0000 (  2414 PWs)   bands (ev):

   -17.7574 -11.2669  -9.4105  -5.5342   1.9423   4.6866   5.5989   6.3403

     occupation numbers 
     1.0000   1.0000   1.0000   1.0000   0.0000   0.0000   0.0000   0.0000

          k =-0.1667-0.3767 0.0000 (  2416 PWs)   bands (ev):

   -18.3782 -10.6286  -8.6528  -6.2223   2.7927   4.7189   4.9924   5.4890

     occupation numbers 
     1.0000   1.0000   1.0000   1.0000   0.0000   0.0000   0.0000   0.0000

          k =-0.1667-0.3229 0.0000 (  2434 PWs)   bands (ev):

   -18.9224 -10.0332  -7.8348  -6.8355   3.5966   3.9570   4.7492   5.0088

     occupation numbers 
     1.0000   1.0000   1.0000   1.0000   0.0000   0.0000   0.0000   0.0000

          k =-0.1667-0.2691 0.0000 (  2428 PWs)   bands (ev):

   -19.3870  -9.4368  -7.3648  -7.0617   3.3098   4.0222   4.3574   4.4486

     occupation numbers 
     1.0000   1.0000   1.0000   1.0000   0.0000   0.0000   0.0000   0.0000

          k =-0.1667-0.2152 0.0000 (  2422 PWs)   bands (ev):

   -19.7698  -8.8236  -7.8043  -6.4262   2.7791   3.5448   3.8231   5.0824

     occupation numbers 
     1.0000   1.0000   1.0000   1.0000   0.0000   0.0000   0.0000   0.0000

          k =-0.1667-0.1614 0.0000 (  2426 PWs)   bands (ev):

   -20.0691  -8.1995  -8.1497  -6.0066   2.3655   3.1397   3.4069   5.3058

     occupation numbers 
     1.0000   1.0000   1.0000   1.0000   0.0000   0.0000   0.0000   0.0000

          k =-0.1667-0.1076 0.0000 (  2420 PWs)   bands (ev):

   -20.2836  -8.3983  -7.5890  -5.8470   2.0696   2.8476   3.1093   5.0649

     occupation numbers 
     1.0000   1.0000   1.0000   1.0000   0.0000   0.0000   0.0000   0.0000

          k =-0.1667-0.0538 0.0000 (  2412 PWs)   bands (ev):

   -20.4127  -8.5481  -7.0508  -5.9226   1.8919   2.6718   2.9306   4.8999

     occupation numbers 
     1.0000   1.0000   1.0000   1.0000   0.0000   0.0000   0.0000   0.0000

          k =-0.1667-0.0000 0.0000 (  2415 PWs)   bands (ev):

   -20.4558  -8.5982  -6.7758  -6.0450   1.8326   2.6131   2.8710   4.8439

     occupation numbers 
     1.0000   1.0000   1.0000   1.0000   0.0000   0.0000   0.0000   0.0000

          k =-0.1667 0.0538 0.0000 (  2412 PWs)   bands (ev):

   -20.4127  -8.5481  -7.0504  -5.9231   1.8919   2.6718   2.9306   4.8999

     occupation numbers 
     1.0000   1.0000   1.0000   1.0000   0.0000   0.0000   0.0000   0.0000

          k =-0.1250 0.0807 0.0000 (  2424 PWs)   bands (ev):

   -20.5380  -8.6939  -6.6846  -5.5295   1.7204   2.4982   2.7578   4.7299

     occupation numbers 
     1.0000   1.0000   1.0000   1.0000   0.0000   0.0000   0.0000   0.0000

          k =-0.1250 0.1345 0.0000 (  2422 PWs)   bands (ev):

   -20.3656  -8.4927  -7.2395  -5.6928   1.9572   2.7336   2.9958   4.9569

     occupation numbers 
     1.0000   1.0000   1.0000   1.0000   0.0000   0.0000   0.0000   0.0000

          k =-0.1250 0.1883 0.0000 (  2418 PWs)   bands (ev):

   -20.1078  -8.1928  -7.8521  -6.1012   2.3117   3.0859   3.3524   5.2836

     occupation numbers 
     1.0000   1.0000   1.0000   1.0000   0.0000   0.0000   0.0000   0.0000

          k =-0.1250 0.2422 0.0000 (  2426 PWs)   bands (ev):

   -19.7654  -8.4845  -7.7963  -6.7161   2.7837   3.5535   3.8273   5.0893

     occupation numbers 
     1.0000   1.0000   1.0000   1.0000   0.0000   0.0000   0.0000   0.0000

          k =-0.1250 0.2960 0.0000 (  2417 PWs)   bands (ev):

   -19.3397  -9.1286  -7.4583  -7.3064   3.3726   4.1154   4.4184   4.5171

     occupation numbers 
     1.0000   1.0000   1.0000   1.0000   0.0000   0.0000   0.0000   0.0000

          k =-0.1250 0.3498 0.0000 (  2411 PWs)   bands (ev):

   -18.8325  -9.8066  -8.2269  -6.7282   3.6275   4.0756   4.2898   4.8553

     occupation numbers 
     1.0000   1.0000   1.0000   1.0000   0.0000   0.0000   0.0000   0.0000

          k =-0.1250 0.4036 0.0000 (  2413 PWs)   bands (ev):

   -18.2459 -10.5648  -8.9123  -6.0691   2.7305   3.9506   4.9009   5.6602

     occupation numbers 
     1.0000   1.0000   1.0000   1.0000   0.0000   0.0000   0.0000   0.0000

          k =-0.1250 0.4574 0.0000 (  2408 PWs)   bands (ev):

   -17.5831 -11.4275  -9.4423  -5.3411   1.7963   3.6747   5.8362   6.5718

     occupation numbers 
     1.0000   1.0000   1.0000   1.0000   0.0000   0.0000   0.0000   0.0000

          k =-0.1250 0.5112 0.0000 (  2407 PWs)   bands (ev):

   -16.8479 -12.3631  -9.8130  -4.5662   0.8569   3.4637   6.8834   7.5677

     occupation numbers 
     1.0000   1.0000   1.0000   1.0000   0.0000   0.0000   0.0000   0.0000

          k =-0.1250 0.5650 0.0000 (  2425 PWs)   bands (ev):

   -16.0455 -13.3229 -10.0471  -3.7967  -0.0282   3.3214   8.0374   8.5828

     occupation numbers 
     1.0000   1.0000   1.0000   1.0000   0.0000   0.0000   0.0000   0.0000

          k =-0.1250 0.6188 0.0000 (  2423 PWs)   bands (ev):

   -15.1832 -14.2704 -10.1607  -3.2000  -0.6845   3.2498   9.2870   9.3508

     occupation numbers 
     1.0000   1.0000   1.0000   1.0000   0.0000   0.0000   0.0000   0.0000

          k =-0.1250 0.6726 0.0000 (  2423 PWs)   bands (ev):

   -15.1832 -14.2704 -10.1607  -3.2000  -0.6846   3.2498   9.2870   9.3508

     occupation numbers 
     1.0000   1.0000   1.0000   1.0000   0.0000   0.0000   0.0000   0.0000

          k =-0.1250-0.5650 0.0000 (  2425 PWs)   bands (ev):

   -16.0455 -13.3229 -10.0470  -3.7966  -0.0283   3.3214   8.0374   8.5828

     occupation numbers 
     1.0000   1.0000   1.0000   1.0000   0.0000   0.0000   0.0000   0.0000

          k =-0.1250-0.5112 0.0000 (  2407 PWs)   bands (ev):

   -16.8479 -12.3632  -9.8129  -4.5661   0.8568   3.4637   6.8834   7.5677

     occupation numbers 
     1.0000   1.0000   1.0000   1.0000   0.0000   0.0000   0.0000   0.0000

          k =-0.1250-0.4574 0.0000 (  2408 PWs)   bands (ev):

   -17.5831 -11.4276  -9.4421  -5.3410   1.7962   3.6748   5.8362   6.5720

     occupation numbers 
     1.0000   1.0000   1.0000   1.0000   0.0000   0.0000   0.0000   0.0000

          k =-0.1250-0.4036 0.0000 (  2413 PWs)   bands (ev):

   -18.2460 -10.5651  -8.9120  -6.0690   2.7303   3.9507   4.9009   5.6602

     occupation numbers 
     1.0000   1.0000   1.0000   1.0000   0.0000   0.0000   0.0000   0.0000

          k =-0.1250-0.3498 0.0000 (  2411 PWs)   bands (ev):

   -18.8325  -9.8070  -8.2265  -6.7282   3.6274   4.0756   4.2899   4.8554

     occupation numbers 
     1.0000   1.0000   1.0000   1.0000   0.0000   0.0000   0.0000   0.0000

          k =-0.1250-0.2960 0.0000 (  2417 PWs)   bands (ev):

   -19.3397  -9.1290  -7.4578  -7.3063   3.3726   4.1154   4.4184   4.5169

     occupation numbers 
     1.0000   1.0000   1.0000   1.0000   0.0000   0.0000   0.0000   0.0000

          k =-0.1250-0.2422 0.0000 (  2426 PWs)   bands (ev):

   -19.7654  -8.4849  -7.7963  -6.7156   2.7837   3.5535   3.8273   5.0893

     occupation numbers 
     1.0000   1.0000   1.0000   1.0000   0.0000   0.0000   0.0000   0.0000

          k =-0.1250-0.1883 0.0000 (  2418 PWs)   bands (ev):

   -20.1078  -8.1928  -7.8526  -6.1006   2.3117   3.0860   3.3524   5.2833

     occupation numbers 
     1.0000   1.0000   1.0000   1.0000   0.0000   0.0000   0.0000   0.0000

          k =-0.1250-0.1345 0.0000 (  2422 PWs)   bands (ev):

   -20.3656  -8.4927  -7.2400  -5.6922   1.9572   2.7336   2.9958   4.9569

     occupation numbers 
     1.0000   1.0000   1.0000   1.0000   0.0000   0.0000   0.0000   0.0000

          k =-0.1250-0.0807 0.0000 (  2424 PWs)   bands (ev):

   -20.5380  -8.6938  -6.6851  -5.5290   1.7204   2.4982   2.7578   4.7299

     occupation numbers 
     1.0000   1.0000   1.0000   1.0000   0.0000   0.0000   0.0000   0.0000

          k =-0.1250-0.0269 0.0000 (  2415 PWs)   bands (ev):

   -20.6243  -8.7947  -6.2834  -5.5626   1.6019   2.3804   2.6387   4.6155

     occupation numbers 
     1.0000   1.0000   1.0000   1.0000   0.0000   0.0000   0.0000   0.0000

          k =-0.1250 0.0269 0.0000 (  2415 PWs)   bands (ev):

   -20.6243  -8.7947  -6.2831  -5.5630   1.6019   2.3804   2.6387   4.6155

     occupation numbers 
     1.0000   1.0000   1.0000   1.0000   0.0000   0.0000   0.0000   0.0000

          k =-0.0833 0.0538 0.0000 (  2419 PWs)   bands (ev):

   -20.7203  -8.9068  -5.9515  -5.2452   1.4713   2.2478   2.5071   4.4852

     occupation numbers 
     1.0000   1.0000   1.0000   1.0000   0.0000   0.0000   0.0000   0.0000

          k =-0.0833 0.1076 0.0000 (  2429 PWs)   bands (ev):

   -20.5907  -8.7548  -6.3952  -5.4221   1.6487   2.4248   2.6854   4.6583

     occupation numbers 
     1.0000   1.0000   1.0000   1.0000   0.0000   0.0000   0.0000   0.0000

          k =-0.0833 0.1614 0.0000 (  2435 PWs)   bands (ev):

   -20.3751  -8.5027  -6.9590  -5.8230   1.9441   2.7196   2.9824   4.9454

     occupation numbers 
     1.0000   1.0000   1.0000   1.0000   0.0000   0.0000   0.0000   0.0000

          k =-0.0833 0.2152 0.0000 (  2431 PWs)   bands (ev):

   -20.0741  -8.1520  -7.5863  -6.4162   2.3571   3.1317   3.3977   4.6270

     occupation numbers 
     1.0000   1.0000   1.0000   1.0000   0.0000   0.0000   0.0000   0.0000

          k =-0.0833 0.2691 0.0000 (  2423 PWs)   bands (ev):

   -19.6890  -8.2647  -7.7056  -7.1210   2.8873   3.6598   3.9289   4.1998

     occupation numbers 
     1.0000   1.0000   1.0000   1.0000   0.0000   0.0000   0.0000   0.0000

          k =-0.0833 0.3229 0.0000 (  2416 PWs)   bands (ev):

   -19.2209  -9.0219  -7.8271  -7.1673   3.5317   3.7878   4.2752   4.4360

     occupation numbers 
     1.0000   1.0000   1.0000   1.0000   0.0000   0.0000   0.0000   0.0000

          k =-0.0833 0.3767 0.0000 (  2410 PWs)   bands (ev):

   -18.6718  -9.8909  -8.4355  -6.5434   3.4160   3.4705   4.3008   5.0685

     occupation numbers 
     1.0000   1.0000   1.0000   1.0000   0.0000   0.0000   0.0000   0.0000

          k =-0.0833 0.4305 0.0000 (  2418 PWs)   bands (ev):

   -18.0440 -10.8535  -8.9137  -5.8435   2.4960   3.1058   5.1795   5.9359

     occupation numbers 
     1.0000   1.0000   1.0000   1.0000   0.0000   0.0000   0.0000   0.0000

          k =-0.0833 0.4843 0.0000 (  2406 PWs)   bands (ev):

   -17.3404 -11.8614  -9.2724  -5.0844   1.5053   2.8592   6.1724   6.9071

     occupation numbers 
     1.0000   1.0000   1.0000   1.0000   0.0000   0.0000   0.0000   0.0000

          k =-0.0833 0.5381 0.0000 (  2401 PWs)   bands (ev):

   -16.5651 -12.8749  -9.5234  -4.3020   0.5464   2.6808   7.2761   7.9624

     occupation numbers 
     1.0000   1.0000   1.0000   1.0000   0.0000   0.0000   0.0000   0.0000

          k =-0.0833 0.5919 0.0000 (  2420 PWs)   bands (ev):

   -15.7230 -13.8672  -9.6727  -3.5940  -0.2724   2.5729   8.4844   9.0356

     occupation numbers 
     1.0000   1.0000   1.0000   1.0000   0.0000   0.0000   0.0000   0.0000

          k =-0.0833 0.6457 0.0000 (  2418 PWs)   bands (ev):

   -14.8329 -14.8086  -9.7222  -3.2545  -0.6496   2.5368   9.7074   9.7759

     occupation numbers 
     1.0000   1.0000   1.0000   1.0000   0.0000   0.0000   0.0000   0.0000

          k =-0.0833-0.5919 0.0000 (  2420 PWs)   bands (ev):

   -15.7230 -13.8672  -9.6726  -3.5940  -0.2725   2.5729   8.4844   9.0356

     occupation numbers 
     1.0000   1.0000   1.0000   1.0000   0.0000   0.0000   0.0000   0.0000

          k =-0.0833-0.5381 0.0000 (  2401 PWs)   bands (ev):

   -16.5651 -12.8750  -9.5233  -4.3020   0.5464   2.6808   7.2761   7.9624

     occupation numbers 
     1.0000   1.0000   1.0000   1.0000   0.0000   0.0000   0.0000   0.0000

          k =-0.0833-0.4843 0.0000 (  2406 PWs)   bands (ev):

   -17.3404 -11.8615  -9.2724  -5.0844   1.5052   2.8592   6.1724   6.9071

     occupation numbers 
     1.0000   1.0000   1.0000   1.0000   0.0000   0.0000   0.0000   0.0000

          k =-0.0833-0.4305 0.0000 (  2418 PWs)   bands (ev):

   -18.0440 -10.8536  -8.9136  -5.8435   2.4959   3.1058   5.1795   5.9360

     occupation numbers 
     1.0000   1.0000   1.0000   1.0000   0.0000   0.0000   0.0000   0.0000

          k =-0.0833-0.3767 0.0000 (  2410 PWs)   bands (ev):

   -18.6718  -9.8911  -8.4353  -6.5433   3.4161   3.4704   4.3008   5.0685

     occupation numbers 
     1.0000   1.0000   1.0000   1.0000   0.0000   0.0000   0.0000   0.0000

          k =-0.0833-0.3229 0.0000 (  2416 PWs)   bands (ev):

   -19.2209  -9.0223  -7.8267  -7.1673   3.5317   3.7878   4.2752   4.4359

     occupation numbers 
     1.0000   1.0000   1.0000   1.0000   0.0000   0.0000   0.0000   0.0000

          k =-0.0833-0.2691 0.0000 (  2423 PWs)   bands (ev):

   -19.6890  -8.2651  -7.7056  -7.1204   2.8873   3.6598   3.9289   4.1998

     occupation numbers 
     1.0000   1.0000   1.0000   1.0000   0.0000   0.0000   0.0000   0.0000

          k =-0.0833-0.2152 0.0000 (  2431 PWs)   bands (ev):

   -20.0742  -8.1520  -7.5868  -6.4156   2.3571   3.1317   3.3977   4.6270

     occupation numbers 
     1.0000   1.0000   1.0000   1.0000   0.0000   0.0000   0.0000   0.0000

          k =-0.0833-0.1614 0.0000 (  2435 PWs)   bands (ev):

   -20.3751  -8.5027  -6.9596  -5.8223   1.9441   2.7196   2.9824   5.0402

     occupation numbers 
     1.0000   1.0000   1.0000   1.0000   0.0000   0.0000   0.0000   0.0000

          k =-0.0833-0.1076 0.0000 (  2429 PWs)   bands (ev):

   -20.5907  -8.7548  -6.3958  -5.4215   1.6487   2.4248   2.6854   4.6583

     occupation numbers 
     1.0000   1.0000   1.0000   1.0000   0.0000   0.0000   0.0000   0.0000

          k =-0.0833-0.0538 0.0000 (  2419 PWs)   bands (ev):

   -20.7203  -8.9068  -5.9520  -5.2447   1.4713   2.2478   2.5071   4.4852

     occupation numbers 
     1.0000   1.0000   1.0000   1.0000   0.0000   0.0000   0.0000   0.0000

          k =-0.0833 0.0000 0.0000 (  2415 PWs)   bands (ev):

   -20.7636  -8.9575  -5.7601  -5.2225   1.4121   2.1887   2.4476   4.4273

     occupation numbers 
     1.0000   1.0000   1.0000   1.0000   0.0000   0.0000   0.0000   0.0000

          k =-0.0417 0.0269 0.0000 (  2425 PWs)   bands (ev):

   -20.8299  -9.0351  -5.4936  -5.0139   1.3221   2.0973   2.3569   4.3375

     occupation numbers 
     1.0000   1.0000   1.0000   1.0000   0.0000   0.0000   0.0000   0.0000

          k =-0.0417 0.0807 0.0000 (  2432 PWs)   bands (ev):

   -20.7434  -8.9334  -5.7603  -5.2088   1.4402   2.2155   2.4756   4.4534

     occupation numbers 
     1.0000   1.0000   1.0000   1.0000   0.0000   0.0000   0.0000   0.0000

          k =-0.0417 0.1345 0.0000 (  2434 PWs)   bands (ev):

   -20.5705  -8.7306  -6.2135  -5.6146   1.6763   2.4517   2.7130   4.7998

     occupation numbers 
     1.0000   1.0000   1.0000   1.0000   0.0000   0.0000   0.0000   0.0000

          k =-0.0417 0.1883 0.0000 (  2436 PWs)   bands (ev):

   -20.3118  -8.4279  -6.7860  -6.1992   2.0302   2.8057   3.0688   4.4068

     occupation numbers 
     1.0000   1.0000   1.0000   1.0000   0.0000   0.0000   0.0000   0.0000

          k =-0.0417 0.2422 0.0000 (  2420 PWs)   bands (ev):

   -19.9682  -8.0276  -7.4670  -6.8707   2.5017   3.2770   3.5417   3.9754

     occupation numbers 
     1.0000   1.0000   1.0000   1.0000   0.0000   0.0000   0.0000   0.0000

          k =-0.0417 0.2960 0.0000 (  2421 PWs)   bands (ev):

   -19.5407  -8.2939  -7.5330  -7.5032   3.0889   3.5429   3.8645   4.1394

     occupation numbers 
     1.0000   1.0000   1.0000   1.0000   0.0000   0.0000   0.0000   0.0000

          k =-0.0417 0.3498 0.0000 (  2414 PWs)   bands (ev):

   -19.0310  -9.2512  -8.0409  -6.9488   3.1435   3.7996   4.1298   4.5719

     occupation numbers 
     1.0000   1.0000   1.0000   1.0000   0.0000   0.0000   0.0000   0.0000

          k =-0.0417 0.4036 0.0000 (  2413 PWs)   bands (ev):

   -18.4408 -10.2796  -8.4889  -6.2830   2.8008   3.1401   4.6205   5.3863

     occupation numbers 
     1.0000   1.0000   1.0000   1.0000   0.0000   0.0000   0.0000   0.0000

          k =-0.0417 0.4574 0.0000 (  2412 PWs)   bands (ev):

   -17.7729 -11.3341  -8.8505  -5.5485   2.1198   2.5188   5.5572   6.3123

     occupation numbers 
     1.0000   1.0000   1.0000   1.0000   0.0000   0.0000   0.0000   0.0000

          k =-0.0417 0.5112 0.0000 (  2406 PWs)   bands (ev):

   -17.0303 -12.3852  -9.1246  -4.7700   1.1105   2.3042   6.6069   7.3397

     occupation numbers 
     1.0000   1.0000   1.0000   1.0000   0.0000   0.0000   0.0000   0.0000

          k =-0.0417 0.5650 0.0000 (  2408 PWs)   bands (ev):

   -16.2171 -13.4122  -9.3089  -4.0076   0.1855   2.1598   7.7657   8.4476

     occupation numbers 
     1.0000   1.0000   1.0000   1.0000   0.0000   0.0000   0.0000   0.0000

          k =-0.0417 0.6188 0.0000 (  2410 PWs)   bands (ev):

   -15.3388 -14.3998  -9.4014  -3.4382  -0.4678   2.0874   9.0259   9.5415

     occupation numbers 
     1.0000   1.0000   1.0000   1.0000   0.0000   0.0000   0.0000   0.0000

          k =-0.0417-0.6188 0.0000 (  2410 PWs)   bands (ev):

   -15.3388 -14.3998  -9.4014  -3.4382  -0.4678   2.0874   9.0259   9.5415

     occupation numbers 
     1.0000   1.0000   1.0000   1.0000   0.0000   0.0000   0.0000   0.0000

          k =-0.0417-0.5650 0.0000 (  2408 PWs)   bands (ev):

   -16.2172 -13.4123  -9.3089  -4.0075   0.1855   2.1599   7.7657   8.4476

     occupation numbers 
     1.0000   1.0000   1.0000   1.0000   0.0000   0.0000   0.0000   0.0000

          k =-0.0417-0.5112 0.0000 (  2406 PWs)   bands (ev):

   -17.0303 -12.3852  -9.1246  -4.7700   1.1104   2.3042   6.6069   7.3399

     occupation numbers 
     1.0000   1.0000   1.0000   1.0000   0.0000   0.0000   0.0000   0.0000

          k =-0.0417-0.4574 0.0000 (  2412 PWs)   bands (ev):

   -17.7729 -11.3341  -8.8504  -5.5484   2.1198   2.5188   5.5572   6.3123

     occupation numbers 
     1.0000   1.0000   1.0000   1.0000   0.0000   0.0000   0.0000   0.0000

          k =-0.0417-0.4036 0.0000 (  2413 PWs)   bands (ev):

   -18.4409 -10.2797  -8.4888  -6.2830   2.8008   3.1401   4.6205   5.3863

     occupation numbers 
     1.0000   1.0000   1.0000   1.0000   0.0000   0.0000   0.0000   0.0000

          k =-0.0417-0.3498 0.0000 (  2414 PWs)   bands (ev):

   -19.0310  -9.2514  -8.0407  -6.9488   3.1435   3.7996   4.1297   4.5719

     occupation numbers 
     1.0000   1.0000   1.0000   1.0000   0.0000   0.0000   0.0000   0.0000

          k =-0.0417-0.2960 0.0000 (  2421 PWs)   bands (ev):

   -19.5407  -8.2942  -7.5330  -7.5028   3.0889   3.5429   3.8645   4.1394

     occupation numbers 
     1.0000   1.0000   1.0000   1.0000   0.0000   0.0000   0.0000   0.0000

          k =-0.0417-0.2422 0.0000 (  2420 PWs)   bands (ev):

   -19.9682  -8.0276  -7.4675  -6.8701   2.5017   3.2770   3.5417   3.9754

     occupation numbers 
     1.0000   1.0000   1.0000   1.0000   0.0000   0.0000   0.0000   0.0000

          k =-0.0417-0.1883 0.0000 (  2436 PWs)   bands (ev):

   -20.3118  -8.4279  -6.7866  -6.1986   2.0302   2.8057   3.0688   4.4068

     occupation numbers 
     1.0000   1.0000   1.0000   1.0000   0.0000   0.0000   0.0000   0.0000

          k =-0.0417-0.1345 0.0000 (  2434 PWs)   bands (ev):

   -20.5705  -8.7306  -6.2141  -5.6140   1.6763   2.4517   2.7130   4.7997

     occupation numbers 
     1.0000   1.0000   1.0000   1.0000   0.0000   0.0000   0.0000   0.0000

          k =-0.0417-0.0807 0.0000 (  2432 PWs)   bands (ev):

   -20.7434  -8.9334  -5.7607  -5.2084   1.4402   2.2155   2.4756   4.4534

     occupation numbers 
     1.0000   1.0000   1.0000   1.0000   0.0000   0.0000   0.0000   0.0000

          k =-0.0417-0.0269 0.0000 (  2425 PWs)   bands (ev):

   -20.8299  -9.0351  -5.4938  -5.0137   1.3221   2.0973   2.3569   4.3375

     occupation numbers 
     1.0000   1.0000   1.0000   1.0000   0.0000   0.0000   0.0000   0.0000

     the Fermi energy is    -2.1080 ev

!    total energy              =     -36.85709083 Ry
     total all-electron energy =      -152.385285 Ry
     estimated scf accuracy    <          9.7E-10 Ry
     smearing contrib. (-TS)   =       0.00005707 Ry
     internal energy E=F+TS    =     -36.85714790 Ry

     The total energy is F=E-TS. E is the sum of the following terms:
     one-electron contribution =    -146.83377332 Ry
     hartree contribution      =      74.95349895 Ry
     xc contribution           =      -9.13313022 Ry
     ewald contribution        =      56.48475640 Ry
     one-center paw contrib.   =     -12.32849971 Ry
      -> PAW hartree energy AE =       8.66683766 Ry
      -> PAW hartree energy PS =      -8.65862363 Ry
      -> PAW xc energy AE      =     -10.47205001 Ry
      -> PAW xc energy PS      =       4.29958649 Ry
      -> total E_H with PAW    =      74.96171298 Ry
      -> total E_XC with PAW   =     -15.30559374 Ry

     convergence has been achieved in   5 iterations

     negative rho (up, down):  2.063E-03 0.000E+00

     Forces acting on atoms (cartesian axes, Ry/au):

     atom    1 type  1   force =     0.00009424   -0.00025451    0.00000005
     atom    2 type  1   force =    -0.00009424    0.00025451   -0.00000005
     The non-local contrib.  to forces
     atom    1 type  1   force =    -0.00008007    0.11280108    0.00000017
     atom    2 type  1   force =    -0.00014265   -0.11255456    0.00000017
     The ionic contribution  to forces
     atom    1 type  1   force =    -0.00012400    0.80189592    0.00000000
     atom    2 type  1   force =     0.00012400   -0.80189592   -0.00000000
     The local contribution  to forces
     atom    1 type  1   force =     0.00015216   -0.91063123   -0.00000310
     atom    2 type  1   force =     0.00007716    0.91038374   -0.00000321
     The core correction contribution to forces
     atom    1 type  1   force =     0.00013649   -0.00418260   -0.00000002
     atom    2 type  1   force =    -0.00016244    0.00446218   -0.00000002
     The Hubbard contrib.    to forces
     atom    1 type  1   force =     0.00000000    0.00000000    0.00000000
     atom    2 type  1   force =     0.00000000    0.00000000    0.00000000
     The SCF correction term to forces
     atom    1 type  1   force =    -0.00000002   -0.00000250    0.00000000
     atom    2 type  1   force =     0.00000002   -0.00000574    0.00000000

     Total force =     0.000384     Total SCF correction =     0.000006
     Energy error            =      4.2E-04 Ry
     Gradient error          =      2.5E-04 Ry/Bohr

     number of scf cycles    =   3
     number of bfgs steps    =   1

     energy             old  =     -36.8566713216 Ry
     energy             new  =     -36.8570908290 Ry

     CASE: energy            _new < energy            _old

     new trust radius        =       0.0001548325 bohr
     new conv_thr            =       0.0000000003 Ry


ATOMIC_POSITIONS (crystal)
C               -0.0017970255        0.0036381574        0.0000000000    1   1   0
C                0.3351300255        0.3296948426        0.0000000000    1   1   0



     Writing config-only to output data dir ./tmp/graphene10.0.save/ :
     XML data file
     NEW-OLD atomic charge density approx. for the potential

     Check: negative core charge=   -0.000014

     negative rho (up, down):  2.063E-03 0.000E+00

     total cpu time spent up to now is       28.2 secs

     per-process dynamical memory:    41.0 Mb

     Self-consistent Calculation

     iteration #  1     ecut=    40.00 Ry     beta= 0.70
     Davidson diagonalization with overlap

---- Real-time Memory Report at c_bands before calling an iterative solver
            82 MiB given to the printing process from OS
            40 MiB allocation reported by mallinfo(arena+hblkhd)
         24971 MiB available memory on the node where the printing process lives
------------------
     ethr =  1.00E-06,  avg # of iterations =  2.0

     Threshold (ethr) on eigenvalues was too large:
     Diagonalizing with lowered threshold

     Davidson diagonalization with overlap

---- Real-time Memory Report at c_bands before calling an iterative solver
            82 MiB given to the printing process from OS
            40 MiB allocation reported by mallinfo(arena+hblkhd)
         24972 MiB available memory on the node where the printing process lives
------------------
     ethr =  1.02E-10,  avg # of iterations =  2.7

     negative rho (up, down):  2.063E-03 0.000E+00

     total cpu time spent up to now is       30.7 secs

     total energy              =     -36.85709086 Ry
     estimated scf accuracy    <       0.00000001 Ry

     iteration #  2     ecut=    40.00 Ry     beta= 0.70
     Davidson diagonalization with overlap

---- Real-time Memory Report at c_bands before calling an iterative solver
            82 MiB given to the printing process from OS
            46 MiB allocation reported by mallinfo(arena+hblkhd)
         24946 MiB available memory on the node where the printing process lives
------------------
     ethr =  1.30E-10,  avg # of iterations =  2.0

     negative rho (up, down):  2.063E-03 0.000E+00

     total cpu time spent up to now is       32.0 secs

     total energy              =     -36.85709087 Ry
     estimated scf accuracy    <          2.2E-09 Ry

     iteration #  3     ecut=    40.00 Ry     beta= 0.70
     Davidson diagonalization with overlap

---- Real-time Memory Report at c_bands before calling an iterative solver
            82 MiB given to the printing process from OS
            47 MiB allocation reported by mallinfo(arena+hblkhd)
         24926 MiB available memory on the node where the printing process lives
------------------
     ethr =  2.77E-11,  avg # of iterations =  2.0

     negative rho (up, down):  2.063E-03 0.000E+00

     total cpu time spent up to now is       33.2 secs

     total energy              =     -36.85709087 Ry
     estimated scf accuracy    <          5.5E-10 Ry

     iteration #  4     ecut=    40.00 Ry     beta= 0.70
     Davidson diagonalization with overlap

---- Real-time Memory Report at c_bands before calling an iterative solver
            82 MiB given to the printing process from OS
            47 MiB allocation reported by mallinfo(arena+hblkhd)
         24962 MiB available memory on the node where the printing process lives
------------------
     ethr =  6.85E-12,  avg # of iterations =  1.0

     negative rho (up, down):  2.063E-03 0.000E+00

     total cpu time spent up to now is       34.2 secs

     End of self-consistent calculation

          k = 0.0000 0.0000 0.0000 (  2423 PWs)   bands (ev):

   -20.8666  -9.0781  -5.3490  -4.9125   1.2725   2.0471   2.3069   4.2881

     occupation numbers 
     1.0000   1.0000   1.0000   1.0000   0.0000   0.0000   0.0000   0.0000

          k = 0.0000 0.0538 0.0000 (  2428 PWs)   bands (ev):

   -20.8233  -9.0272  -5.4625  -5.0418   1.3315   2.1062   2.3662   4.3462

     occupation numbers 
     1.0000   1.0000   1.0000   1.0000   0.0000   0.0000   0.0000   0.0000

          k = 0.0000 0.1076 0.0000 (  2432 PWs)   bands (ev):

   -20.6935  -8.8746  -5.7753  -5.4188   1.5084   2.2835   2.5442   4.5204

     occupation numbers 
     1.0000   1.0000   1.0000   1.0000   0.0000   0.0000   0.0000   0.0000

          k = 0.0000 0.1614 0.0000 (  2430 PWs)   bands (ev):

   -20.4775  -8.6213  -6.2219  -6.0133   1.8034   2.5788   2.8407   4.4634

     occupation numbers 
     1.0000   1.0000   1.0000   1.0000   0.0000   0.0000   0.0000   0.0000

          k = 0.0000 0.2152 0.0000 (  2426 PWs)   bands (ev):

   -20.1762  -8.2692  -6.7836  -6.7341   2.2160   2.9917   3.2552   4.0425

     occupation numbers 
     1.0000   1.0000   1.0000   1.0000   0.0000   0.0000   0.0000   0.0000

          k = 0.0000 0.2691 0.0000 (  2424 PWs)   bands (ev):

   -19.7903  -7.8207  -7.6859  -7.2587   2.7456   3.5216   3.5968   3.7970

     occupation numbers 
     1.0000   1.0000   1.0000   1.0000   0.0000   0.0000   0.0000   0.0000

          k = 0.0000 0.3229 0.0000 (  2416 PWs)   bands (ev):

   -19.3212  -8.6785  -7.7579  -7.2798   3.1767   3.4011   4.1670   4.4439

     occupation numbers 
     1.0000   1.0000   1.0000   1.0000   0.0000   0.0000   0.0000   0.0000

          k = 0.0000 0.3767 0.0000 (  2420 PWs)   bands (ev):

   -18.7707  -9.7250  -8.2075  -6.6530   2.8088   3.6974   4.1601   4.9299

     occupation numbers 
     1.0000   1.0000   1.0000   1.0000   0.0000   0.0000   0.0000   0.0000

          k = 0.0000 0.4305 0.0000 (  2414 PWs)   bands (ev):

   -18.1408 -10.7950  -8.5911  -5.9498   2.4940   2.6753   5.0395   5.8027

     occupation numbers 
     1.0000   1.0000   1.0000   1.0000   0.0000   0.0000   0.0000   0.0000

          k = 0.0000 0.4843 0.0000 (  2414 PWs)   bands (ev):

   -17.4345 -11.8646  -8.8978  -5.1882   1.6440   2.2442   6.0333   6.7831

     occupation numbers 
     1.0000   1.0000   1.0000   1.0000   0.0000   0.0000   0.0000   0.0000

          k = 0.0000 0.5381 0.0000 (  2406 PWs)   bands (ev):

   -16.6550 -12.9138  -9.1211  -4.4062   0.6565   2.0640   7.1386   7.8599

     occupation numbers 
     1.0000   1.0000   1.0000   1.0000   0.0000   0.0000   0.0000   0.0000

          k = 0.0000 0.5919 0.0000 (  2404 PWs)   bands (ev):

   -15.8071 -13.9277  -9.2566  -3.7061  -0.1723   1.9553   8.3502   9.0001

     occupation numbers 
     1.0000   1.0000   1.0000   1.0000   0.0000   0.0000   0.0000   0.0000

          k = 0.0000-0.6457 0.0000 (  2410 PWs)   bands (ev):

   -14.9230 -14.8679  -9.3021  -3.3774  -0.5452   1.9190   9.6514   9.6636

     occupation numbers 
     1.0000   1.0000   1.0000   1.0000   0.0000   0.0000   0.0000   0.0000

          k = 0.0000-0.5919 0.0000 (  2404 PWs)   bands (ev):

   -15.8071 -13.9277  -9.2566  -3.7061  -0.1723   1.9553   8.3502   9.0002

     occupation numbers 
     1.0000   1.0000   1.0000   1.0000   0.0000   0.0000   0.0000   0.0000

          k = 0.0000-0.5381 0.0000 (  2406 PWs)   bands (ev):

   -16.6550 -12.9138  -9.1211  -4.4062   0.6565   2.0640   7.1386   7.8599

     occupation numbers 
     1.0000   1.0000   1.0000   1.0000   0.0000   0.0000   0.0000   0.0000

          k = 0.0000-0.4843 0.0000 (  2414 PWs)   bands (ev):

   -17.4345 -11.8646  -8.8978  -5.1882   1.6440   2.2442   6.0333   7.1075

     occupation numbers 
     1.0000   1.0000   1.0000   1.0000   0.0000   0.0000   0.0000   0.0000

          k = 0.0000-0.4305 0.0000 (  2414 PWs)   bands (ev):

   -18.1408 -10.7950  -8.5911  -5.9498   2.4940   2.6753   5.0395   5.8027

     occupation numbers 
     1.0000   1.0000   1.0000   1.0000   0.0000   0.0000   0.0000   0.0000

          k = 0.0000-0.3767 0.0000 (  2420 PWs)   bands (ev):

   -18.7707  -9.7250  -8.2075  -6.6530   2.8088   3.6974   4.1601   4.9298

     occupation numbers 
     1.0000   1.0000   1.0000   1.0000   0.0000   0.0000   0.0000   0.0000

          k = 0.0000-0.3229 0.0000 (  2416 PWs)   bands (ev):

   -19.3212  -8.6785  -7.7579  -7.2798   3.1767   3.4011   4.1670   4.4439

     occupation numbers 
     1.0000   1.0000   1.0000   1.0000   0.0000   0.0000   0.0000   0.0000

          k = 0.0000-0.2691 0.0000 (  2424 PWs)   bands (ev):

   -19.7903  -7.8207  -7.6859  -7.2587   2.7456   3.5216   3.5968   3.7970

     occupation numbers 
     1.0000   1.0000   1.0000   1.0000   0.0000   0.0000   0.0000   0.0000

          k = 0.0000-0.2152 0.0000 (  2426 PWs)   bands (ev):

   -20.1762  -8.2692  -6.7836  -6.7341   2.2160   2.9917   3.2552   4.0425

     occupation numbers 
     1.0000   1.0000   1.0000   1.0000   0.0000   0.0000   0.0000   0.0000

          k = 0.0000-0.1614 0.0000 (  2430 PWs)   bands (ev):

   -20.4775  -8.6213  -6.2219  -6.0133   1.8034   2.5788   2.8407   4.4634

     occupation numbers 
     1.0000   1.0000   1.0000   1.0000   0.0000   0.0000   0.0000   0.0000

          k = 0.0000-0.1076 0.0000 (  2432 PWs)   bands (ev):

   -20.6935  -8.8746  -5.7753  -5.4188   1.5084   2.2835   2.5442   4.5202

     occupation numbers 
     1.0000   1.0000   1.0000   1.0000   0.0000   0.0000   0.0000   0.0000

          k = 0.0000-0.0538 0.0000 (  2428 PWs)   bands (ev):

   -20.8233  -9.0272  -5.4625  -5.0418   1.3315   2.1062   2.3662   5.0404

     occupation numbers 
     1.0000   1.0000   1.0000   1.0000   0.0000   0.0000   0.0000   0.0000

          k = 0.0417-0.0269 0.0000 (  2425 PWs)   bands (ev):

   -20.8300  -9.0352  -5.4917  -5.0159   1.3221   2.0973   2.3569   4.3374

     occupation numbers 
     1.0000   1.0000   1.0000   1.0000   0.0000   0.0000   0.0000   0.0000

          k = 0.0417 0.0269 0.0000 (  2425 PWs)   bands (ev):

   -20.8300  -9.0352  -5.4926  -5.0150   1.3221   2.0973   2.3569   4.3374

     occupation numbers 
     1.0000   1.0000   1.0000   1.0000   0.0000   0.0000   0.0000   0.0000

          k = 0.0417 0.0807 0.0000 (  2432 PWs)   bands (ev):

   -20.7435  -8.9335  -5.7603  -5.2089   1.4402   2.2155   2.4756   4.4534

     occupation numbers 
     1.0000   1.0000   1.0000   1.0000   0.0000   0.0000   0.0000   0.0000

          k = 0.0417 0.1345 0.0000 (  2434 PWs)   bands (ev):

   -20.5706  -8.7306  -6.2144  -5.6138   1.6763   2.4517   2.7130   4.6849

     occupation numbers 
     1.0000   1.0000   1.0000   1.0000   0.0000   0.0000   0.0000   0.0000

          k = 0.0417 0.1883 0.0000 (  2436 PWs)   bands (ev):

   -20.3119  -8.4280  -6.7875  -6.1978   2.0302   2.8057   3.0688   4.4074

     occupation numbers 
     1.0000   1.0000   1.0000   1.0000   0.0000   0.0000   0.0000   0.0000

          k = 0.0417 0.2422 0.0000 (  2420 PWs)   bands (ev):

   -19.9683  -8.0276  -7.4690  -6.8688   2.5016   3.2770   3.5416   3.9761

     occupation numbers 
     1.0000   1.0000   1.0000   1.0000   0.0000   0.0000   0.0000   0.0000

          k = 0.0417 0.2960 0.0000 (  2421 PWs)   bands (ev):

   -19.5409  -8.2958  -7.5330  -7.5014   3.0889   3.5436   3.8645   4.1394

     occupation numbers 
     1.0000   1.0000   1.0000   1.0000   0.0000   0.0000   0.0000   0.0000

          k = 0.0417 0.3498 0.0000 (  2414 PWs)   bands (ev):

   -19.0311  -9.2527  -8.0395  -6.9488   3.1442   3.7995   4.1292   4.5719

     occupation numbers 
     1.0000   1.0000   1.0000   1.0000   0.0000   0.0000   0.0000   0.0000

          k = 0.0417 0.4036 0.0000 (  2413 PWs)   bands (ev):

   -18.4410 -10.2807  -8.4878  -6.2829   2.8014   3.1395   4.6205   5.3863

     occupation numbers 
     1.0000   1.0000   1.0000   1.0000   0.0000   0.0000   0.0000   0.0000

          k = 0.0417 0.4574 0.0000 (  2412 PWs)   bands (ev):

   -17.7731 -11.3349  -8.8496  -5.5483   2.1191   2.5194   5.5572   6.3123

     occupation numbers 
     1.0000   1.0000   1.0000   1.0000   0.0000   0.0000   0.0000   0.0000

          k = 0.0417 0.5112 0.0000 (  2406 PWs)   bands (ev):

   -17.0305 -12.3859  -9.1239  -4.7697   1.1096   2.3047   6.6069   7.3398

     occupation numbers 
     1.0000   1.0000   1.0000   1.0000   0.0000   0.0000   0.0000   0.0000

          k = 0.0417 0.5650 0.0000 (  2408 PWs)   bands (ev):

   -16.2174 -13.4128  -9.3082  -4.0070   0.1844   2.1604   7.7656   8.4476

     occupation numbers 
     1.0000   1.0000   1.0000   1.0000   0.0000   0.0000   0.0000   0.0000

          k = 0.0417-0.6726 0.0000 (  2410 PWs)   bands (ev):

   -15.3391 -14.4003  -9.4008  -3.4374  -0.4692   2.0880   9.0258   9.5417

     occupation numbers 
     1.0000   1.0000   1.0000   1.0000   0.0000   0.0000   0.0000   0.0000

          k = 0.0417-0.6188 0.0000 (  2410 PWs)   bands (ev):

   -15.3391 -14.4002  -9.4008  -3.4374  -0.4692   2.0880   9.0258   9.5416

     occupation numbers 
     1.0000   1.0000   1.0000   1.0000   0.0000   0.0000   0.0000   0.0000

          k = 0.0417-0.5650 0.0000 (  2408 PWs)   bands (ev):

   -16.2174 -13.4127  -9.3083  -4.0071   0.1846   2.1604   7.7656   8.4476

     occupation numbers 
     1.0000   1.0000   1.0000   1.0000   0.0000   0.0000   0.0000   0.0000

          k = 0.0417-0.5112 0.0000 (  2406 PWs)   bands (ev):

   -17.0305 -12.3857  -9.1241  -4.7698   1.1098   2.3047   6.6069   7.3399

     occupation numbers 
     1.0000   1.0000   1.0000   1.0000   0.0000   0.0000   0.0000   0.0000

          k = 0.0417-0.4574 0.0000 (  2412 PWs)   bands (ev):

   -17.7731 -11.3346  -8.8500  -5.5483   2.1193   2.5194   5.5572   6.3122

     occupation numbers 
     1.0000   1.0000   1.0000   1.0000   0.0000   0.0000   0.0000   0.0000

          k = 0.0417-0.4036 0.0000 (  2413 PWs)   bands (ev):

   -18.4410 -10.2802  -8.4884  -6.2830   2.8014   3.1398   4.6205   5.3863

     occupation numbers 
     1.0000   1.0000   1.0000   1.0000   0.0000   0.0000   0.0000   0.0000

          k = 0.0417-0.3498 0.0000 (  2414 PWs)   bands (ev):

   -19.0311  -9.2517  -8.0406  -6.9488   3.1442   3.7996   4.1295   4.5719

     occupation numbers 
     1.0000   1.0000   1.0000   1.0000   0.0000   0.0000   0.0000   0.0000

          k = 0.0417-0.2960 0.0000 (  2421 PWs)   bands (ev):

   -19.5409  -8.2940  -7.5330  -7.5033   3.0889   3.5436   3.8645   4.1394

     occupation numbers 
     1.0000   1.0000   1.0000   1.0000   0.0000   0.0000   0.0000   0.0000

          k = 0.0417-0.2422 0.0000 (  2420 PWs)   bands (ev):

   -19.9683  -8.0276  -7.4664  -6.8716   2.5016   3.2770   3.5416   3.9762

     occupation numbers 
     1.0000   1.0000   1.0000   1.0000   0.0000   0.0000   0.0000   0.0000

          k = 0.0417-0.1883 0.0000 (  2436 PWs)   bands (ev):

   -20.3119  -8.4280  -6.7847  -6.2008   2.0302   2.8057   3.0688   4.4075

     occupation numbers 
     1.0000   1.0000   1.0000   1.0000   0.0000   0.0000   0.0000   0.0000

          k = 0.0417-0.1345 0.0000 (  2434 PWs)   bands (ev):

   -20.5706  -8.7307  -6.2119  -5.6165   1.6763   2.4517   2.7130   4.6849

     occupation numbers 
     1.0000   1.0000   1.0000   1.0000   0.0000   0.0000   0.0000   0.0000

          k = 0.0417-0.0807 0.0000 (  2432 PWs)   bands (ev):

   -20.7435  -8.9335  -5.7584  -5.2110   1.4402   2.2155   2.4756   4.4534

     occupation numbers 
     1.0000   1.0000   1.0000   1.0000   0.0000   0.0000   0.0000   0.0000

          k = 0.0833-0.0538 0.0000 (  2419 PWs)   bands (ev):

   -20.7204  -8.9068  -5.9497  -5.2473   1.4713   2.2477   2.5070   4.4851

     occupation numbers 
     1.0000   1.0000   1.0000   1.0000   0.0000   0.0000   0.0000   0.0000

          k = 0.0833-0.0000 0.0000 (  2415 PWs)   bands (ev):

   -20.7636  -8.9576  -5.7585  -5.2242   1.4121   2.1887   2.4475   4.4273

     occupation numbers 
     1.0000   1.0000   1.0000   1.0000   0.0000   0.0000   0.0000   0.0000

          k = 0.0833 0.0538 0.0000 (  2419 PWs)   bands (ev):

   -20.7204  -8.9068  -5.9517  -5.2451   1.4713   2.2478   2.5070   4.4851

     occupation numbers 
     1.0000   1.0000   1.0000   1.0000   0.0000   0.0000   0.0000   0.0000

          k = 0.0833 0.1076 0.0000 (  2429 PWs)   bands (ev):

   -20.5908  -8.7549  -6.3961  -5.4213   1.6487   2.4248   2.6854   4.6582

     occupation numbers 
     1.0000   1.0000   1.0000   1.0000   0.0000   0.0000   0.0000   0.0000

          k = 0.0833 0.1614 0.0000 (  2435 PWs)   bands (ev):

   -20.3752  -8.5027  -6.9603  -5.8217   1.9440   2.7196   2.9824   4.9455

     occupation numbers 
     1.0000   1.0000   1.0000   1.0000   0.0000   0.0000   0.0000   0.0000

          k = 0.0833 0.2152 0.0000 (  2431 PWs)   bands (ev):

   -20.0743  -8.1521  -7.5878  -6.4147   2.3570   3.1317   3.3977   4.6276

     occupation numbers 
     1.0000   1.0000   1.0000   1.0000   0.0000   0.0000   0.0000   0.0000

          k = 0.0833 0.2691 0.0000 (  2423 PWs)   bands (ev):

   -19.6891  -8.2664  -7.7056  -7.1193   2.8873   3.6597   3.9289   4.2005

     occupation numbers 
     1.0000   1.0000   1.0000   1.0000   0.0000   0.0000   0.0000   0.0000

          k = 0.0833 0.3229 0.0000 (  2416 PWs)   bands (ev):

   -19.2211  -9.0237  -7.8253  -7.1673   3.5317   3.7885   4.2750   4.4357

     occupation numbers 
     1.0000   1.0000   1.0000   1.0000   0.0000   0.0000   0.0000   0.0000

          k = 0.0833 0.3767 0.0000 (  2410 PWs)   bands (ev):

   -18.6719  -9.8924  -8.4340  -6.5433   3.4167   3.4698   4.3007   5.0685

     occupation numbers 
     1.0000   1.0000   1.0000   1.0000   0.0000   0.0000   0.0000   0.0000

          k = 0.0833 0.4305 0.0000 (  2418 PWs)   bands (ev):

   -18.0442 -10.8547  -8.9125  -5.8433   2.4952   3.1064   5.1795   5.9359

     occupation numbers 
     1.0000   1.0000   1.0000   1.0000   0.0000   0.0000   0.0000   0.0000

          k = 0.0833 0.4843 0.0000 (  2406 PWs)   bands (ev):

   -17.3406 -11.8623  -9.2715  -5.0842   1.5044   2.8598   6.1724   6.9071

     occupation numbers 
     1.0000   1.0000   1.0000   1.0000   0.0000   0.0000   0.0000   0.0000

          k = 0.0833 0.5381 0.0000 (  2401 PWs)   bands (ev):

   -16.5653 -12.8756  -9.5226  -4.3016   0.5454   2.6813   7.2760   7.9624

     occupation numbers 
     1.0000   1.0000   1.0000   1.0000   0.0000   0.0000   0.0000   0.0000

          k = 0.0833-0.6996 0.0000 (  2420 PWs)   bands (ev):

   -15.7233 -13.8678  -9.6720  -3.5933  -0.2737   2.5734   8.4843   9.0357

     occupation numbers 
     1.0000   1.0000   1.0000   1.0000   0.0000   0.0000   0.0000   0.0000

          k = 0.0833-0.6457 0.0000 (  2418 PWs)   bands (ev):

   -14.8324 -14.8098  -9.7216  -3.2536  -0.6510   2.5373   9.7759   9.7911

     occupation numbers 
     1.0000   1.0000   1.0000   1.0000   0.0000   0.0000   0.0000   0.0000

          k = 0.0833-0.5919 0.0000 (  2420 PWs)   bands (ev):

   -15.7234 -13.8676  -9.6721  -3.5934  -0.2734   2.5734   8.4844   9.0356

     occupation numbers 
     1.0000   1.0000   1.0000   1.0000   0.0000   0.0000   0.0000   0.0000

          k = 0.0833-0.5381 0.0000 (  2401 PWs)   bands (ev):

   -16.5654 -12.8753  -9.5229  -4.3017   0.5458   2.6813   7.2760   7.9624

     occupation numbers 
     1.0000   1.0000   1.0000   1.0000   0.0000   0.0000   0.0000   0.0000

          k = 0.0833-0.4843 0.0000 (  2406 PWs)   bands (ev):

   -17.3407 -11.8618  -9.2720  -5.0843   1.5048   2.8598   6.1724   6.9071

     occupation numbers 
     1.0000   1.0000   1.0000   1.0000   0.0000   0.0000   0.0000   0.0000

          k = 0.0833-0.4305 0.0000 (  2418 PWs)   bands (ev):

   -18.0442 -10.8538  -8.9135  -5.8435   2.4957   3.1064   5.1795   5.9359

     occupation numbers 
     1.0000   1.0000   1.0000   1.0000   0.0000   0.0000   0.0000   0.0000

          k = 0.0833-0.3767 0.0000 (  2410 PWs)   bands (ev):

   -18.6719  -9.8910  -8.4356  -6.5434   3.4167   3.4703   4.3007   5.0685

     occupation numbers 
     1.0000   1.0000   1.0000   1.0000   0.0000   0.0000   0.0000   0.0000

          k = 0.0833-0.3229 0.0000 (  2416 PWs)   bands (ev):

   -19.2211  -9.0216  -7.8276  -7.1674   3.5317   3.7885   4.2750   4.4361

     occupation numbers 
     1.0000   1.0000   1.0000   1.0000   0.0000   0.0000   0.0000   0.0000

          k = 0.0833-0.2691 0.0000 (  2423 PWs)   bands (ev):

   -19.6891  -8.2639  -7.7056  -7.1220   2.8873   3.6597   3.9289   4.2006

     occupation numbers 
     1.0000   1.0000   1.0000   1.0000   0.0000   0.0000   0.0000   0.0000

          k = 0.0833-0.2152 0.0000 (  2431 PWs)   bands (ev):

   -20.0743  -8.1521  -7.5852  -6.4176   2.3570   3.1316   3.3977   4.6278

     occupation numbers 
     1.0000   1.0000   1.0000   1.0000   0.0000   0.0000   0.0000   0.0000

          k = 0.0833-0.1614 0.0000 (  2435 PWs)   bands (ev):

   -20.3751  -8.5028  -6.9577  -5.8247   1.9440   2.7196   2.9824   5.0412

     occupation numbers 
     1.0000   1.0000   1.0000   1.0000   0.0000   0.0000   0.0000   0.0000

          k = 0.0833-0.1076 0.0000 (  2429 PWs)   bands (ev):

   -20.5907  -8.7549  -6.3936  -5.4241   1.6487   2.4248   2.6854   4.6582

     occupation numbers 
     1.0000   1.0000   1.0000   1.0000   0.0000   0.0000   0.0000   0.0000

          k = 0.1250-0.0807 0.0000 (  2424 PWs)   bands (ev):

   -20.5381  -8.6940  -6.6830  -5.5314   1.7204   2.4982   2.7578   4.7299

     occupation numbers 
     1.0000   1.0000   1.0000   1.0000   0.0000   0.0000   0.0000   0.0000

          k = 0.1250-0.0269 0.0000 (  2415 PWs)   bands (ev):

   -20.6244  -8.7948  -6.2813  -5.5650   1.6019   2.3804   2.6387   4.6154

     occupation numbers 
     1.0000   1.0000   1.0000   1.0000   0.0000   0.0000   0.0000   0.0000

          k = 0.1250 0.0269 0.0000 (  2415 PWs)   bands (ev):

   -20.6244  -8.7948  -6.2826  -5.5635   1.6019   2.3804   2.6387   4.6154

     occupation numbers 
     1.0000   1.0000   1.0000   1.0000   0.0000   0.0000   0.0000   0.0000

          k = 0.1250 0.0807 0.0000 (  2424 PWs)   bands (ev):

   -20.5381  -8.6939  -6.6853  -5.5289   1.7204   2.4982   2.7578   4.7299

     occupation numbers 
     1.0000   1.0000   1.0000   1.0000   0.0000   0.0000   0.0000   0.0000

          k = 0.1250 0.1345 0.0000 (  2422 PWs)   bands (ev):

   -20.3657  -8.4928  -7.2405  -5.6917   1.9572   2.7336   2.9958   4.9569

     occupation numbers 
     1.0000   1.0000   1.0000   1.0000   0.0000   0.0000   0.0000   0.0000

          k = 0.1250 0.1883 0.0000 (  2418 PWs)   bands (ev):

   -20.1079  -8.1928  -7.8533  -6.1000   2.3117   3.0859   3.3524   5.2833

     occupation numbers 
     1.0000   1.0000   1.0000   1.0000   0.0000   0.0000   0.0000   0.0000

          k = 0.1250 0.2422 0.0000 (  2426 PWs)   bands (ev):

   -19.7655  -8.4858  -7.7963  -6.7148   2.7837   3.5534   3.8273   5.0900

     occupation numbers 
     1.0000   1.0000   1.0000   1.0000   0.0000   0.0000   0.0000   0.0000

          k = 0.1250 0.2960 0.0000 (  2417 PWs)   bands (ev):

   -19.3398  -9.1301  -7.4568  -7.3063   3.3726   4.1153   4.4184   4.5166

     occupation numbers 
     1.0000   1.0000   1.0000   1.0000   0.0000   0.0000   0.0000   0.0000

          k = 0.1250 0.3498 0.0000 (  2411 PWs)   bands (ev):

   -18.8326  -9.8082  -8.2253  -6.7281   3.6268   4.0756   4.2905   4.8554

     occupation numbers 
     1.0000   1.0000   1.0000   1.0000   0.0000   0.0000   0.0000   0.0000

          k = 0.1250 0.4036 0.0000 (  2413 PWs)   bands (ev):

   -18.2461 -10.5663  -8.9108  -6.0689   2.7297   3.9513   4.9009   5.6603

     occupation numbers 
     1.0000   1.0000   1.0000   1.0000   0.0000   0.0000   0.0000   0.0000

          k = 0.1250 0.4574 0.0000 (  2408 PWs)   bands (ev):

   -17.5833 -11.4287  -9.4409  -5.3408   1.7954   3.6753   5.8362   6.5718

     occupation numbers 
     1.0000   1.0000   1.0000   1.0000   0.0000   0.0000   0.0000   0.0000

          k = 0.1250 0.5112 0.0000 (  2407 PWs)   bands (ev):

   -16.8481 -12.3640  -9.8119  -4.5658   0.8559   3.4643   6.8834   7.5678

     occupation numbers 
     1.0000   1.0000   1.0000   1.0000   0.0000   0.0000   0.0000   0.0000

          k = 0.1250-0.7265 0.0000 (  2425 PWs)   bands (ev):

   -16.0458 -13.3236 -10.0463  -3.7961  -0.0294   3.3219   8.0374   8.5830

     occupation numbers 
     1.0000   1.0000   1.0000   1.0000   0.0000   0.0000   0.0000   0.0000

          k = 0.1250-0.6726 0.0000 (  2423 PWs)   bands (ev):

   -15.1835 -14.2709 -10.1601  -3.1992  -0.6859   3.2503   9.2869   9.3512

     occupation numbers 
     1.0000   1.0000   1.0000   1.0000   0.0000   0.0000   0.0000   0.0000

          k = 0.1250-0.6188 0.0000 (  2423 PWs)   bands (ev):

   -15.1836 -14.2707 -10.1602  -3.1993  -0.6857   3.2503   9.2869   9.3510

     occupation numbers 
     1.0000   1.0000   1.0000   1.0000   0.0000   0.0000   0.0000   0.0000

          k = 0.1250-0.5650 0.0000 (  2425 PWs)   bands (ev):

   -16.0459 -13.3232 -10.0467  -3.7964  -0.0289   3.3219   8.0374   8.5828

     occupation numbers 
     1.0000   1.0000   1.0000   1.0000   0.0000   0.0000   0.0000   0.0000

          k = 0.1250-0.5112 0.0000 (  2407 PWs)   bands (ev):

   -16.8482 -12.3633  -9.8127  -4.5661   0.8565   3.4643   6.8834   7.5677

     occupation numbers 
     1.0000   1.0000   1.0000   1.0000   0.0000   0.0000   0.0000   0.0000

          k = 0.1250-0.4574 0.0000 (  2408 PWs)   bands (ev):

   -17.5834 -11.4276  -9.4422  -5.3411   1.7961   3.6753   5.8362   6.5717

     occupation numbers 
     1.0000   1.0000   1.0000   1.0000   0.0000   0.0000   0.0000   0.0000

          k = 0.1250-0.4036 0.0000 (  2413 PWs)   bands (ev):

   -18.2461 -10.5647  -8.9126  -6.0691   2.7304   3.9513   4.9009   5.6601

     occupation numbers 
     1.0000   1.0000   1.0000   1.0000   0.0000   0.0000   0.0000   0.0000

          k = 0.1250-0.3498 0.0000 (  2411 PWs)   bands (ev):

   -18.8326  -9.8061  -8.2277  -6.7283   3.6276   4.0756   4.2905   4.8553

     occupation numbers 
     1.0000   1.0000   1.0000   1.0000   0.0000   0.0000   0.0000   0.0000

          k = 0.1250-0.2960 0.0000 (  2417 PWs)   bands (ev):

   -19.3398  -9.1279  -7.4594  -7.3065   3.3726   4.1153   4.4184   4.5173

     occupation numbers 
     1.0000   1.0000   1.0000   1.0000   0.0000   0.0000   0.0000   0.0000

          k = 0.1250-0.2422 0.0000 (  2426 PWs)   bands (ev):

   -19.7655  -8.4836  -7.7964  -6.7174   2.7837   3.5534   3.8273   5.0901

     occupation numbers 
     1.0000   1.0000   1.0000   1.0000   0.0000   0.0000   0.0000   0.0000

          k = 0.1250-0.1883 0.0000 (  2418 PWs)   bands (ev):

   -20.1079  -8.1929  -7.8510  -6.1028   2.3117   3.0859   3.3524   5.2833

     occupation numbers 
     1.0000   1.0000   1.0000   1.0000   0.0000   0.0000   0.0000   0.0000

          k = 0.1250-0.1345 0.0000 (  2422 PWs)   bands (ev):

   -20.3657  -8.4928  -7.2382  -5.6945   1.9572   2.7336   2.9958   4.9568

     occupation numbers 
     1.0000   1.0000   1.0000   1.0000   0.0000   0.0000   0.0000   0.0000

          k = 0.1667-0.1076 0.0000 (  2420 PWs)   bands (ev):

   -20.2837  -8.3984  -7.5873  -5.8492   2.0696   2.8476   3.1092   5.0648

     occupation numbers 
     1.0000   1.0000   1.0000   1.0000   0.0000   0.0000   0.0000   0.0000

          k = 0.1667-0.0538 0.0000 (  2412 PWs)   bands (ev):

   -20.4128  -8.5482  -7.0488  -5.9249   1.8918   2.6717   2.9306   4.8999

     occupation numbers 
     1.0000   1.0000   1.0000   1.0000   0.0000   0.0000   0.0000   0.0000

          k = 0.1667-0.0000 0.0000 (  2415 PWs)   bands (ev):

   -20.4558  -8.5983  -6.7744  -6.0466   1.8326   2.6131   2.8710   4.8439

     occupation numbers 
     1.0000   1.0000   1.0000   1.0000   0.0000   0.0000   0.0000   0.0000

          k = 0.1667 0.0538 0.0000 (  2412 PWs)   bands (ev):

   -20.4128  -8.5482  -7.0506  -5.9229   1.8918   2.6717   2.9306   4.8999

     occupation numbers 
     1.0000   1.0000   1.0000   1.0000   0.0000   0.0000   0.0000   0.0000

          k = 0.1667 0.1076 0.0000 (  2420 PWs)   bands (ev):

   -20.2837  -8.3983  -7.5894  -5.8467   2.0696   2.8476   3.1092   5.0649

     occupation numbers 
     1.0000   1.0000   1.0000   1.0000   0.0000   0.0000   0.0000   0.0000

          k = 0.1667 0.1614 0.0000 (  2426 PWs)   bands (ev):

   -20.0692  -8.2000  -8.1498  -6.0062   2.3655   3.1397   3.4068   5.3058

     occupation numbers 
     1.0000   1.0000   1.0000   1.0000   0.0000   0.0000   0.0000   0.0000

          k = 0.1667 0.2152 0.0000 (  2422 PWs)   bands (ev):

   -19.7699  -8.8242  -7.8043  -6.4256   2.7791   3.5448   3.8230   5.0823

     occupation numbers 
     1.0000   1.0000   1.0000   1.0000   0.0000   0.0000   0.0000   0.0000

          k = 0.1667 0.2691 0.0000 (  2428 PWs)   bands (ev):

   -19.3871  -9.4375  -7.3648  -7.0610   3.3098   4.0221   4.3574   4.4484

     occupation numbers 
     1.0000   1.0000   1.0000   1.0000   0.0000   0.0000   0.0000   0.0000

          k = 0.1667 0.3229 0.0000 (  2434 PWs)   bands (ev):

   -18.9225 -10.0341  -7.8340  -6.8355   3.5961   3.9570   4.7492   5.0088

     occupation numbers 
     1.0000   1.0000   1.0000   1.0000   0.0000   0.0000   0.0000   0.0000

          k = 0.1667 0.3767 0.0000 (  2416 PWs)   bands (ev):

   -18.3783 -10.6297  -8.6518  -6.2222   2.7921   4.7189   4.9929   5.4890

     occupation numbers 
     1.0000   1.0000   1.0000   1.0000   0.0000   0.0000   0.0000   0.0000

          k = 0.1667 0.4305 0.0000 (  2414 PWs)   bands (ev):

   -17.7576 -11.2680  -9.4094  -5.5340   1.9416   4.6872   5.5989   6.3403

     occupation numbers 
     1.0000   1.0000   1.0000   1.0000   0.0000   0.0000   0.0000   0.0000

          k = 0.1667 0.4843 0.0000 (  2406 PWs)   bands (ev):

   -17.0643 -12.0021 -10.0076  -4.7853   1.0646   4.4450   6.5888   7.2764

     occupation numbers 
     1.0000   1.0000   1.0000   1.0000   0.0000   0.0000   0.0000   0.0000

          k = 0.1667-0.7534 0.0000 (  2425 PWs)   bands (ev):

   -16.3044 -12.8368 -10.4073  -4.0045   0.1900   4.2686   7.6870   8.2279

     occupation numbers 
     1.0000   1.0000   1.0000   1.0000   0.0000   0.0000   0.0000   0.0000

          k = 0.1667-0.6996 0.0000 (  2425 PWs)   bands (ev):

   -15.4863 -13.7243 -10.6294  -3.2691  -0.6029   4.1619   8.8838   8.9451

     occupation numbers 
     1.0000   1.0000   1.0000   1.0000   0.0000   0.0000   0.0000   0.0000

          k = 0.1667-0.6457 0.0000 (  2431 PWs)   bands (ev):

   -14.6766 -14.5612 -10.7005  -2.8846  -1.0068   4.1261   9.1527  10.1393

     occupation numbers 
     1.0000   1.0000   1.0000   1.0028   0.0000   0.0000   0.0000   0.0000

          k = 0.1667-0.5919 0.0000 (  2425 PWs)   bands (ev):

   -15.4865 -13.7238 -10.6298  -3.2695  -0.6023   4.1619   8.8838   8.9448

     occupation numbers 
     1.0000   1.0000   1.0000   1.0000   0.0000   0.0000   0.0000   0.0000

          k = 0.1667-0.5381 0.0000 (  2425 PWs)   bands (ev):

   -16.3045 -12.8360 -10.4082  -4.0049   0.1908   4.2687   7.6870   8.2277

     occupation numbers 
     1.0000   1.0000   1.0000   1.0000   0.0000   0.0000   0.0000   0.0000

          k = 0.1667-0.4843 0.0000 (  2406 PWs)   bands (ev):

   -17.0643 -12.0008 -10.0090  -4.7857   1.0655   4.4450   6.5888   7.2763

     occupation numbers 
     1.0000   1.0000   1.0000   1.0000   0.0000   0.0000   0.0000   0.0000

          k = 0.1667-0.4305 0.0000 (  2414 PWs)   bands (ev):

   -17.7576 -11.2663  -9.4113  -5.5343   1.9425   4.6872   5.5989   6.3402

     occupation numbers 
     1.0000   1.0000   1.0000   1.0000   0.0000   0.0000   0.0000   0.0000

          k = 0.1667-0.3767 0.0000 (  2416 PWs)   bands (ev):

   -18.3783 -10.6277  -8.6540  -6.2225   2.7930   4.7188   4.9930   5.4889

     occupation numbers 
     1.0000   1.0000   1.0000   1.0000   0.0000   0.0000   0.0000   0.0000

          k = 0.1667-0.3229 0.0000 (  2434 PWs)   bands (ev):

   -18.9225 -10.0321  -7.8364  -6.8357   3.5970   3.9570   4.7493   5.0088

     occupation numbers 
     1.0000   1.0000   1.0000   1.0000   0.0000   0.0000   0.0000   0.0000

          k = 0.1667-0.2691 0.0000 (  2428 PWs)   bands (ev):

   -19.3871  -9.4356  -7.3650  -7.0634   3.3098   4.0221   4.3574   4.4492

     occupation numbers 
     1.0000   1.0000   1.0000   1.0000   0.0000   0.0000   0.0000   0.0000

          k = 0.1667-0.2152 0.0000 (  2422 PWs)   bands (ev):

   -19.7699  -8.8222  -7.8044  -6.4282   2.7791   3.5448   3.8230   5.0829

     occupation numbers 
     1.0000   1.0000   1.0000   1.0000   0.0000   0.0000   0.0000   0.0000

          k = 0.1667-0.1614 0.0000 (  2426 PWs)   bands (ev):

   -20.0692  -8.1980  -8.1499  -6.0087   2.3655   3.1397   3.4068   5.3057

     occupation numbers 
     1.0000   1.0000   1.0000   1.0000   0.0000   0.0000   0.0000   0.0000

          k = 0.2083-0.1345 0.0000 (  2423 PWs)   bands (ev):

   -19.9584  -8.5831  -8.0232  -6.1801   2.5186   3.2925   3.5612   5.2645

     occupation numbers 
     1.0000   1.0000   1.0000   1.0000   0.0000   0.0000   0.0000   0.0000

          k = 0.2083-0.0807 0.0000 (  2426 PWs)   bands (ev):

   -20.1297  -8.2201  -7.9732  -6.2784   2.2817   3.0615   3.3231   5.2621

     occupation numbers 
     1.0000   1.0000   1.0000   1.0000   0.0000   0.0000   0.0000   0.0000

          k = 0.2083-0.0269 0.0000 (  2405 PWs)   bands (ev):

   -20.2154  -8.3189  -7.4857  -6.5193   2.1633   2.9453   3.2042   5.1678

     occupation numbers 
     1.0000   1.0000   1.0000   1.0000   0.0000   0.0000   0.0000   0.0000

          k = 0.2083 0.0269 0.0000 (  2405 PWs)   bands (ev):

   -20.2154  -8.3189  -7.4869  -6.5180   2.1633   2.9453   3.2042   5.1678

     occupation numbers 
     1.0000   1.0000   1.0000   1.0000   0.0000   0.0000   0.0000   0.0000

          k = 0.2083 0.0807 0.0000 (  2426 PWs)   bands (ev):

   -20.1297  -8.2201  -7.9750  -6.2762   2.2817   3.0615   3.3231   5.2622

     occupation numbers 
     1.0000   1.0000   1.0000   1.0000   0.0000   0.0000   0.0000   0.0000

          k = 0.2083 0.1345 0.0000 (  2423 PWs)   bands (ev):

   -19.9585  -8.5850  -8.0231  -6.1778   2.5186   3.2925   3.5612   5.2642

     occupation numbers 
     1.0000   1.0000   1.0000   1.0000   0.0000   0.0000   0.0000   0.0000

          k = 0.2083 0.1883 0.0000 (  2429 PWs)   bands (ev):

   -19.7026  -9.2153  -7.7296  -6.3375   2.8735   3.6308   3.9183   4.7945

     occupation numbers 
     1.0000   1.0000   1.0000   1.0000   0.0000   0.0000   0.0000   0.0000

          k = 0.2083 0.2422 0.0000 (  2434 PWs)   bands (ev):

   -19.3630  -9.8295  -7.3422  -6.7669   3.3458   3.9392   4.3210   4.3940

     occupation numbers 
     1.0000   1.0000   1.0000   1.0000   0.0000   0.0000   0.0000   0.0000

          k = 0.2083 0.2960 0.0000 (  2440 PWs)   bands (ev):

   -18.9416 -10.4104  -7.4175  -6.8644   3.4048   3.9349   4.7422   4.9877

     occupation numbers 
     1.0000   1.0000   1.0000   1.0000   0.0000   0.0000   0.0000   0.0000

          k = 0.2083 0.3498 0.0000 (  2429 PWs)   bands (ev):

   -18.4405 -10.9534  -8.2112  -6.3014   2.6841   4.6398   5.4218   5.6987

     occupation numbers 
     1.0000   1.0000   1.0000   1.0000   0.0000   0.0000   0.0000   0.0000

          k = 0.2083 0.4036 0.0000 (  2424 PWs)   bands (ev):

   -17.8629 -11.4690  -9.0621  -5.6605   1.9242   5.4588   5.8369   6.2149

     occupation numbers 
     1.0000   1.0000   1.0000   1.0000   0.0000   0.0000   0.0000   0.0000

          k = 0.2083 0.4574 0.0000 (  2426 PWs)   bands (ev):

   -17.2134 -11.9904  -9.8762  -4.9522   1.1355   5.5616   6.3930   7.0949

     occupation numbers 
     1.0000   1.0000   1.0000   1.0000   0.0000   0.0000   0.0000   0.0000

          k = 0.2083-0.7803 0.0000 (  2426 PWs)   bands (ev):

   -16.4986 -12.5783 -10.5464  -4.1932   0.3261   5.3516   7.4344   7.9925

     occupation numbers 
     1.0000   1.0000   1.0000   1.0000   0.0000   0.0000   0.0000   0.0000

          k = 0.2083-0.7265 0.0000 (  2423 PWs)   bands (ev):

   -15.7293 -13.2795 -10.9897  -3.4162  -0.4796   5.2092   8.5767   8.6508

     occupation numbers 
     1.0000   1.0000   1.0000   1.0000   0.0000   0.0000   0.0000   0.0000

          k = 0.2083-0.6726 0.0000 (  2429 PWs)   bands (ev):

   -14.9308 -14.0604 -11.1986  -2.7432  -1.1659   5.1373   8.8345   9.7976

     occupation numbers 
     1.0000   1.0000   1.0000   1.0175   0.0000   0.0000   0.0000   0.0000

          k = 0.2083-0.6188 0.0000 (  2429 PWs)   bands (ev):

   -14.9312 -14.0597 -11.1989  -2.7436  -1.1654   5.1373   8.8343   9.7977

     occupation numbers 
     1.0000   1.0000   1.0000   1.0174   0.0000   0.0000   0.0000   0.0000

          k = 0.2083-0.5650 0.0000 (  2423 PWs)   bands (ev):

   -15.7295 -13.2785 -10.9906  -3.4168  -0.4787   5.2092   8.5768   8.6504

     occupation numbers 
     1.0000   1.0000   1.0000   1.0000   0.0000   0.0000   0.0000   0.0000

          k = 0.2083-0.5112 0.0000 (  2426 PWs)   bands (ev):

   -16.4987 -12.5768 -10.5479  -4.1937   0.3271   5.3517   7.4345   7.9923

     occupation numbers 
     1.0000   1.0000   1.0000   1.0000   0.0000   0.0000   0.0000   0.0000

          k = 0.2083-0.4574 0.0000 (  2426 PWs)   bands (ev):

   -17.2134 -11.9887  -9.8781  -4.9527   1.1367   5.5617   6.3931   7.0948

     occupation numbers 
     1.0000   1.0000   1.0000   1.0000   0.0000   0.0000   0.0000   0.0000

          k = 0.2083-0.4036 0.0000 (  2424 PWs)   bands (ev):

   -17.8629 -11.4672  -9.0641  -5.6609   1.9253   5.4588   5.8371   6.2148

     occupation numbers 
     1.0000   1.0000   1.0000   1.0000   0.0000   0.0000   0.0000   0.0000

          k = 0.2083-0.3498 0.0000 (  2429 PWs)   bands (ev):

   -18.4405 -10.9517  -8.2133  -6.3018   2.6852   4.6398   5.4218   5.6987

     occupation numbers 
     1.0000   1.0000   1.0000   1.0000   0.0000   0.0000   0.0000   0.0000

          k = 0.2083-0.2960 0.0000 (  2440 PWs)   bands (ev):

   -18.9416 -10.4087  -7.4197  -6.8647   3.4058   3.9349   4.7422   4.9877

     occupation numbers 
     1.0000   1.0000   1.0000   1.0000   0.0000   0.0000   0.0000   0.0000

          k = 0.2083-0.2422 0.0000 (  2434 PWs)   bands (ev):

   -19.3630  -9.8278  -7.3424  -6.7692   3.3458   3.9395   4.3217   4.3940

     occupation numbers 
     1.0000   1.0000   1.0000   1.0000   0.0000   0.0000   0.0000   0.0000

          k = 0.2083-0.1883 0.0000 (  2429 PWs)   bands (ev):

   -19.7025  -9.2135  -7.7298  -6.3398   2.8735   3.6308   3.9183   4.7953

     occupation numbers 
     1.0000   1.0000   1.0000   1.0000   0.0000   0.0000   0.0000   0.0000

          k = 0.2500-0.1614 0.0000 (  2427 PWs)   bands (ev):

   -19.5639  -9.6181  -7.5730  -6.5028   3.0668   3.7941   4.1132   4.4285

     occupation numbers 
     1.0000   1.0000   1.0000   1.0000   0.0000   0.0000   0.0000   0.0000

          k = 0.2500-0.1076 0.0000 (  2419 PWs)   bands (ev):

   -19.7763  -8.9772  -7.8139  -6.6140   2.7712   3.5427   3.8161   4.8792

     occupation numbers 
     1.0000   1.0000   1.0000   1.0000   0.0000   0.0000   0.0000   0.0000

          k = 0.2500-0.0538 0.0000 (  2421 PWs)   bands (ev):

   -19.9042  -8.3783  -7.9593  -6.9190   2.5939   3.3751   3.6380   5.2165

     occupation numbers 
     1.0000   1.0000   1.0000   1.0000   0.0000   0.0000   0.0000   0.0000

          k = 0.2500 0.0000 0.0000 (  2411 PWs)   bands (ev):

   -19.9469  -8.0477  -8.0079  -7.1568   2.5348   3.3182   3.5786   5.3579

     occupation numbers 
     1.0000   1.0000   1.0000   1.0000   0.0000   0.0000   0.0000   0.0000

          k = 0.2500 0.0538 0.0000 (  2421 PWs)   bands (ev):

   -19.9042  -8.3798  -7.9592  -6.9173   2.5939   3.3751   3.6380   5.2163

     occupation numbers 
     1.0000   1.0000   1.0000   1.0000   0.0000   0.0000   0.0000   0.0000

          k = 0.2500 0.1076 0.0000 (  2419 PWs)   bands (ev):

   -19.7763  -8.9788  -7.8137  -6.6119   2.7712   3.5427   3.8161   4.8787

     occupation numbers 
     1.0000   1.0000   1.0000   1.0000   0.0000   0.0000   0.0000   0.0000

          k = 0.2500 0.1614 0.0000 (  2427 PWs)   bands (ev):

   -19.5639  -9.6197  -7.5728  -6.5006   3.0668   3.7942   4.1132   4.4277

     occupation numbers 
     1.0000   1.0000   1.0000   1.0000   0.0000   0.0000   0.0000   0.0000

          k = 0.2500 0.2152 0.0000 (  2424 PWs)   bands (ev):

   -19.2679 -10.2474  -7.2386  -6.6615   3.4804   3.6944   4.3494   4.5296

     occupation numbers 
     1.0000   1.0000   1.0000   1.0000   0.0000   0.0000   0.0000   0.0000

          k = 0.2500 0.2691 0.0000 (  2436 PWs)   bands (ev):

   -18.8901 -10.8378  -7.0978  -6.8147   3.0989   4.0112   4.8278   5.0648

     occupation numbers 
     1.0000   1.0000   1.0000   1.0000   0.0000   0.0000   0.0000   0.0000

          k = 0.2500 0.3229 0.0000 (  2433 PWs)   bands (ev):

   -18.4329 -11.3782  -7.7568  -6.3059   2.4396   4.6582   5.4544   5.7179

     occupation numbers 
     1.0000   1.0000   1.0000   1.0000   0.0000   0.0000   0.0000   0.0000

          k = 0.2500 0.3767 0.0000 (  2440 PWs)   bands (ev):

   -17.8996 -11.8646  -8.5611  -5.7187   1.7587   5.4199   6.1928   6.4878

     occupation numbers 
     1.0000   1.0000   1.0000   1.0000   0.0000   0.0000   0.0000   0.0000

          k = 0.2500 0.4305 0.0000 (  2431 PWs)   bands (ev):

   -17.2957 -12.3017  -9.4290  -5.0624   1.0627   6.2938   6.7544   7.0222

     occupation numbers 
     1.0000   1.0000   1.0000   1.0000   0.0000   0.0000   0.0000   0.0000

          k = 0.2500-0.8072 0.0000 (  2432 PWs)   bands (ev):

   -16.6292 -12.7109 -10.2779  -4.3490   0.3481   6.5065   7.2807   7.8815

     occupation numbers 
     1.0000   1.0000   1.0000   1.0000   0.0000   0.0000   0.0000   0.0000

          k = 0.2500-0.7534 0.0000 (  2426 PWs)   bands (ev):

   -15.9147 -13.1425 -11.0060  -3.5953  -0.3873   6.3273   8.3672   8.5177

     occupation numbers 
     1.0000   1.0000   1.0000   1.0000   0.0000   0.0000   0.0000   0.0000

          k = 0.2500-0.6996 0.0000 (  2433 PWs)   bands (ev):

   -15.1851 -13.6621 -11.4916  -2.8306  -1.1325   6.2181   8.6351   9.5372

     occupation numbers 
     1.0000   1.0000   1.0000   1.0060   0.0000   0.0000   0.0000   0.0000

          k = 0.2500-0.6457 0.0000 (  2439 PWs)   bands (ev):

   -14.6642 -14.1105 -11.6574  -2.2745  -1.6807   6.1814   8.6079  10.6917

     occupation numbers 
     1.0000   1.0000   1.0000   0.8424   0.0029   0.0000   0.0000   0.0000

          k = 0.2500-0.5919 0.0000 (  2433 PWs)   bands (ev):

   -15.1856 -13.6608 -11.4925  -2.8315  -1.1313   6.2182   8.6348   9.5373

     occupation numbers 
     1.0000   1.0000   1.0000   1.0059   0.0000   0.0000   0.0000   0.0000

          k = 0.2500-0.5381 0.0000 (  2426 PWs)   bands (ev):

   -15.9149 -13.1408 -11.0075  -3.5961  -0.3860   6.3274   8.3672   8.5172

     occupation numbers 
     1.0000   1.0000   1.0000   1.0000   0.0000   0.0000   0.0000   0.0000

          k = 0.2500-0.4843 0.0000 (  2432 PWs)   bands (ev):

   -16.6293 -12.7092 -10.2797  -4.3497   0.3495   6.5067   7.2808   7.8813

     occupation numbers 
     1.0000   1.0000   1.0000   1.0000   0.0000   0.0000   0.0000   0.0000

          k = 0.2500-0.4305 0.0000 (  2431 PWs)   bands (ev):

   -17.2957 -12.3001  -9.4309  -5.0630   1.0640   6.2938   6.7548   7.0221

     occupation numbers 
     1.0000   1.0000   1.0000   1.0000   0.0000   0.0000   0.0000   0.0000

          k = 0.2500-0.3767 0.0000 (  2440 PWs)   bands (ev):

   -17.8996 -11.8630  -8.5631  -5.7192   1.7600   5.4199   6.1928   6.4878

     occupation numbers 
     1.0000   1.0000   1.0000   1.0000   0.0000   0.0000   0.0000   0.0000

          k = 0.2500-0.3229 0.0000 (  2433 PWs)   bands (ev):

   -18.4329 -11.3767  -7.7589  -6.3063   2.4408   4.6582   5.4544   5.7179

     occupation numbers 
     1.0000   1.0000   1.0000   1.0000   0.0000   0.0000   0.0000   0.0000

          k = 0.2500-0.2691 0.0000 (  2436 PWs)   bands (ev):

   -18.8901 -10.8362  -7.0999  -6.8150   3.0999   4.0112   4.8279   5.0648

     occupation numbers 
     1.0000   1.0000   1.0000   1.0000   0.0000   0.0000   0.0000   0.0000

          k = 0.2500-0.2152 0.0000 (  2424 PWs)   bands (ev):

   -19.2679 -10.2458  -7.2388  -6.6636   3.4804   3.6951   4.3497   4.5296

     occupation numbers 
     1.0000   1.0000   1.0000   1.0000   0.0000   0.0000   0.0000   0.0000

          k = 0.2917-0.1883 0.0000 (  2432 PWs)   bands (ev):

   -19.1026 -10.6570  -7.0555  -6.7999   3.3080   3.7133   4.5498   4.7640

     occupation numbers 
     1.0000   1.0000   1.0000   1.0000   0.0000   0.0000   0.0000   0.0000

          k = 0.2917-0.1345 0.0000 (  2439 PWs)   bands (ev):

   -19.3548 -10.0111  -7.3354  -6.9197   3.3594   3.7969   4.2465   4.4087

     occupation numbers 
     1.0000   1.0000   1.0000   1.0000   0.0000   0.0000   0.0000   0.0000

          k = 0.2917-0.0807 0.0000 (  2427 PWs)   bands (ev):

   -19.5238  -9.3620  -7.5237  -7.2594   3.1236   3.8768   4.1719   4.3564

     occupation numbers 
     1.0000   1.0000   1.0000   1.0000   0.0000   0.0000   0.0000   0.0000

          k = 0.2917-0.0269 0.0000 (  2421 PWs)   bands (ev):

   -19.6086  -8.8141  -7.6683  -7.6184   3.0057   3.7876   4.0535   4.5705

     occupation numbers 
     1.0000   1.0000   1.0000   1.0000   0.0000   0.0000   0.0000   0.0000

          k = 0.2917 0.0269 0.0000 (  2421 PWs)   bands (ev):

   -19.6086  -8.8151  -7.6672  -7.6183   3.0057   3.7876   4.0535   4.5703

     occupation numbers 
     1.0000   1.0000   1.0000   1.0000   0.0000   0.0000   0.0000   0.0000

          k = 0.2917 0.0807 0.0000 (  2427 PWs)   bands (ev):

   -19.5238  -9.3634  -7.5236  -7.2576   3.1235   3.8768   4.1719   4.3559

     occupation numbers 
     1.0000   1.0000   1.0000   1.0000   0.0000   0.0000   0.0000   0.0000

          k = 0.2917 0.1345 0.0000 (  2439 PWs)   bands (ev):

   -19.3549 -10.0126  -7.3352  -6.9178   3.3594   3.7966   4.2461   4.4087

     occupation numbers 
     1.0000   1.0000   1.0000   1.0000   0.0000   0.0000   0.0000   0.0000

          k = 0.2917 0.1883 0.0000 (  2432 PWs)   bands (ev):

   -19.1026 -10.6584  -7.0552  -6.7979   3.3071   3.7133   4.5496   4.7640

     occupation numbers 
     1.0000   1.0000   1.0000   1.0000   0.0000   0.0000   0.0000   0.0000

          k = 0.2917 0.2422 0.0000 (  2431 PWs)   bands (ev):

   -18.7689 -11.2682  -6.9592  -6.6872   2.7207   4.1852   5.0068   5.2386

     occupation numbers 
     1.0000   1.0000   1.0000   1.0000   0.0000   0.0000   0.0000   0.0000

          k = 0.2917 0.2960 0.0000 (  2427 PWs)   bands (ev):

   -18.3562 -11.8245  -7.3986  -6.2361   2.1058   4.7742   5.5832   5.8333

     occupation numbers 
     1.0000   1.0000   1.0000   1.0000   0.0000   0.0000   0.0000   0.0000

          k = 0.2917 0.3498 0.0000 (  2431 PWs)   bands (ev):

   -17.8686 -12.3172  -8.0601  -5.7089   1.4871   5.4784   6.2695   6.5465

     occupation numbers 
     1.0000   1.0000   1.0000   1.0000   0.0000   0.0000   0.0000   0.0000

          k = 0.2917 0.4036 0.0000 (  2445 PWs)   bands (ev):

   -17.3125 -12.7402  -8.8656  -5.1151   0.8727   6.2954   7.0515   7.3753

     occupation numbers 
     1.0000   1.0000   1.0000   1.0000   0.0000   0.0000   0.0000   0.0000

          k = 0.2917-0.8341 0.0000 (  2438 PWs)   bands (ev):

   -16.6987 -13.0914  -9.7372  -4.4672   0.2610   7.2199   7.6428   7.8827

     occupation numbers 
     1.0000   1.0000   1.0000   1.0000   0.0000   0.0000   0.0000   0.0000

          k = 0.2917-0.7803 0.0000 (  2436 PWs)   bands (ev):

   -16.0483 -13.3742 -10.5994  -3.7809  -0.3577   7.4271   8.2572   8.5435

     occupation numbers 
     1.0000   1.0000   1.0000   1.0000   0.0000   0.0000   0.0000   0.0000

          k = 0.2917-0.7265 0.0000 (  2425 PWs)   bands (ev):

   -15.4097 -13.6027 -11.3560  -3.0759  -0.9936   7.2814   8.6208   9.3739

     occupation numbers 
     1.0000   1.0000   1.0000   1.0001   0.0000   0.0000   0.0000   0.0000

          k = 0.2917-0.6726 0.0000 (  2443 PWs)   bands (ev):

   -14.9217 -13.7837 -11.8413  -2.3822  -1.6445   7.2066   8.4931  10.5226

     occupation numbers 
     1.0000   1.0000   1.0000   1.0294   0.0015   0.0000   0.0000   0.0000

          k = 0.2917-0.6188 0.0000 (  2443 PWs)   bands (ev):

   -14.9222 -13.7827 -11.8419  -2.3834  -1.6431   7.2067   8.4929  10.5229

     occupation numbers 
     1.0000   1.0000   1.0000   1.0307   0.0015   0.0000   0.0000   0.0000

          k = 0.2917-0.5650 0.0000 (  2425 PWs)   bands (ev):

   -15.4102 -13.6009 -11.3574  -3.0770  -0.9921   7.2816   8.6202   9.3741

     occupation numbers 
     1.0000   1.0000   1.0000   1.0001   0.0000   0.0000   0.0000   0.0000

          k = 0.2917-0.5112 0.0000 (  2436 PWs)   bands (ev):

   -16.0487 -13.3725 -10.6010  -3.7819  -0.3560   7.4276   8.2573   8.5430

     occupation numbers 
     1.0000   1.0000   1.0000   1.0000   0.0000   0.0000   0.0000   0.0000

          k = 0.2917-0.4574 0.0000 (  2438 PWs)   bands (ev):

   -16.6989 -13.0898  -9.7389  -4.4680   0.2626   7.2198   7.6438   7.8826

     occupation numbers 
     1.0000   1.0000   1.0000   1.0000   0.0000   0.0000   0.0000   0.0000

          k = 0.2917-0.4036 0.0000 (  2445 PWs)   bands (ev):

   -17.3126 -12.7387  -8.8674  -5.1158   0.8742   6.2954   7.0515   7.3753

     occupation numbers 
     1.0000   1.0000   1.0000   1.0000   0.0000   0.0000   0.0000   0.0000

          k = 0.2917-0.3498 0.0000 (  2431 PWs)   bands (ev):

   -17.8687 -12.3157  -8.0619  -5.7095   1.4885   5.4784   6.2695   6.5465

     occupation numbers 
     1.0000   1.0000   1.0000   1.0000   0.0000   0.0000   0.0000   0.0000

          k = 0.2917-0.2960 0.0000 (  2427 PWs)   bands (ev):

   -18.3562 -11.8231  -7.4005  -6.2365   2.1070   4.7742   5.5832   5.8333

     occupation numbers 
     1.0000   1.0000   1.0000   1.0000   0.0000   0.0000   0.0000   0.0000

          k = 0.2917-0.2422 0.0000 (  2431 PWs)   bands (ev):

   -18.7689 -11.2667  -6.9612  -6.6875   2.7217   4.1852   5.0069   5.2386

     occupation numbers 
     1.0000   1.0000   1.0000   1.0000   0.0000   0.0000   0.0000   0.0000

          k = 0.3333-0.2152 0.0000 (  2431 PWs)   bands (ev):

   -18.5791 -11.6740  -7.0578  -6.4837   2.3041   4.4560   5.2811   5.5039

     occupation numbers 
     1.0000   1.0000   1.0000   1.0000   0.0000   0.0000   0.0000   0.0000

          k = 0.3333-0.1614 0.0000 (  2430 PWs)   bands (ev):

   -18.8683 -11.0410  -7.1843  -6.7938   2.8584   4.0449   4.8676   5.0986

     occupation numbers 
     1.0000   1.0000   1.0000   1.0000   0.0000   0.0000   0.0000   0.0000

          k = 0.3333-0.1076 0.0000 (  2436 PWs)   bands (ev):

   -19.0767 -10.3767  -7.5465  -7.0190   3.3425   3.7513   4.5659   4.8050

     occupation numbers 
     1.0000   1.0000   1.0000   1.0000   0.0000   0.0000   0.0000   0.0000

          k = 0.3333-0.0538 0.0000 (  2431 PWs)   bands (ev):

   -19.2023  -9.7330  -8.0384  -7.1554   3.5751   3.6923   4.3731   4.6283

     occupation numbers 
     1.0000   1.0000   1.0000   1.0000   0.0000   0.0000   0.0000   0.0000

          k = 0.3333-0.0000 0.0000 (  2429 PWs)   bands (ev):

   -19.2443  -9.3589  -8.3673  -7.2010   3.5164   3.8290   4.2995   4.5693

     occupation numbers 
     1.0000   1.0000   1.0000   1.0000   0.0000   0.0000   0.0000   0.0000

          k = 0.3333 0.0538 0.0000 (  2431 PWs)   bands (ev):

   -19.2023  -9.7343  -8.0370  -7.1553   3.5751   3.6920   4.3730   4.6283

     occupation numbers 
     1.0000   1.0000   1.0000   1.0000   0.0000   0.0000   0.0000   0.0000

          k = 0.3333 0.1076 0.0000 (  2436 PWs)   bands (ev):

   -19.0767 -10.3781  -7.5447  -7.0188   3.3419   3.7513   4.5658   4.8050

     occupation numbers 
     1.0000   1.0000   1.0000   1.0000   0.0000   0.0000   0.0000   0.0000

          k = 0.3333 0.1614 0.0000 (  2430 PWs)   bands (ev):

   -18.8684 -11.0423  -7.1824  -6.7935   2.8576   4.0449   4.8675   5.0986

     occupation numbers 
     1.0000   1.0000   1.0000   1.0000   0.0000   0.0000   0.0000   0.0000

          k = 0.3333 0.2152 0.0000 (  2431 PWs)   bands (ev):

   -18.5791 -11.6753  -7.0559  -6.4833   2.3030   4.4560   5.2810   5.5040

     occupation numbers 
     1.0000   1.0000   1.0000   1.0000   0.0000   0.0000   0.0000   0.0000

          k = 0.3333 0.2691 0.0000 (  2433 PWs)   bands (ev):

   -18.2120 -12.2546  -7.2167  -6.0936   1.7255   4.9849   5.8067   5.9616

     occupation numbers 
     1.0000   1.0000   1.0000   1.0000   0.0000   0.0000   0.0000   0.0000

          k = 0.3333 0.3229 0.0000 (  2437 PWs)   bands (ev):

   -17.7717 -12.7660  -7.6560  -5.6328   1.1559   5.6315   6.4417   6.4533

     occupation numbers 
     1.0000   1.0000   1.0000   1.0000   0.0000   0.0000   0.0000   0.0000

          k = 0.3333 0.3767 0.0000 (  2441 PWs)   bands (ev):

   -17.2667 -13.1978  -8.3146  -5.1122   0.6115   6.3926   7.1768   7.1985

     occupation numbers 
     1.0000   1.0000   1.0000   1.0000   0.0000   0.0000   0.0000   0.0000

          k = 0.3333-0.8610 0.0000 (  2440 PWs)   bands (ev):

   -16.7124 -13.5361  -9.1137  -4.5483   0.0989   7.2626   7.9799   8.0468

     occupation numbers 
     1.0000   1.0000   1.0000   1.0000   0.0000   0.0000   0.0000   0.0000

          k = 0.3333-0.8072 0.0000 (  2430 PWs)   bands (ev):

   -16.1417 -13.7571  -9.9779  -3.9635  -0.3828   8.1984   8.3297   8.6875

     occupation numbers 
     1.0000   1.0000   1.0000   1.0000   0.0000   0.0000   0.0000   0.0000

          k = 0.3333-0.7534 0.0000 (  2436 PWs)   bands (ev):

   -15.6276 -13.8119 -10.8349  -3.3920  -0.8353   8.1541   8.7823   9.3098

     occupation numbers 
     1.0000   1.0000   1.0000   1.0000   0.0000   0.0000   0.0000   0.0000

          k = 0.3333-0.6996 0.0000 (  2423 PWs)   bands (ev):

   -15.2916 -13.6523 -11.5803  -2.8985  -1.2339   8.0499   8.5382  10.4150

     occupation numbers 
     1.0000   1.0000   1.0000   1.0022   0.0000   0.0000   0.0000   0.0000

          k = 0.3333-0.6457 0.0000 (  2431 PWs)   bands (ev):

   -15.1881 -13.4825 -11.9388  -2.6645  -1.4318   8.0129   8.4265  10.7538

     occupation numbers 
     1.0000   1.0000   1.0000   1.0373   0.0000   0.0000   0.0000   0.0000

          k = 0.3333-0.5919 0.0000 (  2423 PWs)   bands (ev):

   -15.2921 -13.6506 -11.5815  -2.8996  -1.2326   8.0502   8.5379  10.4153

     occupation numbers 
     1.0000   1.0000   1.0000   1.0022   0.0000   0.0000   0.0000   0.0000

          k = 0.3333-0.5381 0.0000 (  2436 PWs)   bands (ev):

   -15.6282 -13.8100 -10.8363  -3.3932  -0.8335   8.1548   8.7817   9.3101

     occupation numbers 
     1.0000   1.0000   1.0000   1.0000   0.0000   0.0000   0.0000   0.0000

          k = 0.3333-0.4843 0.0000 (  2430 PWs)   bands (ev):

   -16.1421 -13.7554  -9.9795  -3.9646  -0.3810   8.1985   8.3313   8.6871

     occupation numbers 
     1.0000   1.0000   1.0000   1.0000   0.0000   0.0000   0.0000   0.0000

          k = 0.3333-0.4305 0.0000 (  2440 PWs)   bands (ev):

   -16.7126 -13.5346  -9.1154  -4.5492   0.1007   7.2626   7.9798   8.0485

     occupation numbers 
     1.0000   1.0000   1.0000   1.0000   0.0000   0.0000   0.0000   0.0000

          k = 0.3333-0.3767 0.0000 (  2441 PWs)   bands (ev):

   -17.2668 -13.1964  -8.3163  -5.1130   0.6131   6.3926   7.1767   7.1986

     occupation numbers 
     1.0000   1.0000   1.0000   1.0000   0.0000   0.0000   0.0000   0.0000

          k = 0.3333-0.3229 0.0000 (  2437 PWs)   bands (ev):

   -17.7718 -12.7647  -7.6578  -5.6334   1.1574   5.6315   6.4417   6.4531

     occupation numbers 
     1.0000   1.0000   1.0000   1.0000   0.0000   0.0000   0.0000   0.0000

          k = 0.3333-0.2691 0.0000 (  2433 PWs)   bands (ev):

   -18.2120 -12.2532  -7.2186  -6.0941   1.7268   4.9849   5.8068   5.9614

     occupation numbers 
     1.0000   1.0000   1.0000   1.0000   0.0000   0.0000   0.0000   0.0000

          k = 0.3750-0.2422 0.0000 (  2436 PWs)   bands (ev):

   -18.0022 -12.6463  -7.2669  -5.8815   1.3316   5.2839   5.8661   6.1245

     occupation numbers 
     1.0000   1.0000   1.0000   1.0000   0.0000   0.0000   0.0000   0.0000

          k = 0.3750-0.1883 0.0000 (  2438 PWs)   bands (ev):

   -18.3227 -12.0419  -7.3994  -6.2057   1.8692   4.8241   5.6504   5.8617

     occupation numbers 
     1.0000   1.0000   1.0000   1.0000   0.0000   0.0000   0.0000   0.0000

          k = 0.3750-0.1345 0.0000 (  2438 PWs)   bands (ev):

   -18.5669 -11.3852  -7.7783  -6.4564   2.3760   4.4751   5.2876   5.5347

     occupation numbers 
     1.0000   1.0000   1.0000   1.0000   0.0000   0.0000   0.0000   0.0000

          k = 0.3750-0.0807 0.0000 (  2433 PWs)   bands (ev):

   -18.7313 -10.7075  -8.3153  -6.6269   2.7887   4.2416   5.0377   5.3017

     occupation numbers 
     1.0000   1.0000   1.0000   1.0000   0.0000   0.0000   0.0000   0.0000

          k = 0.3750-0.0269 0.0000 (  2431 PWs)   bands (ev):

   -18.8140 -10.1132  -8.8538  -6.7131   3.0281   4.1246   4.9070   5.1843

     occupation numbers 
     1.0000   1.0000   1.0000   1.0000   0.0000   0.0000   0.0000   0.0000

          k = 0.3750 0.0269 0.0000 (  2431 PWs)   bands (ev):

   -18.8140 -10.1141  -8.8529  -6.7131   3.0279   4.1246   4.9070   5.1843

     occupation numbers 
     1.0000   1.0000   1.0000   1.0000   0.0000   0.0000   0.0000   0.0000

          k = 0.3750 0.0807 0.0000 (  2433 PWs)   bands (ev):

   -18.7313 -10.7088  -8.3138  -6.6268   2.7882   4.2415   5.0376   5.3017

     occupation numbers 
     1.0000   1.0000   1.0000   1.0000   0.0000   0.0000   0.0000   0.0000

          k = 0.3750 0.1345 0.0000 (  2438 PWs)   bands (ev):

   -18.5669 -11.3865  -7.7766  -6.4561   2.3752   4.4751   5.2876   5.5347

     occupation numbers 
     1.0000   1.0000   1.0000   1.0000   0.0000   0.0000   0.0000   0.0000

          k = 0.3750 0.1883 0.0000 (  2438 PWs)   bands (ev):

   -18.3227 -12.0432  -7.3976  -6.2053   1.8681   4.8240   5.6504   5.8617

     occupation numbers 
     1.0000   1.0000   1.0000   1.0000   0.0000   0.0000   0.0000   0.0000

          k = 0.3750 0.2422 0.0000 (  2436 PWs)   bands (ev):

   -18.0022 -12.6476  -7.2651  -5.8810   1.3303   5.2839   5.8663   6.1245

     occupation numbers 
     1.0000   1.0000   1.0000   1.0000   0.0000   0.0000   0.0000   0.0000

          k = 0.3750 0.2960 0.0000 (  2436 PWs)   bands (ev):

   -17.6117 -13.1813  -7.4241  -5.4935   0.8060   5.8238   6.0182   6.7079

     occupation numbers 
     1.0000   1.0000   1.0000   1.0000   0.0000   0.0000   0.0000   0.0000

          k = 0.3750 0.3498 0.0000 (  2443 PWs)   bands (ev):

   -17.1628 -13.6271  -7.8606  -5.0582   0.3254   6.3955   6.6156   7.3947

     occupation numbers 
     1.0000   1.0000   1.0000   1.0000   0.0000   0.0000   0.0000   0.0000

          k = 0.3750-0.8879 0.0000 (  2445 PWs)   bands (ev):

   -16.6797 -13.9596  -8.5118  -4.5974  -0.0910   7.1732   7.4086   8.1640

     occupation numbers 
     1.0000   1.0000   1.0000   1.0000   0.0000   0.0000   0.0000   0.0000

          k = 0.3750-0.8341 0.0000 (  2444 PWs)   bands (ev):

   -16.2157 -14.1288  -9.2987  -4.1427  -0.4293   8.0610   8.3099   8.9041

     occupation numbers 
     1.0000   1.0000   1.0000   1.0000   0.0000   0.0000   0.0000   0.0000

          k = 0.3750-0.7803 0.0000 (  2438 PWs)   bands (ev):

   -15.8704 -14.0459 -10.1466  -3.7361  -0.6805   8.4598   9.0329   9.3153

     occupation numbers 
     1.0000   1.0000   1.0000   1.0000   0.0000   0.0000   0.0000   0.0000

          k = 0.3750-0.7265 0.0000 (  2431 PWs)   bands (ev):

   -15.7106 -13.6745 -10.9802  -3.4269  -0.8419   8.3801   8.6815   9.9453

     occupation numbers 
     1.0000   1.0000   1.0000   1.0000   0.0000   0.0000   0.0000   0.0000

          k = 0.3750-0.6726 0.0000 (  2423 PWs)   bands (ev):

   -15.6688 -13.2038 -11.6504  -3.2596  -0.9182   8.3048   8.4391   9.8998

     occupation numbers 
     1.0000   1.0000   1.0000   1.0000   0.0000   0.0000   0.0000   0.0000

          k = 0.3750-0.6188 0.0000 (  2423 PWs)   bands (ev):

   -15.6689 -13.2029 -11.6512  -3.2600  -0.9176   8.3050   8.4389   9.8999

     occupation numbers 
     1.0000   1.0000   1.0000   1.0000   0.0000   0.0000   0.0000   0.0000

          k = 0.3750-0.5650 0.0000 (  2431 PWs)   bands (ev):

   -15.7111 -13.6728 -10.9815  -3.4279  -0.8405   8.3806   8.6811   9.9457

     occupation numbers 
     1.0000   1.0000   1.0000   1.0000   0.0000   0.0000   0.0000   0.0000

          k = 0.3750-0.5112 0.0000 (  2438 PWs)   bands (ev):

   -15.8711 -14.0440 -10.1481  -3.7374  -0.6786   8.4610   9.0324   9.3153

     occupation numbers 
     1.0000   1.0000   1.0000   1.0000   0.0000   0.0000   0.0000   0.0000

          k = 0.3750-0.4574 0.0000 (  2444 PWs)   bands (ev):

   -16.2162 -14.1270  -9.3002  -4.1440  -0.4273   8.0620   8.3098   8.9038

     occupation numbers 
     1.0000   1.0000   1.0000   1.0000   0.0000   0.0000   0.0000   0.0000

          k = 0.3750-0.4036 0.0000 (  2445 PWs)   bands (ev):

   -16.6800 -13.9581  -8.5134  -4.5985  -0.0891   7.1733   7.4086   8.1639

     occupation numbers 
     1.0000   1.0000   1.0000   1.0000   0.0000   0.0000   0.0000   0.0000

          k = 0.3750-0.3498 0.0000 (  2443 PWs)   bands (ev):

   -17.1630 -13.6257  -7.8623  -5.0591   0.3272   6.3953   6.6156   7.3947

     occupation numbers 
     1.0000   1.0000   1.0000   1.0000   0.0000   0.0000   0.0000   0.0000

          k = 0.3750-0.2960 0.0000 (  2436 PWs)   bands (ev):

   -17.6117 -13.1800  -7.4259  -5.4942   0.8076   5.8238   6.0180   6.7079

     occupation numbers 
     1.0000   1.0000   1.0000   1.0000   0.0000   0.0000   0.0000   0.0000

          k = 0.4167-0.2691 0.0000 (  2449 PWs)   bands (ev):

   -17.3932 -13.5434  -7.4206  -5.2969   0.4686   5.7567   6.2717   7.0666

     occupation numbers 
     1.0000   1.0000   1.0000   1.0000   0.0000   0.0000   0.0000   0.0000

          k = 0.4167-0.2152 0.0000 (  2439 PWs)   bands (ev):

   -17.7302 -12.9886  -7.5586  -5.6024   0.9419   5.6681   6.0915   6.5347

     occupation numbers 
     1.0000   1.0000   1.0000   1.0000   0.0000   0.0000   0.0000   0.0000

          k = 0.4167-0.1614 0.0000 (  2440 PWs)   bands (ev):

   -18.0023 -12.3599  -7.9511  -5.8570   1.4295   5.2898   6.1124   6.3357

     occupation numbers 
     1.0000   1.0000   1.0000   1.0000   0.0000   0.0000   0.0000   0.0000

          k = 0.4167-0.1076 0.0000 (  2438 PWs)   bands (ev):

   -18.2009 -11.6824  -8.5184  -6.0469   1.8708   5.0022   5.8023   6.0711

     occupation numbers 
     1.0000   1.0000   1.0000   1.0000   0.0000   0.0000   0.0000   0.0000

          k = 0.4167-0.0538 0.0000 (  2436 PWs)   bands (ev):

   -18.3215 -11.0070  -9.1527  -6.1641   2.1892   4.8280   5.6095   5.8972

     occupation numbers 
     1.0000   1.0000   1.0000   1.0000   0.0000   0.0000   0.0000   0.0000

          k = 0.4167-0.0000 0.0000 (  2431 PWs)   bands (ev):

   -18.3620 -10.5993  -9.5512  -6.2035   2.3069   4.7697   5.5433   5.8388

     occupation numbers 
     1.0000   1.0000   1.0000   1.0000   0.0000   0.0000   0.0000   0.0000

          k = 0.4167 0.0538 0.0000 (  2436 PWs)   bands (ev):

   -18.3215 -11.0081  -9.1515  -6.1639   2.1888   4.8280   5.6095   5.8972

     occupation numbers 
     1.0000   1.0000   1.0000   1.0000   0.0000   0.0000   0.0000   0.0000

          k = 0.4167 0.1076 0.0000 (  2438 PWs)   bands (ev):

   -18.2009 -11.6836  -8.5168  -6.0466   1.8700   5.0022   5.8023   6.0710

     occupation numbers 
     1.0000   1.0000   1.0000   1.0000   0.0000   0.0000   0.0000   0.0000

          k = 0.4167 0.1614 0.0000 (  2440 PWs)   bands (ev):

   -18.0023 -12.3612  -7.9495  -5.8565   1.4284   5.2898   6.1124   6.3357

     occupation numbers 
     1.0000   1.0000   1.0000   1.0000   0.0000   0.0000   0.0000   0.0000

          k = 0.4167 0.2152 0.0000 (  2439 PWs)   bands (ev):

   -17.7301 -12.9899  -7.5569  -5.6018   0.9405   5.6681   6.0917   6.5347

     occupation numbers 
     1.0000   1.0000   1.0000   1.0000   0.0000   0.0000   0.0000   0.0000

          k = 0.4167 0.2691 0.0000 (  2449 PWs)   bands (ev):

   -17.3931 -13.5447  -7.4189  -5.2961   0.4670   5.7568   6.2717   7.0666

     occupation numbers 
     1.0000   1.0000   1.0000   1.0000   0.0000   0.0000   0.0000   0.0000

          k = 0.4167 0.3229 0.0000 (  2450 PWs)   bands (ev):

   -17.0090 -14.0003  -7.5751  -4.9599   0.0536   5.9029   6.8928   7.7039

     occupation numbers 
     1.0000   1.0000   1.0000   1.0000   0.0000   0.0000   0.0000   0.0000

          k = 0.4167-0.9148 0.0000 (  2445 PWs)   bands (ev):

   -16.6177 -14.3137  -8.0060  -4.6226  -0.2632   6.4050   7.6378   8.4331

     occupation numbers 
     1.0000   1.0000   1.0000   1.0000   0.0000   0.0000   0.0000   0.0000

          k = 0.4167-0.8610 0.0000 (  2446 PWs)   bands (ev):

   -16.3028 -14.4024  -8.6464  -4.3206  -0.4567   7.1855   8.4717   8.8743

     occupation numbers 
     1.0000   1.0000   1.0000   1.0000   0.0000   0.0000   0.0000   0.0000

          k = 0.4167-0.8072 0.0000 (  2444 PWs)   bands (ev):

   -16.1587 -14.1778  -9.4162  -4.0876  -0.5192   7.9941   8.6170   9.0758

     occupation numbers 
     1.0000   1.0000   1.0000   1.0000   0.0000   0.0000   0.0000   0.0000

          k = 0.4167-0.7534 0.0000 (  2436 PWs)   bands (ev):

   -16.1556 -13.6846 -10.2395  -3.9383  -0.4798   8.0320   8.6565   9.1461

     occupation numbers 
     1.0000   1.0000   1.0000   1.0000   0.0000   0.0000   0.0000   0.0000

          k = 0.4167-0.6996 0.0000 (  2424 PWs)   bands (ev):

   -16.1917 -13.0736 -11.0259  -3.8626  -0.4057   7.8964   8.3464   9.1327

     occupation numbers 
     1.0000   1.0000   1.0000   1.0000   0.0000   0.0000   0.0000   0.0000

          k = 0.4167-0.6457 0.0000 (  2417 PWs)   bands (ev):

   -16.2088 -12.6816 -11.4735  -3.8405  -0.3702   7.8461   8.2312   9.0864

     occupation numbers 
     1.0000   1.0000   1.0000   1.0000   0.0000   0.0000   0.0000   0.0000

          k = 0.4167-0.5919 0.0000 (  2424 PWs)   bands (ev):

   -16.1918 -13.0723 -11.0270  -3.8631  -0.4049   7.8966   8.3462   9.1328

     occupation numbers 
     1.0000   1.0000   1.0000   1.0000   0.0000   0.0000   0.0000   0.0000

          k = 0.4167-0.5381 0.0000 (  2436 PWs)   bands (ev):

   -16.1560 -13.6830 -10.2408  -3.9392  -0.4783   8.0324   8.6563   9.1466

     occupation numbers 
     1.0000   1.0000   1.0000   1.0000   0.0000   0.0000   0.0000   0.0000

          k = 0.4167-0.4843 0.0000 (  2444 PWs)   bands (ev):

   -16.1592 -14.1760  -9.4177  -4.0888  -0.5172   7.9949   8.6162   9.0755

     occupation numbers 
     1.0000   1.0000   1.0000   1.0000   0.0000   0.0000   0.0000   0.0000

          k = 0.4167-0.4305 0.0000 (  2446 PWs)   bands (ev):

   -16.3034 -14.4007  -8.6479  -4.3219  -0.4546   7.1856   8.4717   8.8741

     occupation numbers 
     1.0000   1.0000   1.0000   1.0000   0.0000   0.0000   0.0000   0.0000

          k = 0.4167-0.3767 0.0000 (  2445 PWs)   bands (ev):

   -16.6181 -14.3121  -8.0077  -4.6238  -0.2612   6.4048   7.6379   8.4330

     occupation numbers 
     1.0000   1.0000   1.0000   1.0000   0.0000   0.0000   0.0000   0.0000

          k = 0.4167-0.3229 0.0000 (  2450 PWs)   bands (ev):

   -17.0093 -13.9988  -7.5768  -4.9610   0.0554   5.9026   6.8929   7.7039

     occupation numbers 
     1.0000   1.0000   1.0000   1.0000   0.0000   0.0000   0.0000   0.0000

          k = 0.4583-0.2960 0.0000 (  2452 PWs)   bands (ev):

   -16.8195 -14.2921  -7.5145  -4.8276  -0.1727   5.7313   7.2775   8.1025

     occupation numbers 
     1.0000   1.0000   1.0000   1.0000   0.0000   0.0000   0.0000   0.0000

          k = 0.4583-0.2422 0.0000 (  2441 PWs)   bands (ev):

   -17.1233 -13.8406  -7.6577  -5.0480   0.1601   5.9493   6.7143   7.5145

     occupation numbers 
     1.0000   1.0000   1.0000   1.0000   0.0000   0.0000   0.0000   0.0000

          k = 0.4583-0.1883 0.0000 (  2435 PWs)   bands (ev):

   -17.4005 -13.2705  -8.0619  -5.2617   0.5681   6.1581   6.6176   7.0326

     occupation numbers 
     1.0000   1.0000   1.0000   1.0000   0.0000   0.0000   0.0000   0.0000

          k = 0.4583-0.1345 0.0000 (  2438 PWs)   bands (ev):

   -17.6218 -12.6214  -8.6525  -5.4418   0.9881   5.8499   6.6602   6.9186

     occupation numbers 
     1.0000   1.0000   1.0000   1.0000   0.0000   0.0000   0.0000   0.0000

          k = 0.4583-0.0807 0.0000 (  2430 PWs)   bands (ev):

   -17.7741 -11.9307  -9.3386  -5.5705   1.3441   5.6220   6.4022   6.7044

     occupation numbers 
     1.0000   1.0000   1.0000   1.0000   0.0000   0.0000   0.0000   0.0000

          k = 0.4583-0.0269 0.0000 (  2425 PWs)   bands (ev):

   -17.8515 -11.3063  -9.9715  -5.6374   1.5525   5.5066   6.2680   6.5892

     occupation numbers 
     1.0000   1.0000   1.0000   1.0000   0.0000   0.0000   0.0000   0.0000

          k = 0.4583 0.0269 0.0000 (  2425 PWs)   bands (ev):

   -17.8515 -11.3071  -9.9706  -5.6373   1.5523   5.5066   6.2680   6.5892

     occupation numbers 
     1.0000   1.0000   1.0000   1.0000   0.0000   0.0000   0.0000   0.0000

          k = 0.4583 0.0807 0.0000 (  2430 PWs)   bands (ev):

   -17.7741 -11.9319  -9.3373  -5.5702   1.3434   5.6219   6.4022   6.7044

     occupation numbers 
     1.0000   1.0000   1.0000   1.0000   0.0000   0.0000   0.0000   0.0000

          k = 0.4583 0.1345 0.0000 (  2438 PWs)   bands (ev):

   -17.6217 -12.6226  -8.6510  -5.4413   0.9870   5.8498   6.6602   6.9185

     occupation numbers 
     1.0000   1.0000   1.0000   1.0000   0.0000   0.0000   0.0000   0.0000

          k = 0.4583 0.1883 0.0000 (  2435 PWs)   bands (ev):

   -17.4004 -13.2718  -8.0603  -5.2610   0.5666   6.1580   6.6179   7.0326

     occupation numbers 
     1.0000   1.0000   1.0000   1.0000   0.0000   0.0000   0.0000   0.0000

          k = 0.4583 0.2422 0.0000 (  2441 PWs)   bands (ev):

   -17.1231 -13.8419  -7.6560  -5.0471   0.1584   5.9495   6.7144   7.5145

     occupation numbers 
     1.0000   1.0000   1.0000   1.0000   0.0000   0.0000   0.0000   0.0000

          k = 0.4583 0.2960 0.0000 (  2452 PWs)   bands (ev):

   -16.8192 -14.2936  -7.5128  -4.8265  -0.1747   5.7315   7.2775   8.1025

     occupation numbers 
     1.0000   1.0000   1.0000   1.0000   0.0000   0.0000   0.0000   0.0000

          k = 0.4583-0.9417 0.0000 (  2448 PWs)   bands (ev):

   -16.5550 -14.5559  -7.6653  -4.6327  -0.3819   5.8962   7.9608   8.8555

     occupation numbers 
     1.0000   1.0000   1.0000   1.0000   0.0000   0.0000   0.0000   0.0000

          k = 0.4583-0.8879 0.0000 (  2455 PWs)   bands (ev):

   -16.4352 -14.5239  -8.0890  -4.4973  -0.4329   6.4232   8.2787   8.7813

     occupation numbers 
     1.0000   1.0000   1.0000   1.0000   0.0000   0.0000   0.0000   0.0000

          k = 0.4583-0.8341 0.0000 (  2450 PWs)   bands (ev):

   -16.4828 -14.1777  -8.7154  -4.4317  -0.3333   7.1904   7.8833   8.6175

     occupation numbers 
     1.0000   1.0000   1.0000   1.0000   0.0000   0.0000   0.0000   0.0000

          k = 0.4583-0.7803 0.0000 (  2438 PWs)   bands (ev):

   -16.5997 -13.6244  -9.4635  -4.4210  -0.1344   7.3999   8.2058   8.2603

     occupation numbers 
     1.0000   1.0000   1.0000   1.0000   0.0000   0.0000   0.0000   0.0000

          k = 0.4583-0.7265 0.0000 (  2423 PWs)   bands (ev):

   -16.7054 -12.9687 -10.2518  -4.4359   0.0794   7.2016   7.9011   8.3402

     occupation numbers 
     1.0000   1.0000   1.0000   1.0000   0.0000   0.0000   0.0000   0.0000

          k = 0.4583-0.6726 0.0000 (  2416 PWs)   bands (ev):

   -16.7645 -12.3503 -10.9390  -4.4504   0.2172   7.0921   7.7330   8.2359

     occupation numbers 
     1.0000   1.0000   1.0000   1.0000   0.0000   0.0000   0.0000   0.0000

          k = 0.4583-0.6188 0.0000 (  2416 PWs)   bands (ev):

   -16.7645 -12.3495 -10.9398  -4.4506   0.2175   7.0921   7.7330   8.2359

     occupation numbers 
     1.0000   1.0000   1.0000   1.0000   0.0000   0.0000   0.0000   0.0000

          k = 0.4583-0.5650 0.0000 (  2423 PWs)   bands (ev):

   -16.7055 -12.9674 -10.2530  -4.4364   0.0803   7.2017   7.9011   8.3403

     occupation numbers 
     1.0000   1.0000   1.0000   1.0000   0.0000   0.0000   0.0000   0.0000

          k = 0.4583-0.5112 0.0000 (  2438 PWs)   bands (ev):

   -16.6000 -13.6230  -9.4649  -4.4218  -0.1329   7.4002   8.2057   8.2604

     occupation numbers 
     1.0000   1.0000   1.0000   1.0000   0.0000   0.0000   0.0000   0.0000

          k = 0.4583-0.4574 0.0000 (  2450 PWs)   bands (ev):

   -16.4832 -14.1761  -8.7169  -4.4328  -0.3314   7.1906   7.8830   8.6174

     occupation numbers 
     1.0000   1.0000   1.0000   1.0000   0.0000   0.0000   0.0000   0.0000

          k = 0.4583-0.4036 0.0000 (  2455 PWs)   bands (ev):

   -16.4358 -14.5221  -8.0906  -4.4986  -0.4308   6.4230   8.2786   8.7814

     occupation numbers 
     1.0000   1.0000   1.0000   1.0000   0.0000   0.0000   0.0000   0.0000

          k = 0.4583-0.3498 0.0000 (  2448 PWs)   bands (ev):

   -16.5556 -14.5542  -7.6670  -4.6340  -0.3798   5.8960   7.9608   8.8555

     occupation numbers 
     1.0000   1.0000   1.0000   1.0000   0.0000   0.0000   0.0000   0.0000

          k =-0.5000 0.3229 0.0000 (  2458 PWs)   bands (ev):

   -16.5284 -14.6419  -7.5461  -4.6365  -0.4219   5.7181   8.2951   8.4656

     occupation numbers 
     1.0000   1.0000   1.0000   1.0000   0.0000   0.0000   0.0000   0.0000

          k =-0.5000 0.3767 0.0000 (  2448 PWs)   bands (ev):

   -16.6173 -14.4777  -7.6940  -4.6699  -0.3379   5.9146   7.7482   8.5839

     occupation numbers 
     1.0000   1.0000   1.0000   1.0000   0.0000   0.0000   0.0000   0.0000

          k =-0.5000 0.4305 0.0000 (  2445 PWs)   bands (ev):

   -16.8137 -14.0573  -8.1087  -4.7565  -0.1075   6.4538   7.2538   8.0424

     occupation numbers 
     1.0000   1.0000   1.0000   1.0000   0.0000   0.0000   0.0000   0.0000

          k =-0.5000 0.4843 0.0000 (  2437 PWs)   bands (ev):

   -17.0202 -13.4842  -8.7187  -4.8655   0.2117   6.7486   7.3695   7.6047

     occupation numbers 
     1.0000   1.0000   1.0000   1.0000   0.0000   0.0000   0.0000   0.0000

          k =-0.5000 0.5381 0.0000 (  2427 PWs)   bands (ev):

   -17.1867 -12.8230  -9.4397  -4.9658   0.5414   6.4948   7.2758   7.5910

     occupation numbers 
     1.0000   1.0000   1.0000   1.0000   0.0000   0.0000   0.0000   0.0000

          k =-0.5000 0.5919 0.0000 (  2418 PWs)   bands (ev):

   -17.2922 -12.1396 -10.1741  -5.0345   0.7931   6.3259   7.0664   7.4299

     occupation numbers 
     1.0000   1.0000   1.0000   1.0000   0.0000   0.0000   0.0000   0.0000

          k =-0.5000 0.6457 0.0000 (  2425 PWs)   bands (ev):

   -17.3281 -11.7159 -10.6176  -5.0587   0.8878   6.2688   6.9933   7.3729

     occupation numbers 
     1.0000   1.0000   1.0000   1.0000   0.0000   0.0000   0.0000   0.0000

          k =-0.5000 0.6996 0.0000 (  2418 PWs)   bands (ev):

   -17.2921 -12.1407 -10.1730  -5.0342   0.7925   6.3259   7.0664   7.4299

     occupation numbers 
     1.0000   1.0000   1.0000   1.0000   0.0000   0.0000   0.0000   0.0000

          k =-0.5000 0.7534 0.0000 (  2427 PWs)   bands (ev):

   -17.1866 -12.8243  -9.4383  -4.9653   0.5403   6.4947   7.2758   7.5910

     occupation numbers 
     1.0000   1.0000   1.0000   1.0000   0.0000   0.0000   0.0000   0.0000

          k =-0.5000 0.8072 0.0000 (  2437 PWs)   bands (ev):

   -17.0200 -13.4855  -8.7171  -4.8647   0.2102   6.7484   7.3697   7.6047

     occupation numbers 
     1.0000   1.0000   1.0000   1.0000   0.0000   0.0000   0.0000   0.0000

          k =-0.5000 0.8610 0.0000 (  2445 PWs)   bands (ev):

   -16.8134 -14.0588  -8.1071  -4.7555  -0.1093   6.4539   7.2539   8.0424

     occupation numbers 
     1.0000   1.0000   1.0000   1.0000   0.0000   0.0000   0.0000   0.0000

          k =-0.5000 0.9148 0.0000 (  2448 PWs)   bands (ev):

   -16.6168 -14.4794  -7.6923  -4.6687  -0.3399   5.9148   7.7482   8.5840

     occupation numbers 
     1.0000   1.0000   1.0000   1.0000   0.0000   0.0000   0.0000   0.0000

          k =-0.5000-0.3229 0.0000 (  2458 PWs)   bands (ev):

   -16.5278 -14.6436  -7.5444  -4.6352  -0.4241   5.7183   8.2951   8.4656

     occupation numbers 
     1.0000   1.0000   1.0000   1.0000   0.0000   0.0000   0.0000   0.0000

          k =-0.5000-0.2691 0.0000 (  2448 PWs)   bands (ev):

   -16.6168 -14.4794  -7.6923  -4.6687  -0.3399   5.9148   7.7482   8.5840

     occupation numbers 
     1.0000   1.0000   1.0000   1.0000   0.0000   0.0000   0.0000   0.0000

          k =-0.5000-0.2152 0.0000 (  2445 PWs)   bands (ev):

   -16.8134 -14.0588  -8.1071  -4.7555  -0.1093   6.4539   7.2539   8.0424

     occupation numbers 
     1.0000   1.0000   1.0000   1.0000   0.0000   0.0000   0.0000   0.0000

          k =-0.5000-0.1614 0.0000 (  2437 PWs)   bands (ev):

   -17.0200 -13.4855  -8.7171  -4.8647   0.2102   6.7484   7.3697   7.6047

     occupation numbers 
     1.0000   1.0000   1.0000   1.0000   0.0000   0.0000   0.0000   0.0000

          k =-0.5000-0.1076 0.0000 (  2427 PWs)   bands (ev):

   -17.1866 -12.8243  -9.4383  -4.9653   0.5403   6.4947   7.2758   7.5910

     occupation numbers 
     1.0000   1.0000   1.0000   1.0000   0.0000   0.0000   0.0000   0.0000

          k =-0.5000-0.0538 0.0000 (  2418 PWs)   bands (ev):

   -17.2921 -12.1407 -10.1730  -5.0342   0.7925   6.3259   7.0664   7.4299

     occupation numbers 
     1.0000   1.0000   1.0000   1.0000   0.0000   0.0000   0.0000   0.0000

          k =-0.5000 0.0000 0.0000 (  2425 PWs)   bands (ev):

   -17.3281 -11.7159 -10.6176  -5.0587   0.8878   6.2688   6.9933   7.3729

     occupation numbers 
     1.0000   1.0000   1.0000   1.0000   0.0000   0.0000   0.0000   0.0000

          k =-0.5000 0.0538 0.0000 (  2418 PWs)   bands (ev):

   -17.2922 -12.1396 -10.1741  -5.0345   0.7931   6.3259   7.0664   7.4299

     occupation numbers 
     1.0000   1.0000   1.0000   1.0000   0.0000   0.0000   0.0000   0.0000

          k =-0.5000 0.1076 0.0000 (  2427 PWs)   bands (ev):

   -17.1867 -12.8230  -9.4397  -4.9658   0.5414   6.4948   7.2758   7.5910

     occupation numbers 
     1.0000   1.0000   1.0000   1.0000   0.0000   0.0000   0.0000   0.0000

          k =-0.5000 0.1614 0.0000 (  2437 PWs)   bands (ev):

   -17.0202 -13.4842  -8.7187  -4.8655   0.2117   6.7486   7.3695   7.6047

     occupation numbers 
     1.0000   1.0000   1.0000   1.0000   0.0000   0.0000   0.0000   0.0000

          k =-0.5000 0.2152 0.0000 (  2445 PWs)   bands (ev):

   -16.8137 -14.0573  -8.1087  -4.7565  -0.1075   6.4538   7.2538   8.0423

     occupation numbers 
     1.0000   1.0000   1.0000   1.0000   0.0000   0.0000   0.0000   0.0000

          k =-0.5000 0.2691 0.0000 (  2448 PWs)   bands (ev):

   -16.6173 -14.4777  -7.6940  -4.6699  -0.3379   5.9146   7.7482   8.5839

     occupation numbers 
     1.0000   1.0000   1.0000   1.0000   0.0000   0.0000   0.0000   0.0000

          k =-0.4583 0.2960 0.0000 (  2452 PWs)   bands (ev):

   -16.8195 -14.2921  -7.5145  -4.8276  -0.1727   5.7313   7.2775   8.1025

     occupation numbers 
     1.0000   1.0000   1.0000   1.0000   0.0000   0.0000   0.0000   0.0000

          k =-0.4583 0.3498 0.0000 (  2448 PWs)   bands (ev):

   -16.5556 -14.5542  -7.6670  -4.6340  -0.3798   5.8960   7.9608   8.8556

     occupation numbers 
     1.0000   1.0000   1.0000   1.0000   0.0000   0.0000   0.0000   0.0000

          k =-0.4583 0.4036 0.0000 (  2455 PWs)   bands (ev):

   -16.4358 -14.5221  -8.0906  -4.4986  -0.4308   6.4230   8.2786   8.7814

     occupation numbers 
     1.0000   1.0000   1.0000   1.0000   0.0000   0.0000   0.0000   0.0000

          k =-0.4583 0.4574 0.0000 (  2450 PWs)   bands (ev):

   -16.4832 -14.1761  -8.7169  -4.4328  -0.3314   7.1906   7.8830   8.6174

     occupation numbers 
     1.0000   1.0000   1.0000   1.0000   0.0000   0.0000   0.0000   0.0000

          k =-0.4583 0.5112 0.0000 (  2438 PWs)   bands (ev):

   -16.6000 -13.6230  -9.4649  -4.4218  -0.1329   7.4002   8.2057   8.2604

     occupation numbers 
     1.0000   1.0000   1.0000   1.0000   0.0000   0.0000   0.0000   0.0000

          k =-0.4583 0.5650 0.0000 (  2423 PWs)   bands (ev):

   -16.7055 -12.9674 -10.2530  -4.4364   0.0803   7.2017   7.9011   8.3403

     occupation numbers 
     1.0000   1.0000   1.0000   1.0000   0.0000   0.0000   0.0000   0.0000

          k =-0.4583 0.6188 0.0000 (  2416 PWs)   bands (ev):

   -16.7645 -12.3495 -10.9398  -4.4506   0.2175   7.0921   7.7330   8.2359

     occupation numbers 
     1.0000   1.0000   1.0000   1.0000   0.0000   0.0000   0.0000   0.0000

          k =-0.4583 0.6726 0.0000 (  2416 PWs)   bands (ev):

   -16.7645 -12.3503 -10.9390  -4.4504   0.2172   7.0921   7.7330   8.2359

     occupation numbers 
     1.0000   1.0000   1.0000   1.0000   0.0000   0.0000   0.0000   0.0000

          k =-0.4583 0.7265 0.0000 (  2423 PWs)   bands (ev):

   -16.7054 -12.9687 -10.2518  -4.4359   0.0794   7.2016   7.9011   8.3402

     occupation numbers 
     1.0000   1.0000   1.0000   1.0000   0.0000   0.0000   0.0000   0.0000

          k =-0.4583 0.7803 0.0000 (  2438 PWs)   bands (ev):

   -16.5997 -13.6244  -9.4635  -4.4210  -0.1344   7.3999   8.2058   8.2603

     occupation numbers 
     1.0000   1.0000   1.0000   1.0000   0.0000   0.0000   0.0000   0.0000

          k =-0.4583 0.8341 0.0000 (  2450 PWs)   bands (ev):

   -16.4828 -14.1777  -8.7154  -4.4317  -0.3333   7.1904   7.8833   8.6175

     occupation numbers 
     1.0000   1.0000   1.0000   1.0000   0.0000   0.0000   0.0000   0.0000

          k =-0.4583 0.8879 0.0000 (  2455 PWs)   bands (ev):

   -16.4352 -14.5239  -8.0890  -4.4973  -0.4329   6.4232   8.2787   8.7813

     occupation numbers 
     1.0000   1.0000   1.0000   1.0000   0.0000   0.0000   0.0000   0.0000

          k =-0.4583-0.3498 0.0000 (  2448 PWs)   bands (ev):

   -16.5550 -14.5559  -7.6653  -4.6327  -0.3819   5.8962   7.9608   8.8555

     occupation numbers 
     1.0000   1.0000   1.0000   1.0000   0.0000   0.0000   0.0000   0.0000

          k =-0.4583-0.2960 0.0000 (  2452 PWs)   bands (ev):

   -16.8192 -14.2936  -7.5128  -4.8265  -0.1747   5.7315   7.2775   8.1025

     occupation numbers 
     1.0000   1.0000   1.0000   1.0000   0.0000   0.0000   0.0000   0.0000

          k =-0.4583-0.2422 0.0000 (  2441 PWs)   bands (ev):

   -17.1231 -13.8419  -7.6560  -5.0471   0.1584   5.9495   6.7144   7.5145

     occupation numbers 
     1.0000   1.0000   1.0000   1.0000   0.0000   0.0000   0.0000   0.0000

          k =-0.4583-0.1883 0.0000 (  2435 PWs)   bands (ev):

   -17.4004 -13.2718  -8.0603  -5.2610   0.5666   6.1580   6.6179   7.0326

     occupation numbers 
     1.0000   1.0000   1.0000   1.0000   0.0000   0.0000   0.0000   0.0000

          k =-0.4583-0.1345 0.0000 (  2438 PWs)   bands (ev):

   -17.6217 -12.6226  -8.6510  -5.4413   0.9870   5.8498   6.6602   6.9185

     occupation numbers 
     1.0000   1.0000   1.0000   1.0000   0.0000   0.0000   0.0000   0.0000

          k =-0.4583-0.0807 0.0000 (  2430 PWs)   bands (ev):

   -17.7741 -11.9319  -9.3373  -5.5702   1.3434   5.6219   6.4022   6.7044

     occupation numbers 
     1.0000   1.0000   1.0000   1.0000   0.0000   0.0000   0.0000   0.0000

          k =-0.4583-0.0269 0.0000 (  2425 PWs)   bands (ev):

   -17.8515 -11.3071  -9.9706  -5.6373   1.5523   5.5066   6.2680   6.5892

     occupation numbers 
     1.0000   1.0000   1.0000   1.0000   0.0000   0.0000   0.0000   0.0000

          k =-0.4583 0.0269 0.0000 (  2425 PWs)   bands (ev):

   -17.8515 -11.3063  -9.9715  -5.6374   1.5525   5.5066   6.2680   6.5892

     occupation numbers 
     1.0000   1.0000   1.0000   1.0000   0.0000   0.0000   0.0000   0.0000

          k =-0.4583 0.0807 0.0000 (  2430 PWs)   bands (ev):

   -17.7741 -11.9307  -9.3386  -5.5705   1.3441   5.6220   6.4022   6.7044

     occupation numbers 
     1.0000   1.0000   1.0000   1.0000   0.0000   0.0000   0.0000   0.0000

          k =-0.4583 0.1345 0.0000 (  2438 PWs)   bands (ev):

   -17.6218 -12.6214  -8.6525  -5.4418   0.9881   5.8499   6.6602   6.9186

     occupation numbers 
     1.0000   1.0000   1.0000   1.0000   0.0000   0.0000   0.0000   0.0000

          k =-0.4583 0.1883 0.0000 (  2435 PWs)   bands (ev):

   -17.4005 -13.2705  -8.0619  -5.2617   0.5681   6.1581   6.6176   7.0326

     occupation numbers 
     1.0000   1.0000   1.0000   1.0000   0.0000   0.0000   0.0000   0.0000

          k =-0.4583 0.2422 0.0000 (  2441 PWs)   bands (ev):

   -17.1233 -13.8406  -7.6577  -5.0480   0.1601   5.9493   6.7143   7.5145

     occupation numbers 
     1.0000   1.0000   1.0000   1.0000   0.0000   0.0000   0.0000   0.0000

          k =-0.4167 0.2691 0.0000 (  2449 PWs)   bands (ev):

   -17.3932 -13.5434  -7.4206  -5.2969   0.4686   5.7567   6.2717   7.0666

     occupation numbers 
     1.0000   1.0000   1.0000   1.0000   0.0000   0.0000   0.0000   0.0000

          k =-0.4167 0.3229 0.0000 (  2450 PWs)   bands (ev):

   -17.0093 -13.9988  -7.5768  -4.9610   0.0554   5.9026   6.8929   7.7039

     occupation numbers 
     1.0000   1.0000   1.0000   1.0000   0.0000   0.0000   0.0000   0.0000

          k =-0.4167 0.3767 0.0000 (  2445 PWs)   bands (ev):

   -16.6181 -14.3121  -8.0077  -4.6238  -0.2612   6.4048   7.6379   8.4330

     occupation numbers 
     1.0000   1.0000   1.0000   1.0000   0.0000   0.0000   0.0000   0.0000

          k =-0.4167 0.4305 0.0000 (  2446 PWs)   bands (ev):

   -16.3034 -14.4007  -8.6479  -4.3219  -0.4546   7.1856   8.4717   8.8741

     occupation numbers 
     1.0000   1.0000   1.0000   1.0000   0.0000   0.0000   0.0000   0.0000

          k =-0.4167 0.4843 0.0000 (  2444 PWs)   bands (ev):

   -16.1592 -14.1760  -9.4177  -4.0888  -0.5172   7.9949   8.6162   9.0755

     occupation numbers 
     1.0000   1.0000   1.0000   1.0000   0.0000   0.0000   0.0000   0.0000

          k =-0.4167 0.5381 0.0000 (  2436 PWs)   bands (ev):

   -16.1560 -13.6830 -10.2408  -3.9392  -0.4783   8.0324   8.6563   9.1466

     occupation numbers 
     1.0000   1.0000   1.0000   1.0000   0.0000   0.0000   0.0000   0.0000

          k =-0.4167 0.5919 0.0000 (  2424 PWs)   bands (ev):

   -16.1918 -13.0723 -11.0270  -3.8631  -0.4049   7.8966   8.3462   9.1328

     occupation numbers 
     1.0000   1.0000   1.0000   1.0000   0.0000   0.0000   0.0000   0.0000

          k =-0.4167 0.6457 0.0000 (  2417 PWs)   bands (ev):

   -16.2088 -12.6816 -11.4735  -3.8405  -0.3702   7.8461   8.2312   9.0864

     occupation numbers 
     1.0000   1.0000   1.0000   1.0000   0.0000   0.0000   0.0000   0.0000

          k =-0.4167 0.6996 0.0000 (  2424 PWs)   bands (ev):

   -16.1917 -13.0736 -11.0259  -3.8626  -0.4057   7.8964   8.3464   9.1327

     occupation numbers 
     1.0000   1.0000   1.0000   1.0000   0.0000   0.0000   0.0000   0.0000

          k =-0.4167 0.7534 0.0000 (  2436 PWs)   bands (ev):

   -16.1556 -13.6846 -10.2395  -3.9383  -0.4798   8.0320   8.6565   9.1461

     occupation numbers 
     1.0000   1.0000   1.0000   1.0000   0.0000   0.0000   0.0000   0.0000

          k =-0.4167 0.8072 0.0000 (  2444 PWs)   bands (ev):

   -16.1587 -14.1778  -9.4162  -4.0876  -0.5192   7.9941   8.6170   9.0758

     occupation numbers 
     1.0000   1.0000   1.0000   1.0000   0.0000   0.0000   0.0000   0.0000

          k =-0.4167 0.8610 0.0000 (  2446 PWs)   bands (ev):

   -16.3028 -14.4024  -8.6464  -4.3206  -0.4567   7.1855   8.4717   8.8743

     occupation numbers 
     1.0000   1.0000   1.0000   1.0000   0.0000   0.0000   0.0000   0.0000

          k =-0.4167-0.3767 0.0000 (  2445 PWs)   bands (ev):

   -16.6177 -14.3137  -8.0060  -4.6226  -0.2632   6.4050   7.6378   8.4331

     occupation numbers 
     1.0000   1.0000   1.0000   1.0000   0.0000   0.0000   0.0000   0.0000

          k =-0.4167-0.3229 0.0000 (  2450 PWs)   bands (ev):

   -17.0090 -14.0003  -7.5751  -4.9599   0.0536   5.9029   6.8928   7.7040

     occupation numbers 
     1.0000   1.0000   1.0000   1.0000   0.0000   0.0000   0.0000   0.0000

          k =-0.4167-0.2691 0.0000 (  2449 PWs)   bands (ev):

   -17.3931 -13.5447  -7.4189  -5.2961   0.4670   5.7568   6.2717   7.0666

     occupation numbers 
     1.0000   1.0000   1.0000   1.0000   0.0000   0.0000   0.0000   0.0000

          k =-0.4167-0.2152 0.0000 (  2439 PWs)   bands (ev):

   -17.7301 -12.9899  -7.5569  -5.6018   0.9405   5.6681   6.0917   6.5347

     occupation numbers 
     1.0000   1.0000   1.0000   1.0000   0.0000   0.0000   0.0000   0.0000

          k =-0.4167-0.1614 0.0000 (  2440 PWs)   bands (ev):

   -18.0023 -12.3612  -7.9495  -5.8565   1.4284   5.2898   6.1124   6.3357

     occupation numbers 
     1.0000   1.0000   1.0000   1.0000   0.0000   0.0000   0.0000   0.0000

          k =-0.4167-0.1076 0.0000 (  2438 PWs)   bands (ev):

   -18.2009 -11.6836  -8.5168  -6.0466   1.8700   5.0022   5.8023   6.0710

     occupation numbers 
     1.0000   1.0000   1.0000   1.0000   0.0000   0.0000   0.0000   0.0000

          k =-0.4167-0.0538 0.0000 (  2436 PWs)   bands (ev):

   -18.3215 -11.0081  -9.1515  -6.1639   2.1888   4.8280   5.6095   5.8972

     occupation numbers 
     1.0000   1.0000   1.0000   1.0000   0.0000   0.0000   0.0000   0.0000

          k =-0.4167-0.0000 0.0000 (  2431 PWs)   bands (ev):

   -18.3620 -10.5993  -9.5512  -6.2035   2.3069   4.7697   5.5433   5.8388

     occupation numbers 
     1.0000   1.0000   1.0000   1.0000   0.0000   0.0000   0.0000   0.0000

          k =-0.4167 0.0538 0.0000 (  2436 PWs)   bands (ev):

   -18.3215 -11.0070  -9.1527  -6.1641   2.1892   4.8280   5.6095   5.8972

     occupation numbers 
     1.0000   1.0000   1.0000   1.0000   0.0000   0.0000   0.0000   0.0000

          k =-0.4167 0.1076 0.0000 (  2438 PWs)   bands (ev):

   -18.2009 -11.6824  -8.5184  -6.0469   1.8708   5.0022   5.8023   6.0711

     occupation numbers 
     1.0000   1.0000   1.0000   1.0000   0.0000   0.0000   0.0000   0.0000

          k =-0.4167 0.1614 0.0000 (  2440 PWs)   bands (ev):

   -18.0023 -12.3599  -7.9511  -5.8570   1.4295   5.2898   6.1124   6.3357

     occupation numbers 
     1.0000   1.0000   1.0000   1.0000   0.0000   0.0000   0.0000   0.0000

          k =-0.4167 0.2152 0.0000 (  2439 PWs)   bands (ev):

   -17.7302 -12.9886  -7.5586  -5.6024   0.9419   5.6681   6.0915   6.5348

     occupation numbers 
     1.0000   1.0000   1.0000   1.0000   0.0000   0.0000   0.0000   0.0000

          k =-0.3750 0.2422 0.0000 (  2436 PWs)   bands (ev):

   -18.0022 -12.6463  -7.2669  -5.8815   1.3316   5.2839   5.8661   6.1245

     occupation numbers 
     1.0000   1.0000   1.0000   1.0000   0.0000   0.0000   0.0000   0.0000

          k =-0.3750 0.2960 0.0000 (  2436 PWs)   bands (ev):

   -17.6117 -13.1800  -7.4259  -5.4942   0.8076   5.8238   6.0180   6.7079

     occupation numbers 
     1.0000   1.0000   1.0000   1.0000   0.0000   0.0000   0.0000   0.0000

          k =-0.3750 0.3498 0.0000 (  2443 PWs)   bands (ev):

   -17.1630 -13.6257  -7.8623  -5.0591   0.3272   6.3953   6.6156   7.3947

     occupation numbers 
     1.0000   1.0000   1.0000   1.0000   0.0000   0.0000   0.0000   0.0000

          k =-0.3750 0.4036 0.0000 (  2445 PWs)   bands (ev):

   -16.6800 -13.9581  -8.5134  -4.5985  -0.0891   7.1733   7.4086   8.1639

     occupation numbers 
     1.0000   1.0000   1.0000   1.0000   0.0000   0.0000   0.0000   0.0000

          k =-0.3750 0.4574 0.0000 (  2444 PWs)   bands (ev):

   -16.2162 -14.1270  -9.3002  -4.1440  -0.4273   8.0620   8.3098   8.9038

     occupation numbers 
     1.0000   1.0000   1.0000   1.0000   0.0000   0.0000   0.0000   0.0000

          k =-0.3750 0.5112 0.0000 (  2438 PWs)   bands (ev):

   -15.8711 -14.0440 -10.1481  -3.7374  -0.6786   8.4610   9.0324   9.3153

     occupation numbers 
     1.0000   1.0000   1.0000   1.0000   0.0000   0.0000   0.0000   0.0000

          k =-0.3750 0.5650 0.0000 (  2431 PWs)   bands (ev):

   -15.7111 -13.6728 -10.9815  -3.4279  -0.8405   8.3806   8.6811   9.9457

     occupation numbers 
     1.0000   1.0000   1.0000   1.0000   0.0000   0.0000   0.0000   0.0000

          k =-0.3750 0.6188 0.0000 (  2423 PWs)   bands (ev):

   -15.6689 -13.2029 -11.6512  -3.2600  -0.9176   8.3050   8.4389   9.8999

     occupation numbers 
     1.0000   1.0000   1.0000   1.0000   0.0000   0.0000   0.0000   0.0000

          k =-0.3750 0.6726 0.0000 (  2423 PWs)   bands (ev):

   -15.6688 -13.2038 -11.6504  -3.2596  -0.9182   8.3048   8.4391   9.8998

     occupation numbers 
     1.0000   1.0000   1.0000   1.0000   0.0000   0.0000   0.0000   0.0000

          k =-0.3750 0.7265 0.0000 (  2431 PWs)   bands (ev):

   -15.7106 -13.6745 -10.9802  -3.4269  -0.8419   8.3801   8.6815   9.9453

     occupation numbers 
     1.0000   1.0000   1.0000   1.0000   0.0000   0.0000   0.0000   0.0000

          k =-0.3750 0.7803 0.0000 (  2438 PWs)   bands (ev):

   -15.8704 -14.0459 -10.1466  -3.7361  -0.6805   8.4598   9.0329   9.3153

     occupation numbers 
     1.0000   1.0000   1.0000   1.0000   0.0000   0.0000   0.0000   0.0000

          k =-0.3750 0.8341 0.0000 (  2444 PWs)   bands (ev):

   -16.2157 -14.1288  -9.2987  -4.1427  -0.4293   8.0610   8.3099   8.9041

     occupation numbers 
     1.0000   1.0000   1.0000   1.0000   0.0000   0.0000   0.0000   0.0000

          k =-0.3750-0.4036 0.0000 (  2445 PWs)   bands (ev):

   -16.6797 -13.9596  -8.5118  -4.5974  -0.0910   7.1732   7.4086   8.1640

     occupation numbers 
     1.0000   1.0000   1.0000   1.0000   0.0000   0.0000   0.0000   0.0000

          k =-0.3750-0.3498 0.0000 (  2443 PWs)   bands (ev):

   -17.1628 -13.6271  -7.8606  -5.0582   0.3254   6.3955   6.6156   7.3948

     occupation numbers 
     1.0000   1.0000   1.0000   1.0000   0.0000   0.0000   0.0000   0.0000

          k =-0.3750-0.2960 0.0000 (  2436 PWs)   bands (ev):

   -17.6117 -13.1813  -7.4241  -5.4935   0.8060   5.8238   6.0182   6.7079

     occupation numbers 
     1.0000   1.0000   1.0000   1.0000   0.0000   0.0000   0.0000   0.0000

          k =-0.3750-0.2422 0.0000 (  2436 PWs)   bands (ev):

   -18.0022 -12.6476  -7.2651  -5.8810   1.3303   5.2839   5.8663   6.1245

     occupation numbers 
     1.0000   1.0000   1.0000   1.0000   0.0000   0.0000   0.0000   0.0000

          k =-0.3750-0.1883 0.0000 (  2438 PWs)   bands (ev):

   -18.3227 -12.0432  -7.3976  -6.2053   1.8681   4.8240   5.6504   5.8616

     occupation numbers 
     1.0000   1.0000   1.0000   1.0000   0.0000   0.0000   0.0000   0.0000

          k =-0.3750-0.1345 0.0000 (  2438 PWs)   bands (ev):

   -18.5669 -11.3865  -7.7766  -6.4561   2.3752   4.4751   5.2876   5.5347

     occupation numbers 
     1.0000   1.0000   1.0000   1.0000   0.0000   0.0000   0.0000   0.0000

          k =-0.3750-0.0807 0.0000 (  2433 PWs)   bands (ev):

   -18.7313 -10.7088  -8.3138  -6.6268   2.7882   4.2415   5.0376   5.3017

     occupation numbers 
     1.0000   1.0000   1.0000   1.0000   0.0000   0.0000   0.0000   0.0000

          k =-0.3750-0.0269 0.0000 (  2431 PWs)   bands (ev):

   -18.8140 -10.1141  -8.8529  -6.7131   3.0279   4.1246   4.9070   5.1843

     occupation numbers 
     1.0000   1.0000   1.0000   1.0000   0.0000   0.0000   0.0000   0.0000

          k =-0.3750 0.0269 0.0000 (  2431 PWs)   bands (ev):

   -18.8140 -10.1132  -8.8538  -6.7131   3.0281   4.1246   4.9070   5.1843

     occupation numbers 
     1.0000   1.0000   1.0000   1.0000   0.0000   0.0000   0.0000   0.0000

          k =-0.3750 0.0807 0.0000 (  2433 PWs)   bands (ev):

   -18.7313 -10.7075  -8.3153  -6.6269   2.7887   4.2416   5.0377   5.3017

     occupation numbers 
     1.0000   1.0000   1.0000   1.0000   0.0000   0.0000   0.0000   0.0000

          k =-0.3750 0.1345 0.0000 (  2438 PWs)   bands (ev):

   -18.5669 -11.3852  -7.7783  -6.4564   2.3760   4.4751   5.2876   5.5347

     occupation numbers 
     1.0000   1.0000   1.0000   1.0000   0.0000   0.0000   0.0000   0.0000

          k =-0.3750 0.1883 0.0000 (  2438 PWs)   bands (ev):

   -18.3227 -12.0419  -7.3994  -6.2057   1.8692   4.8241   5.6504   5.8617

     occupation numbers 
     1.0000   1.0000   1.0000   1.0000   0.0000   0.0000   0.0000   0.0000

          k =-0.3333 0.2152 0.0000 (  2431 PWs)   bands (ev):

   -18.5791 -11.6740  -7.0578  -6.4837   2.3041   4.4560   5.2811   5.5039

     occupation numbers 
     1.0000   1.0000   1.0000   1.0000   0.0000   0.0000   0.0000   0.0000

          k =-0.3333 0.2691 0.0000 (  2433 PWs)   bands (ev):

   -18.2120 -12.2532  -7.2186  -6.0941   1.7268   4.9849   5.8068   5.9614

     occupation numbers 
     1.0000   1.0000   1.0000   1.0000   0.0000   0.0000   0.0000   0.0000

          k =-0.3333 0.3229 0.0000 (  2437 PWs)   bands (ev):

   -17.7718 -12.7647  -7.6578  -5.6334   1.1574   5.6315   6.4417   6.4531

     occupation numbers 
     1.0000   1.0000   1.0000   1.0000   0.0000   0.0000   0.0000   0.0000

          k =-0.3333 0.3767 0.0000 (  2441 PWs)   bands (ev):

   -17.2668 -13.1964  -8.3163  -5.1130   0.6131   6.3926   7.1767   7.1986

     occupation numbers 
     1.0000   1.0000   1.0000   1.0000   0.0000   0.0000   0.0000   0.0000

          k =-0.3333 0.4305 0.0000 (  2440 PWs)   bands (ev):

   -16.7126 -13.5346  -9.1154  -4.5492   0.1007   7.2626   7.9797   8.0485

     occupation numbers 
     1.0000   1.0000   1.0000   1.0000   0.0000   0.0000   0.0000   0.0000

          k =-0.3333 0.4843 0.0000 (  2430 PWs)   bands (ev):

   -16.1421 -13.7554  -9.9795  -3.9646  -0.3810   8.1985   8.3313   8.6871

     occupation numbers 
     1.0000   1.0000   1.0000   1.0000   0.0000   0.0000   0.0000   0.0000

          k =-0.3333 0.5381 0.0000 (  2436 PWs)   bands (ev):

   -15.6282 -13.8100 -10.8363  -3.3932  -0.8335   8.1548   8.7817   9.3101

     occupation numbers 
     1.0000   1.0000   1.0000   1.0000   0.0000   0.0000   0.0000   0.0000

          k =-0.3333 0.5919 0.0000 (  2423 PWs)   bands (ev):

   -15.2921 -13.6506 -11.5815  -2.8996  -1.2326   8.0502   8.5379  10.4153

     occupation numbers 
     1.0000   1.0000   1.0000   1.0022   0.0000   0.0000   0.0000   0.0000

          k =-0.3333 0.6457 0.0000 (  2431 PWs)   bands (ev):

   -15.1881 -13.4825 -11.9388  -2.6645  -1.4318   8.0129   8.4265  10.7538

     occupation numbers 
     1.0000   1.0000   1.0000   1.0373   0.0000   0.0000   0.0000   0.0000

          k =-0.3333 0.6996 0.0000 (  2423 PWs)   bands (ev):

   -15.2916 -13.6523 -11.5803  -2.8985  -1.2339   8.0499   8.5382  10.4150

     occupation numbers 
     1.0000   1.0000   1.0000   1.0022   0.0000   0.0000   0.0000   0.0000

          k =-0.3333 0.7534 0.0000 (  2436 PWs)   bands (ev):

   -15.6276 -13.8119 -10.8349  -3.3920  -0.8353   8.1541   8.7823   9.3098

     occupation numbers 
     1.0000   1.0000   1.0000   1.0000   0.0000   0.0000   0.0000   0.0000

          k =-0.3333 0.8072 0.0000 (  2430 PWs)   bands (ev):

   -16.1417 -13.7571  -9.9779  -3.9635  -0.3828   8.1984   8.3297   8.6875

     occupation numbers 
     1.0000   1.0000   1.0000   1.0000   0.0000   0.0000   0.0000   0.0000

          k =-0.3333-0.4305 0.0000 (  2440 PWs)   bands (ev):

   -16.7124 -13.5361  -9.1137  -4.5483   0.0989   7.2626   7.9799   8.0468

     occupation numbers 
     1.0000   1.0000   1.0000   1.0000   0.0000   0.0000   0.0000   0.0000

          k =-0.3333-0.3767 0.0000 (  2441 PWs)   bands (ev):

   -17.2667 -13.1978  -8.3146  -5.1122   0.6115   6.3926   7.1768   7.1985

     occupation numbers 
     1.0000   1.0000   1.0000   1.0000   0.0000   0.0000   0.0000   0.0000

          k =-0.3333-0.3229 0.0000 (  2437 PWs)   bands (ev):

   -17.7717 -12.7660  -7.6560  -5.6328   1.1559   5.6315   6.4417   6.4533

     occupation numbers 
     1.0000   1.0000   1.0000   1.0000   0.0000   0.0000   0.0000   0.0000

          k =-0.3333-0.2691 0.0000 (  2433 PWs)   bands (ev):

   -18.2120 -12.2546  -7.2167  -6.0936   1.7255   4.9849   5.8067   5.9616

     occupation numbers 
     1.0000   1.0000   1.0000   1.0000   0.0000   0.0000   0.0000   0.0000

          k =-0.3333-0.2152 0.0000 (  2431 PWs)   bands (ev):

   -18.5791 -11.6753  -7.0559  -6.4833   2.3030   4.4560   5.2810   5.5040

     occupation numbers 
     1.0000   1.0000   1.0000   1.0000   0.0000   0.0000   0.0000   0.0000

          k =-0.3333-0.1614 0.0000 (  2430 PWs)   bands (ev):

   -18.8684 -11.0423  -7.1824  -6.7935   2.8576   4.0449   4.8675   5.0986

     occupation numbers 
     1.0000   1.0000   1.0000   1.0000   0.0000   0.0000   0.0000   0.0000

          k =-0.3333-0.1076 0.0000 (  2436 PWs)   bands (ev):

   -19.0767 -10.3781  -7.5447  -7.0188   3.3419   3.7513   4.5658   4.8050

     occupation numbers 
     1.0000   1.0000   1.0000   1.0000   0.0000   0.0000   0.0000   0.0000

          k =-0.3333-0.0538 0.0000 (  2431 PWs)   bands (ev):

   -19.2023  -9.7343  -8.0370  -7.1553   3.5751   3.6920   4.3730   4.6283

     occupation numbers 
     1.0000   1.0000   1.0000   1.0000   0.0000   0.0000   0.0000   0.0000

          k =-0.3333 0.0000 0.0000 (  2429 PWs)   bands (ev):

   -19.2443  -9.3589  -8.3673  -7.2010   3.5164   3.8290   4.2995   4.5693

     occupation numbers 
     1.0000   1.0000   1.0000   1.0000   0.0000   0.0000   0.0000   0.0000

          k =-0.3333 0.0538 0.0000 (  2431 PWs)   bands (ev):

   -19.2023  -9.7330  -8.0384  -7.1554   3.5751   3.6923   4.3731   4.6283

     occupation numbers 
     1.0000   1.0000   1.0000   1.0000   0.0000   0.0000   0.0000   0.0000

          k =-0.3333 0.1076 0.0000 (  2436 PWs)   bands (ev):

   -19.0767 -10.3767  -7.5465  -7.0190   3.3425   3.7513   4.5659   4.8050

     occupation numbers 
     1.0000   1.0000   1.0000   1.0000   0.0000   0.0000   0.0000   0.0000

          k =-0.3333 0.1614 0.0000 (  2430 PWs)   bands (ev):

   -18.8683 -11.0410  -7.1843  -6.7938   2.8584   4.0449   4.8676   5.0986

     occupation numbers 
     1.0000   1.0000   1.0000   1.0000   0.0000   0.0000   0.0000   0.0000

          k =-0.2917 0.1883 0.0000 (  2432 PWs)   bands (ev):

   -19.1026 -10.6570  -7.0555  -6.7999   3.3080   3.7133   4.5498   4.7640

     occupation numbers 
     1.0000   1.0000   1.0000   1.0000   0.0000   0.0000   0.0000   0.0000

          k =-0.2917 0.2422 0.0000 (  2431 PWs)   bands (ev):

   -18.7689 -11.2667  -6.9612  -6.6875   2.7217   4.1852   5.0069   5.2386

     occupation numbers 
     1.0000   1.0000   1.0000   1.0000   0.0000   0.0000   0.0000   0.0000

          k =-0.2917 0.2960 0.0000 (  2427 PWs)   bands (ev):

   -18.3562 -11.8231  -7.4005  -6.2365   2.1070   4.7742   5.5832   5.8333

     occupation numbers 
     1.0000   1.0000   1.0000   1.0000   0.0000   0.0000   0.0000   0.0000

          k =-0.2917 0.3498 0.0000 (  2431 PWs)   bands (ev):

   -17.8687 -12.3157  -8.0619  -5.7095   1.4885   5.4784   6.2695   6.5465

     occupation numbers 
     1.0000   1.0000   1.0000   1.0000   0.0000   0.0000   0.0000   0.0000

          k =-0.2917 0.4036 0.0000 (  2445 PWs)   bands (ev):

   -17.3126 -12.7387  -8.8674  -5.1158   0.8742   6.2954   7.0515   7.3753

     occupation numbers 
     1.0000   1.0000   1.0000   1.0000   0.0000   0.0000   0.0000   0.0000

          k =-0.2917 0.4574 0.0000 (  2438 PWs)   bands (ev):

   -16.6989 -13.0898  -9.7389  -4.4680   0.2626   7.2198   7.6438   7.8826

     occupation numbers 
     1.0000   1.0000   1.0000   1.0000   0.0000   0.0000   0.0000   0.0000

          k =-0.2917 0.5112 0.0000 (  2436 PWs)   bands (ev):

   -16.0487 -13.3725 -10.6010  -3.7819  -0.3560   7.4276   8.2573   8.5430

     occupation numbers 
     1.0000   1.0000   1.0000   1.0000   0.0000   0.0000   0.0000   0.0000

          k =-0.2917 0.5650 0.0000 (  2425 PWs)   bands (ev):

   -15.4102 -13.6009 -11.3574  -3.0770  -0.9921   7.2816   8.6202   9.3741

     occupation numbers 
     1.0000   1.0000   1.0000   1.0001   0.0000   0.0000   0.0000   0.0000

          k =-0.2917 0.6188 0.0000 (  2443 PWs)   bands (ev):

   -14.9222 -13.7827 -11.8419  -2.3834  -1.6431   7.2067   8.4929  10.5229

     occupation numbers 
     1.0000   1.0000   1.0000   1.0307   0.0015   0.0000   0.0000   0.0000

          k =-0.2917 0.6726 0.0000 (  2443 PWs)   bands (ev):

   -14.9217 -13.7837 -11.8413  -2.3822  -1.6445   7.2066   8.4931  10.5226

     occupation numbers 
     1.0000   1.0000   1.0000   1.0294   0.0015   0.0000   0.0000   0.0000

          k =-0.2917 0.7265 0.0000 (  2425 PWs)   bands (ev):

   -15.4097 -13.6027 -11.3560  -3.0759  -0.9936   7.2814   8.6208   9.3739

     occupation numbers 
     1.0000   1.0000   1.0000   1.0001   0.0000   0.0000   0.0000   0.0000

          k =-0.2917 0.7803 0.0000 (  2436 PWs)   bands (ev):

   -16.0483 -13.3742 -10.5994  -3.7809  -0.3577   7.4271   8.2572   8.5435

     occupation numbers 
     1.0000   1.0000   1.0000   1.0000   0.0000   0.0000   0.0000   0.0000

          k =-0.2917-0.4574 0.0000 (  2438 PWs)   bands (ev):

   -16.6987 -13.0914  -9.7372  -4.4672   0.2610   7.2199   7.6428   7.8827

     occupation numbers 
     1.0000   1.0000   1.0000   1.0000   0.0000   0.0000   0.0000   0.0000

          k =-0.2917-0.4036 0.0000 (  2445 PWs)   bands (ev):

   -17.3125 -12.7402  -8.8656  -5.1151   0.8727   6.2954   7.0515   7.3753

     occupation numbers 
     1.0000   1.0000   1.0000   1.0000   0.0000   0.0000   0.0000   0.0000

          k =-0.2917-0.3498 0.0000 (  2431 PWs)   bands (ev):

   -17.8686 -12.3172  -8.0601  -5.7089   1.4871   5.4784   6.2695   6.5465

     occupation numbers 
     1.0000   1.0000   1.0000   1.0000   0.0000   0.0000   0.0000   0.0000

          k =-0.2917-0.2960 0.0000 (  2427 PWs)   bands (ev):

   -18.3562 -11.8245  -7.3986  -6.2361   2.1058   4.7742   5.5832   5.8333

     occupation numbers 
     1.0000   1.0000   1.0000   1.0000   0.0000   0.0000   0.0000   0.0000

          k =-0.2917-0.2422 0.0000 (  2431 PWs)   bands (ev):

   -18.7689 -11.2682  -6.9592  -6.6872   2.7207   4.1852   5.0068   5.2386

     occupation numbers 
     1.0000   1.0000   1.0000   1.0000   0.0000   0.0000   0.0000   0.0000

          k =-0.2917-0.1883 0.0000 (  2432 PWs)   bands (ev):

   -19.1026 -10.6584  -7.0552  -6.7979   3.3071   3.7133   4.5496   4.7640

     occupation numbers 
     1.0000   1.0000   1.0000   1.0000   0.0000   0.0000   0.0000   0.0000

          k =-0.2917-0.1345 0.0000 (  2439 PWs)   bands (ev):

   -19.3549 -10.0126  -7.3352  -6.9178   3.3594   3.7966   4.2461   4.4087

     occupation numbers 
     1.0000   1.0000   1.0000   1.0000   0.0000   0.0000   0.0000   0.0000

          k =-0.2917-0.0807 0.0000 (  2427 PWs)   bands (ev):

   -19.5238  -9.3634  -7.5236  -7.2576   3.1235   3.8768   4.1719   4.3559

     occupation numbers 
     1.0000   1.0000   1.0000   1.0000   0.0000   0.0000   0.0000   0.0000

          k =-0.2917-0.0269 0.0000 (  2421 PWs)   bands (ev):

   -19.6086  -8.8151  -7.6672  -7.6183   3.0057   3.7876   4.0535   4.5703

     occupation numbers 
     1.0000   1.0000   1.0000   1.0000   0.0000   0.0000   0.0000   0.0000

          k =-0.2917 0.0269 0.0000 (  2421 PWs)   bands (ev):

   -19.6086  -8.8141  -7.6683  -7.6184   3.0057   3.7876   4.0535   4.5705

     occupation numbers 
     1.0000   1.0000   1.0000   1.0000   0.0000   0.0000   0.0000   0.0000

          k =-0.2917 0.0807 0.0000 (  2427 PWs)   bands (ev):

   -19.5238  -9.3620  -7.5237  -7.2594   3.1236   3.8768   4.1719   4.3564

     occupation numbers 
     1.0000   1.0000   1.0000   1.0000   0.0000   0.0000   0.0000   0.0000

          k =-0.2917 0.1345 0.0000 (  2439 PWs)   bands (ev):

   -19.3548 -10.0111  -7.3354  -6.9197   3.3594   3.7969   4.2465   4.4087

     occupation numbers 
     1.0000   1.0000   1.0000   1.0000   0.0000   0.0000   0.0000   0.0000

          k =-0.2500 0.1614 0.0000 (  2427 PWs)   bands (ev):

   -19.5639  -9.6181  -7.5730  -6.5028   3.0668   3.7941   4.1132   4.4285

     occupation numbers 
     1.0000   1.0000   1.0000   1.0000   0.0000   0.0000   0.0000   0.0000

          k =-0.2500 0.2152 0.0000 (  2424 PWs)   bands (ev):

   -19.2679 -10.2458  -7.2388  -6.6636   3.4804   3.6951   4.3497   4.5296

     occupation numbers 
     1.0000   1.0000   1.0000   1.0000   0.0000   0.0000   0.0000   0.0000

          k =-0.2500 0.2691 0.0000 (  2436 PWs)   bands (ev):

   -18.8901 -10.8362  -7.0999  -6.8150   3.0999   4.0112   4.8279   5.0648

     occupation numbers 
     1.0000   1.0000   1.0000   1.0000   0.0000   0.0000   0.0000   0.0000

          k =-0.2500 0.3229 0.0000 (  2433 PWs)   bands (ev):

   -18.4329 -11.3767  -7.7589  -6.3063   2.4408   4.6582   5.4544   5.7179

     occupation numbers 
     1.0000   1.0000   1.0000   1.0000   0.0000   0.0000   0.0000   0.0000

          k =-0.2500 0.3767 0.0000 (  2440 PWs)   bands (ev):

   -17.8996 -11.8630  -8.5631  -5.7192   1.7600   5.4199   6.1928   6.4877

     occupation numbers 
     1.0000   1.0000   1.0000   1.0000   0.0000   0.0000   0.0000   0.0000

          k =-0.2500 0.4305 0.0000 (  2431 PWs)   bands (ev):

   -17.2957 -12.3001  -9.4309  -5.0630   1.0640   6.2938   6.7548   7.0221

     occupation numbers 
     1.0000   1.0000   1.0000   1.0000   0.0000   0.0000   0.0000   0.0000

          k =-0.2500 0.4843 0.0000 (  2432 PWs)   bands (ev):

   -16.6293 -12.7092 -10.2797  -4.3497   0.3495   6.5067   7.2808   7.8813

     occupation numbers 
     1.0000   1.0000   1.0000   1.0000   0.0000   0.0000   0.0000   0.0000

          k =-0.2500 0.5381 0.0000 (  2426 PWs)   bands (ev):

   -15.9149 -13.1408 -11.0075  -3.5961  -0.3860   6.3274   8.3672   8.5172

     occupation numbers 
     1.0000   1.0000   1.0000   1.0000   0.0000   0.0000   0.0000   0.0000

          k =-0.2500 0.5919 0.0000 (  2433 PWs)   bands (ev):

   -15.1856 -13.6608 -11.4925  -2.8315  -1.1313   6.2182   8.6348   9.5373

     occupation numbers 
     1.0000   1.0000   1.0000   1.0059   0.0000   0.0000   0.0000   0.0000

          k =-0.2500 0.6457 0.0000 (  2439 PWs)   bands (ev):

   -14.6642 -14.1105 -11.6574  -2.2745  -1.6807   6.1814   8.6079  10.6915

     occupation numbers 
     1.0000   1.0000   1.0000   0.8424   0.0029   0.0000   0.0000   0.0000

          k =-0.2500 0.6996 0.0000 (  2433 PWs)   bands (ev):

   -15.1851 -13.6621 -11.4916  -2.8306  -1.1325   6.2181   8.6351   9.5372

     occupation numbers 
     1.0000   1.0000   1.0000   1.0060   0.0000   0.0000   0.0000   0.0000

          k =-0.2500 0.7534 0.0000 (  2426 PWs)   bands (ev):

   -15.9147 -13.1425 -11.0060  -3.5953  -0.3873   6.3273   8.3672   8.5177

     occupation numbers 
     1.0000   1.0000   1.0000   1.0000   0.0000   0.0000   0.0000   0.0000

          k =-0.2500-0.4843 0.0000 (  2432 PWs)   bands (ev):

   -16.6292 -12.7109 -10.2779  -4.3490   0.3481   6.5065   7.2807   7.8815

     occupation numbers 
     1.0000   1.0000   1.0000   1.0000   0.0000   0.0000   0.0000   0.0000

          k =-0.2500-0.4305 0.0000 (  2431 PWs)   bands (ev):

   -17.2957 -12.3017  -9.4290  -5.0624   1.0627   6.2938   6.7544   7.0222

     occupation numbers 
     1.0000   1.0000   1.0000   1.0000   0.0000   0.0000   0.0000   0.0000

          k =-0.2500-0.3767 0.0000 (  2440 PWs)   bands (ev):

   -17.8996 -11.8646  -8.5611  -5.7187   1.7587   5.4199   6.1928   6.4878

     occupation numbers 
     1.0000   1.0000   1.0000   1.0000   0.0000   0.0000   0.0000   0.0000

          k =-0.2500-0.3229 0.0000 (  2433 PWs)   bands (ev):

   -18.4329 -11.3782  -7.7568  -6.3059   2.4396   4.6582   5.4544   5.7179

     occupation numbers 
     1.0000   1.0000   1.0000   1.0000   0.0000   0.0000   0.0000   0.0000

          k =-0.2500-0.2691 0.0000 (  2436 PWs)   bands (ev):

   -18.8901 -10.8378  -7.0978  -6.8147   3.0989   4.0112   4.8278   5.0648

     occupation numbers 
     1.0000   1.0000   1.0000   1.0000   0.0000   0.0000   0.0000   0.0000

          k =-0.2500-0.2152 0.0000 (  2424 PWs)   bands (ev):

   -19.2679 -10.2474  -7.2386  -6.6615   3.4804   3.6944   4.3494   4.5296

     occupation numbers 
     1.0000   1.0000   1.0000   1.0000   0.0000   0.0000   0.0000   0.0000

          k =-0.2500-0.1614 0.0000 (  2427 PWs)   bands (ev):

   -19.5639  -9.6197  -7.5728  -6.5006   3.0668   3.7942   4.1132   4.4277

     occupation numbers 
     1.0000   1.0000   1.0000   1.0000   0.0000   0.0000   0.0000   0.0000

          k =-0.2500-0.1076 0.0000 (  2419 PWs)   bands (ev):

   -19.7763  -8.9788  -7.8137  -6.6119   2.7712   3.5427   3.8161   4.8787

     occupation numbers 
     1.0000   1.0000   1.0000   1.0000   0.0000   0.0000   0.0000   0.0000

          k =-0.2500-0.0538 0.0000 (  2421 PWs)   bands (ev):

   -19.9042  -8.3798  -7.9592  -6.9173   2.5939   3.3751   3.6380   5.2163

     occupation numbers 
     1.0000   1.0000   1.0000   1.0000   0.0000   0.0000   0.0000   0.0000

          k =-0.2500 0.0000 0.0000 (  2411 PWs)   bands (ev):

   -19.9469  -8.0477  -8.0079  -7.1568   2.5348   3.3182   3.5786   5.3579

     occupation numbers 
     1.0000   1.0000   1.0000   1.0000   0.0000   0.0000   0.0000   0.0000

          k =-0.2500 0.0538 0.0000 (  2421 PWs)   bands (ev):

   -19.9042  -8.3783  -7.9593  -6.9190   2.5939   3.3751   3.6380   5.2164

     occupation numbers 
     1.0000   1.0000   1.0000   1.0000   0.0000   0.0000   0.0000   0.0000

          k =-0.2500 0.1076 0.0000 (  2419 PWs)   bands (ev):

   -19.7763  -8.9772  -7.8139  -6.6140   2.7712   3.5427   3.8161   4.8792

     occupation numbers 
     1.0000   1.0000   1.0000   1.0000   0.0000   0.0000   0.0000   0.0000

          k =-0.2083 0.1345 0.0000 (  2423 PWs)   bands (ev):

   -19.9584  -8.5831  -8.0232  -6.1801   2.5186   3.2925   3.5612   5.2644

     occupation numbers 
     1.0000   1.0000   1.0000   1.0000   0.0000   0.0000   0.0000   0.0000

          k =-0.2083 0.1883 0.0000 (  2429 PWs)   bands (ev):

   -19.7025  -9.2135  -7.7298  -6.3398   2.8735   3.6308   3.9183   4.7953

     occupation numbers 
     1.0000   1.0000   1.0000   1.0000   0.0000   0.0000   0.0000   0.0000

          k =-0.2083 0.2422 0.0000 (  2434 PWs)   bands (ev):

   -19.3630  -9.8278  -7.3424  -6.7692   3.3458   3.9395   4.3217   4.3940

     occupation numbers 
     1.0000   1.0000   1.0000   1.0000   0.0000   0.0000   0.0000   0.0000

          k =-0.2083 0.2960 0.0000 (  2440 PWs)   bands (ev):

   -18.9416 -10.4087  -7.4197  -6.8647   3.4058   3.9349   4.7422   4.9877

     occupation numbers 
     1.0000   1.0000   1.0000   1.0000   0.0000   0.0000   0.0000   0.0000

          k =-0.2083 0.3498 0.0000 (  2429 PWs)   bands (ev):

   -18.4405 -10.9517  -8.2133  -6.3018   2.6852   4.6398   5.4218   5.6987

     occupation numbers 
     1.0000   1.0000   1.0000   1.0000   0.0000   0.0000   0.0000   0.0000

          k =-0.2083 0.4036 0.0000 (  2424 PWs)   bands (ev):

   -17.8629 -11.4672  -9.0641  -5.6609   1.9253   5.4588   5.8371   6.2148

     occupation numbers 
     1.0000   1.0000   1.0000   1.0000   0.0000   0.0000   0.0000   0.0000

          k =-0.2083 0.4574 0.0000 (  2426 PWs)   bands (ev):

   -17.2134 -11.9887  -9.8781  -4.9527   1.1367   5.5617   6.3931   7.0948

     occupation numbers 
     1.0000   1.0000   1.0000   1.0000   0.0000   0.0000   0.0000   0.0000

          k =-0.2083 0.5112 0.0000 (  2426 PWs)   bands (ev):

   -16.4987 -12.5768 -10.5479  -4.1937   0.3271   5.3517   7.4345   7.9923

     occupation numbers 
     1.0000   1.0000   1.0000   1.0000   0.0000   0.0000   0.0000   0.0000

          k =-0.2083 0.5650 0.0000 (  2423 PWs)   bands (ev):

   -15.7295 -13.2785 -10.9906  -3.4168  -0.4787   5.2092   8.5768   8.6504

     occupation numbers 
     1.0000   1.0000   1.0000   1.0000   0.0000   0.0000   0.0000   0.0000

          k =-0.2083 0.6188 0.0000 (  2429 PWs)   bands (ev):

   -14.9312 -14.0597 -11.1989  -2.7436  -1.1654   5.1373   8.8343   9.7977

     occupation numbers 
     1.0000   1.0000   1.0000   1.0174   0.0000   0.0000   0.0000   0.0000

          k =-0.2083 0.6726 0.0000 (  2429 PWs)   bands (ev):

   -14.9308 -14.0604 -11.1986  -2.7432  -1.1659   5.1373   8.8345   9.7976

     occupation numbers 
     1.0000   1.0000   1.0000   1.0175   0.0000   0.0000   0.0000   0.0000

          k =-0.2083 0.7265 0.0000 (  2423 PWs)   bands (ev):

   -15.7293 -13.2795 -10.9897  -3.4162  -0.4796   5.2092   8.5767   8.6508

     occupation numbers 
     1.0000   1.0000   1.0000   1.0000   0.0000   0.0000   0.0000   0.0000

          k =-0.2083-0.5112 0.0000 (  2426 PWs)   bands (ev):

   -16.4986 -12.5783 -10.5464  -4.1932   0.3261   5.3516   7.4344   7.9925

     occupation numbers 
     1.0000   1.0000   1.0000   1.0000   0.0000   0.0000   0.0000   0.0000

          k =-0.2083-0.4574 0.0000 (  2426 PWs)   bands (ev):

   -17.2134 -11.9904  -9.8762  -4.9522   1.1355   5.5616   6.3930   7.0949

     occupation numbers 
     1.0000   1.0000   1.0000   1.0000   0.0000   0.0000   0.0000   0.0000

          k =-0.2083-0.4036 0.0000 (  2424 PWs)   bands (ev):

   -17.8629 -11.4690  -9.0621  -5.6605   1.9242   5.4588   5.8369   6.2149

     occupation numbers 
     1.0000   1.0000   1.0000   1.0000   0.0000   0.0000   0.0000   0.0000

          k =-0.2083-0.3498 0.0000 (  2429 PWs)   bands (ev):

   -18.4405 -10.9534  -8.2112  -6.3014   2.6841   4.6398   5.4218   5.6987

     occupation numbers 
     1.0000   1.0000   1.0000   1.0000   0.0000   0.0000   0.0000   0.0000

          k =-0.2083-0.2960 0.0000 (  2440 PWs)   bands (ev):

   -18.9416 -10.4104  -7.4175  -6.8644   3.4048   3.9349   4.7422   4.9877

     occupation numbers 
     1.0000   1.0000   1.0000   1.0000   0.0000   0.0000   0.0000   0.0000

          k =-0.2083-0.2422 0.0000 (  2434 PWs)   bands (ev):

   -19.3630  -9.8295  -7.3422  -6.7669   3.3458   3.9392   4.3210   4.3940

     occupation numbers 
     1.0000   1.0000   1.0000   1.0000   0.0000   0.0000   0.0000   0.0000

          k =-0.2083-0.1883 0.0000 (  2429 PWs)   bands (ev):

   -19.7026  -9.2153  -7.7296  -6.3375   2.8735   3.6308   3.9183   4.7945

     occupation numbers 
     1.0000   1.0000   1.0000   1.0000   0.0000   0.0000   0.0000   0.0000

          k =-0.2083-0.1345 0.0000 (  2423 PWs)   bands (ev):

   -19.9585  -8.5850  -8.0231  -6.1778   2.5186   3.2925   3.5612   5.2642

     occupation numbers 
     1.0000   1.0000   1.0000   1.0000   0.0000   0.0000   0.0000   0.0000

          k =-0.2083-0.0807 0.0000 (  2426 PWs)   bands (ev):

   -20.1297  -8.2201  -7.9750  -6.2762   2.2817   3.0615   3.3231   5.2622

     occupation numbers 
     1.0000   1.0000   1.0000   1.0000   0.0000   0.0000   0.0000   0.0000

          k =-0.2083-0.0269 0.0000 (  2405 PWs)   bands (ev):

   -20.2154  -8.3189  -7.4869  -6.5180   2.1633   2.9453   3.2042   5.1678

     occupation numbers 
     1.0000   1.0000   1.0000   1.0000   0.0000   0.0000   0.0000   0.0000

          k =-0.2083 0.0269 0.0000 (  2405 PWs)   bands (ev):

   -20.2154  -8.3189  -7.4857  -6.5193   2.1633   2.9453   3.2042   5.1678

     occupation numbers 
     1.0000   1.0000   1.0000   1.0000   0.0000   0.0000   0.0000   0.0000

          k =-0.2083 0.0807 0.0000 (  2426 PWs)   bands (ev):

   -20.1297  -8.2201  -7.9732  -6.2784   2.2817   3.0615   3.3231   5.2621

     occupation numbers 
     1.0000   1.0000   1.0000   1.0000   0.0000   0.0000   0.0000   0.0000

          k =-0.1667 0.1076 0.0000 (  2420 PWs)   bands (ev):

   -20.2837  -8.3984  -7.5873  -5.8492   2.0696   2.8476   3.1092   5.0648

     occupation numbers 
     1.0000   1.0000   1.0000   1.0000   0.0000   0.0000   0.0000   0.0000

          k =-0.1667 0.1614 0.0000 (  2426 PWs)   bands (ev):

   -20.0692  -8.1980  -8.1499  -6.0087   2.3655   3.1397   3.4068   5.3057

     occupation numbers 
     1.0000   1.0000   1.0000   1.0000   0.0000   0.0000   0.0000   0.0000

          k =-0.1667 0.2152 0.0000 (  2422 PWs)   bands (ev):

   -19.7699  -8.8222  -7.8044  -6.4282   2.7791   3.5448   3.8230   5.0829

     occupation numbers 
     1.0000   1.0000   1.0000   1.0000   0.0000   0.0000   0.0000   0.0000

          k =-0.1667 0.2691 0.0000 (  2428 PWs)   bands (ev):

   -19.3871  -9.4356  -7.3650  -7.0634   3.3098   4.0221   4.3574   4.4492

     occupation numbers 
     1.0000   1.0000   1.0000   1.0000   0.0000   0.0000   0.0000   0.0000

          k =-0.1667 0.3229 0.0000 (  2434 PWs)   bands (ev):

   -18.9225 -10.0321  -7.8364  -6.8357   3.5970   3.9570   4.7492   5.0088

     occupation numbers 
     1.0000   1.0000   1.0000   1.0000   0.0000   0.0000   0.0000   0.0000

          k =-0.1667 0.3767 0.0000 (  2416 PWs)   bands (ev):

   -18.3783 -10.6277  -8.6540  -6.2225   2.7930   4.7188   4.9930   5.4889

     occupation numbers 
     1.0000   1.0000   1.0000   1.0000   0.0000   0.0000   0.0000   0.0000

          k =-0.1667 0.4305 0.0000 (  2414 PWs)   bands (ev):

   -17.7576 -11.2663  -9.4113  -5.5343   1.9425   4.6872   5.5989   6.3402

     occupation numbers 
     1.0000   1.0000   1.0000   1.0000   0.0000   0.0000   0.0000   0.0000

          k =-0.1667 0.4843 0.0000 (  2406 PWs)   bands (ev):

   -17.0643 -12.0008 -10.0090  -4.7857   1.0655   4.4450   6.5888   7.2763

     occupation numbers 
     1.0000   1.0000   1.0000   1.0000   0.0000   0.0000   0.0000   0.0000

          k =-0.1667 0.5381 0.0000 (  2425 PWs)   bands (ev):

   -16.3045 -12.8360 -10.4082  -4.0049   0.1908   4.2687   7.6870   8.2277

     occupation numbers 
     1.0000   1.0000   1.0000   1.0000   0.0000   0.0000   0.0000   0.0000

          k =-0.1667 0.5919 0.0000 (  2425 PWs)   bands (ev):

   -15.4865 -13.7238 -10.6298  -3.2695  -0.6023   4.1619   8.8838   8.9448

     occupation numbers 
     1.0000   1.0000   1.0000   1.0000   0.0000   0.0000   0.0000   0.0000

          k =-0.1667 0.6457 0.0000 (  2431 PWs)   bands (ev):

   -14.6766 -14.5612 -10.7005  -2.8846  -1.0068   4.1261   9.1527  10.1390

     occupation numbers 
     1.0000   1.0000   1.0000   1.0028   0.0000   0.0000   0.0000   0.0000

          k =-0.1667 0.6996 0.0000 (  2425 PWs)   bands (ev):

   -15.4863 -13.7243 -10.6294  -3.2691  -0.6029   4.1619   8.8838   8.9451

     occupation numbers 
     1.0000   1.0000   1.0000   1.0000   0.0000   0.0000   0.0000   0.0000

          k =-0.1667-0.5381 0.0000 (  2425 PWs)   bands (ev):

   -16.3044 -12.8368 -10.4073  -4.0045   0.1900   4.2686   7.6870   8.2279

     occupation numbers 
     1.0000   1.0000   1.0000   1.0000   0.0000   0.0000   0.0000   0.0000

          k =-0.1667-0.4843 0.0000 (  2406 PWs)   bands (ev):

   -17.0643 -12.0021 -10.0076  -4.7853   1.0646   4.4450   6.5888   7.2764

     occupation numbers 
     1.0000   1.0000   1.0000   1.0000   0.0000   0.0000   0.0000   0.0000

          k =-0.1667-0.4305 0.0000 (  2414 PWs)   bands (ev):

   -17.7576 -11.2680  -9.4094  -5.5340   1.9416   4.6872   5.5989   6.3403

     occupation numbers 
     1.0000   1.0000   1.0000   1.0000   0.0000   0.0000   0.0000   0.0000

          k =-0.1667-0.3767 0.0000 (  2416 PWs)   bands (ev):

   -18.3783 -10.6297  -8.6518  -6.2222   2.7921   4.7189   4.9929   5.4890

     occupation numbers 
     1.0000   1.0000   1.0000   1.0000   0.0000   0.0000   0.0000   0.0000

          k =-0.1667-0.3229 0.0000 (  2434 PWs)   bands (ev):

   -18.9225 -10.0341  -7.8340  -6.8355   3.5961   3.9570   4.7492   5.0088

     occupation numbers 
     1.0000   1.0000   1.0000   1.0000   0.0000   0.0000   0.0000   0.0000

          k =-0.1667-0.2691 0.0000 (  2428 PWs)   bands (ev):

   -19.3871  -9.4375  -7.3648  -7.0610   3.3098   4.0221   4.3574   4.4484

     occupation numbers 
     1.0000   1.0000   1.0000   1.0000   0.0000   0.0000   0.0000   0.0000

          k =-0.1667-0.2152 0.0000 (  2422 PWs)   bands (ev):

   -19.7699  -8.8242  -7.8043  -6.4256   2.7791   3.5448   3.8230   5.0822

     occupation numbers 
     1.0000   1.0000   1.0000   1.0000   0.0000   0.0000   0.0000   0.0000

          k =-0.1667-0.1614 0.0000 (  2426 PWs)   bands (ev):

   -20.0692  -8.2000  -8.1498  -6.0062   2.3655   3.1397   3.4068   5.3058

     occupation numbers 
     1.0000   1.0000   1.0000   1.0000   0.0000   0.0000   0.0000   0.0000

          k =-0.1667-0.1076 0.0000 (  2420 PWs)   bands (ev):

   -20.2837  -8.3983  -7.5894  -5.8467   2.0696   2.8476   3.1092   5.0649

     occupation numbers 
     1.0000   1.0000   1.0000   1.0000   0.0000   0.0000   0.0000   0.0000

          k =-0.1667-0.0538 0.0000 (  2412 PWs)   bands (ev):

   -20.4128  -8.5482  -7.0506  -5.9229   1.8918   2.6717   2.9306   4.8999

     occupation numbers 
     1.0000   1.0000   1.0000   1.0000   0.0000   0.0000   0.0000   0.0000

          k =-0.1667-0.0000 0.0000 (  2415 PWs)   bands (ev):

   -20.4558  -8.5983  -6.7744  -6.0466   1.8326   2.6131   2.8710   4.8439

     occupation numbers 
     1.0000   1.0000   1.0000   1.0000   0.0000   0.0000   0.0000   0.0000

          k =-0.1667 0.0538 0.0000 (  2412 PWs)   bands (ev):

   -20.4128  -8.5482  -7.0488  -5.9249   1.8918   2.6717   2.9306   4.8999

     occupation numbers 
     1.0000   1.0000   1.0000   1.0000   0.0000   0.0000   0.0000   0.0000

          k =-0.1250 0.0807 0.0000 (  2424 PWs)   bands (ev):

   -20.5381  -8.6940  -6.6830  -5.5314   1.7204   2.4982   2.7578   4.7299

     occupation numbers 
     1.0000   1.0000   1.0000   1.0000   0.0000   0.0000   0.0000   0.0000

          k =-0.1250 0.1345 0.0000 (  2422 PWs)   bands (ev):

   -20.3657  -8.4928  -7.2382  -5.6945   1.9572   2.7336   2.9958   4.9568

     occupation numbers 
     1.0000   1.0000   1.0000   1.0000   0.0000   0.0000   0.0000   0.0000

          k =-0.1250 0.1883 0.0000 (  2418 PWs)   bands (ev):

   -20.1079  -8.1929  -7.8510  -6.1028   2.3117   3.0859   3.3524   5.2833

     occupation numbers 
     1.0000   1.0000   1.0000   1.0000   0.0000   0.0000   0.0000   0.0000

          k =-0.1250 0.2422 0.0000 (  2426 PWs)   bands (ev):

   -19.7655  -8.4836  -7.7964  -6.7174   2.7837   3.5534   3.8273   5.0902

     occupation numbers 
     1.0000   1.0000   1.0000   1.0000   0.0000   0.0000   0.0000   0.0000

          k =-0.1250 0.2960 0.0000 (  2417 PWs)   bands (ev):

   -19.3398  -9.1279  -7.4594  -7.3065   3.3726   4.1153   4.4184   4.5173

     occupation numbers 
     1.0000   1.0000   1.0000   1.0000   0.0000   0.0000   0.0000   0.0000

          k =-0.1250 0.3498 0.0000 (  2411 PWs)   bands (ev):

   -18.8326  -9.8061  -8.2277  -6.7283   3.6276   4.0756   4.2905   4.8553

     occupation numbers 
     1.0000   1.0000   1.0000   1.0000   0.0000   0.0000   0.0000   0.0000

          k =-0.1250 0.4036 0.0000 (  2413 PWs)   bands (ev):

   -18.2461 -10.5647  -8.9126  -6.0691   2.7304   3.9513   4.9009   5.6602

     occupation numbers 
     1.0000   1.0000   1.0000   1.0000   0.0000   0.0000   0.0000   0.0000

          k =-0.1250 0.4574 0.0000 (  2408 PWs)   bands (ev):

   -17.5834 -11.4276  -9.4422  -5.3411   1.7961   3.6753   5.8362   6.5717

     occupation numbers 
     1.0000   1.0000   1.0000   1.0000   0.0000   0.0000   0.0000   0.0000

          k =-0.1250 0.5112 0.0000 (  2407 PWs)   bands (ev):

   -16.8482 -12.3633  -9.8127  -4.5661   0.8565   3.4643   6.8834   7.5677

     occupation numbers 
     1.0000   1.0000   1.0000   1.0000   0.0000   0.0000   0.0000   0.0000

          k =-0.1250 0.5650 0.0000 (  2425 PWs)   bands (ev):

   -16.0459 -13.3232 -10.0467  -3.7964  -0.0289   3.3219   8.0374   8.5828

     occupation numbers 
     1.0000   1.0000   1.0000   1.0000   0.0000   0.0000   0.0000   0.0000

          k =-0.1250 0.6188 0.0000 (  2423 PWs)   bands (ev):

   -15.1836 -14.2707 -10.1602  -3.1993  -0.6857   3.2503   9.2869   9.3510

     occupation numbers 
     1.0000   1.0000   1.0000   1.0000   0.0000   0.0000   0.0000   0.0000

          k =-0.1250 0.6726 0.0000 (  2423 PWs)   bands (ev):

   -15.1835 -14.2709 -10.1601  -3.1992  -0.6859   3.2503   9.2869   9.3512

     occupation numbers 
     1.0000   1.0000   1.0000   1.0000   0.0000   0.0000   0.0000   0.0000

          k =-0.1250-0.5650 0.0000 (  2425 PWs)   bands (ev):

   -16.0458 -13.3236 -10.0463  -3.7961  -0.0294   3.3219   8.0374   8.5830

     occupation numbers 
     1.0000   1.0000   1.0000   1.0000   0.0000   0.0000   0.0000   0.0000

          k =-0.1250-0.5112 0.0000 (  2407 PWs)   bands (ev):

   -16.8481 -12.3640  -9.8119  -4.5658   0.8559   3.4643   6.8834   7.5678

     occupation numbers 
     1.0000   1.0000   1.0000   1.0000   0.0000   0.0000   0.0000   0.0000

          k =-0.1250-0.4574 0.0000 (  2408 PWs)   bands (ev):

   -17.5833 -11.4287  -9.4409  -5.3408   1.7954   3.6753   5.8362   6.5720

     occupation numbers 
     1.0000   1.0000   1.0000   1.0000   0.0000   0.0000   0.0000   0.0000

          k =-0.1250-0.4036 0.0000 (  2413 PWs)   bands (ev):

   -18.2461 -10.5663  -8.9108  -6.0689   2.7297   3.9513   4.9009   5.6602

     occupation numbers 
     1.0000   1.0000   1.0000   1.0000   0.0000   0.0000   0.0000   0.0000

          k =-0.1250-0.3498 0.0000 (  2411 PWs)   bands (ev):

   -18.8326  -9.8082  -8.2253  -6.7281   3.6268   4.0756   4.2905   4.8554

     occupation numbers 
     1.0000   1.0000   1.0000   1.0000   0.0000   0.0000   0.0000   0.0000

          k =-0.1250-0.2960 0.0000 (  2417 PWs)   bands (ev):

   -19.3398  -9.1301  -7.4568  -7.3063   3.3726   4.1153   4.4184   4.5166

     occupation numbers 
     1.0000   1.0000   1.0000   1.0000   0.0000   0.0000   0.0000   0.0000

          k =-0.1250-0.2422 0.0000 (  2426 PWs)   bands (ev):

   -19.7655  -8.4858  -7.7963  -6.7148   2.7837   3.5534   3.8273   5.0900

     occupation numbers 
     1.0000   1.0000   1.0000   1.0000   0.0000   0.0000   0.0000   0.0000

          k =-0.1250-0.1883 0.0000 (  2418 PWs)   bands (ev):

   -20.1079  -8.1928  -7.8533  -6.1000   2.3117   3.0859   3.3524   5.2833

     occupation numbers 
     1.0000   1.0000   1.0000   1.0000   0.0000   0.0000   0.0000   0.0000

          k =-0.1250-0.1345 0.0000 (  2422 PWs)   bands (ev):

   -20.3657  -8.4928  -7.2405  -5.6917   1.9572   2.7336   2.9958   4.9569

     occupation numbers 
     1.0000   1.0000   1.0000   1.0000   0.0000   0.0000   0.0000   0.0000

          k =-0.1250-0.0807 0.0000 (  2424 PWs)   bands (ev):

   -20.5381  -8.6939  -6.6853  -5.5289   1.7204   2.4982   2.7578   4.7299

     occupation numbers 
     1.0000   1.0000   1.0000   1.0000   0.0000   0.0000   0.0000   0.0000

          k =-0.1250-0.0269 0.0000 (  2415 PWs)   bands (ev):

   -20.6244  -8.7948  -6.2826  -5.5635   1.6019   2.3804   2.6387   4.6154

     occupation numbers 
     1.0000   1.0000   1.0000   1.0000   0.0000   0.0000   0.0000   0.0000

          k =-0.1250 0.0269 0.0000 (  2415 PWs)   bands (ev):

   -20.6244  -8.7948  -6.2813  -5.5650   1.6019   2.3804   2.6387   4.6154

     occupation numbers 
     1.0000   1.0000   1.0000   1.0000   0.0000   0.0000   0.0000   0.0000

          k =-0.0833 0.0538 0.0000 (  2419 PWs)   bands (ev):

   -20.7204  -8.9068  -5.9497  -5.2473   1.4713   2.2477   2.5070   4.4851

     occupation numbers 
     1.0000   1.0000   1.0000   1.0000   0.0000   0.0000   0.0000   0.0000

          k =-0.0833 0.1076 0.0000 (  2429 PWs)   bands (ev):

   -20.5907  -8.7549  -6.3936  -5.4241   1.6487   2.4248   2.6854   4.6582

     occupation numbers 
     1.0000   1.0000   1.0000   1.0000   0.0000   0.0000   0.0000   0.0000

          k =-0.0833 0.1614 0.0000 (  2435 PWs)   bands (ev):

   -20.3751  -8.5028  -6.9577  -5.8247   1.9440   2.7196   2.9824   4.9453

     occupation numbers 
     1.0000   1.0000   1.0000   1.0000   0.0000   0.0000   0.0000   0.0000

          k =-0.0833 0.2152 0.0000 (  2431 PWs)   bands (ev):

   -20.0743  -8.1521  -7.5852  -6.4176   2.3570   3.1316   3.3977   4.6278

     occupation numbers 
     1.0000   1.0000   1.0000   1.0000   0.0000   0.0000   0.0000   0.0000

          k =-0.0833 0.2691 0.0000 (  2423 PWs)   bands (ev):

   -19.6891  -8.2639  -7.7056  -7.1220   2.8873   3.6597   3.9289   4.2006

     occupation numbers 
     1.0000   1.0000   1.0000   1.0000   0.0000   0.0000   0.0000   0.0000

          k =-0.0833 0.3229 0.0000 (  2416 PWs)   bands (ev):

   -19.2211  -9.0216  -7.8276  -7.1674   3.5317   3.7885   4.2750   4.4361

     occupation numbers 
     1.0000   1.0000   1.0000   1.0000   0.0000   0.0000   0.0000   0.0000

          k =-0.0833 0.3767 0.0000 (  2410 PWs)   bands (ev):

   -18.6719  -9.8910  -8.4356  -6.5434   3.4167   3.4703   4.3007   5.0685

     occupation numbers 
     1.0000   1.0000   1.0000   1.0000   0.0000   0.0000   0.0000   0.0000

          k =-0.0833 0.4305 0.0000 (  2418 PWs)   bands (ev):

   -18.0442 -10.8538  -8.9135  -5.8435   2.4957   3.1064   5.1795   5.9359

     occupation numbers 
     1.0000   1.0000   1.0000   1.0000   0.0000   0.0000   0.0000   0.0000

          k =-0.0833 0.4843 0.0000 (  2406 PWs)   bands (ev):

   -17.3407 -11.8618  -9.2720  -5.0843   1.5048   2.8598   6.1724   6.9070

     occupation numbers 
     1.0000   1.0000   1.0000   1.0000   0.0000   0.0000   0.0000   0.0000

          k =-0.0833 0.5381 0.0000 (  2401 PWs)   bands (ev):

   -16.5654 -12.8753  -9.5229  -4.3017   0.5458   2.6813   7.2760   7.9624

     occupation numbers 
     1.0000   1.0000   1.0000   1.0000   0.0000   0.0000   0.0000   0.0000

          k =-0.0833 0.5919 0.0000 (  2420 PWs)   bands (ev):

   -15.7234 -13.8676  -9.6721  -3.5934  -0.2734   2.5734   8.4844   9.0356

     occupation numbers 
     1.0000   1.0000   1.0000   1.0000   0.0000   0.0000   0.0000   0.0000

          k =-0.0833 0.6457 0.0000 (  2418 PWs)   bands (ev):

   -14.8324 -14.8098  -9.7216  -3.2536  -0.6510   2.5373   9.7077   9.7760

     occupation numbers 
     1.0000   1.0000   1.0000   1.0000   0.0000   0.0000   0.0000   0.0000

          k =-0.0833-0.5919 0.0000 (  2420 PWs)   bands (ev):

   -15.7233 -13.8678  -9.6720  -3.5933  -0.2737   2.5734   8.4843   9.0357

     occupation numbers 
     1.0000   1.0000   1.0000   1.0000   0.0000   0.0000   0.0000   0.0000

          k =-0.0833-0.5381 0.0000 (  2401 PWs)   bands (ev):

   -16.5653 -12.8756  -9.5226  -4.3016   0.5454   2.6813   7.2760   7.9624

     occupation numbers 
     1.0000   1.0000   1.0000   1.0000   0.0000   0.0000   0.0000   0.0000

          k =-0.0833-0.4843 0.0000 (  2406 PWs)   bands (ev):

   -17.3406 -11.8623  -9.2715  -5.0842   1.5044   2.8598   6.1724   6.9071

     occupation numbers 
     1.0000   1.0000   1.0000   1.0000   0.0000   0.0000   0.0000   0.0000

          k =-0.0833-0.4305 0.0000 (  2418 PWs)   bands (ev):

   -18.0442 -10.8547  -8.9125  -5.8433   2.4952   3.1064   5.1795   5.9360

     occupation numbers 
     1.0000   1.0000   1.0000   1.0000   0.0000   0.0000   0.0000   0.0000

          k =-0.0833-0.3767 0.0000 (  2410 PWs)   bands (ev):

   -18.6719  -9.8924  -8.4340  -6.5433   3.4167   3.4698   4.3007   5.0685

     occupation numbers 
     1.0000   1.0000   1.0000   1.0000   0.0000   0.0000   0.0000   0.0000

          k =-0.0833-0.3229 0.0000 (  2416 PWs)   bands (ev):

   -19.2211  -9.0237  -7.8253  -7.1673   3.5317   3.7885   4.2750   4.4356

     occupation numbers 
     1.0000   1.0000   1.0000   1.0000   0.0000   0.0000   0.0000   0.0000

          k =-0.0833-0.2691 0.0000 (  2423 PWs)   bands (ev):

   -19.6891  -8.2664  -7.7056  -7.1193   2.8873   3.6597   3.9289   4.2005

     occupation numbers 
     1.0000   1.0000   1.0000   1.0000   0.0000   0.0000   0.0000   0.0000

          k =-0.0833-0.2152 0.0000 (  2431 PWs)   bands (ev):

   -20.0743  -8.1521  -7.5878  -6.4147   2.3570   3.1317   3.3977   4.6276

     occupation numbers 
     1.0000   1.0000   1.0000   1.0000   0.0000   0.0000   0.0000   0.0000

          k =-0.0833-0.1614 0.0000 (  2435 PWs)   bands (ev):

   -20.3752  -8.5027  -6.9603  -5.8217   1.9440   2.7196   2.9824   5.0407

     occupation numbers 
     1.0000   1.0000   1.0000   1.0000   0.0000   0.0000   0.0000   0.0000

          k =-0.0833-0.1076 0.0000 (  2429 PWs)   bands (ev):

   -20.5908  -8.7549  -6.3961  -5.4213   1.6487   2.4248   2.6854   4.6582

     occupation numbers 
     1.0000   1.0000   1.0000   1.0000   0.0000   0.0000   0.0000   0.0000

          k =-0.0833-0.0538 0.0000 (  2419 PWs)   bands (ev):

   -20.7204  -8.9068  -5.9517  -5.2451   1.4713   2.2478   2.5070   4.4851

     occupation numbers 
     1.0000   1.0000   1.0000   1.0000   0.0000   0.0000   0.0000   0.0000

          k =-0.0833 0.0000 0.0000 (  2415 PWs)   bands (ev):

   -20.7636  -8.9576  -5.7585  -5.2242   1.4121   2.1887   2.4475   4.4273

     occupation numbers 
     1.0000   1.0000   1.0000   1.0000   0.0000   0.0000   0.0000   0.0000

          k =-0.0417 0.0269 0.0000 (  2425 PWs)   bands (ev):

   -20.8300  -9.0352  -5.4917  -5.0159   1.3221   2.0973   2.3569   4.3374

     occupation numbers 
     1.0000   1.0000   1.0000   1.0000   0.0000   0.0000   0.0000   0.0000

          k =-0.0417 0.0807 0.0000 (  2432 PWs)   bands (ev):

   -20.7435  -8.9335  -5.7584  -5.2110   1.4402   2.2155   2.4756   4.4534

     occupation numbers 
     1.0000   1.0000   1.0000   1.0000   0.0000   0.0000   0.0000   0.0000

          k =-0.0417 0.1345 0.0000 (  2434 PWs)   bands (ev):

   -20.5706  -8.7307  -6.2119  -5.6165   1.6763   2.4517   2.7130   4.8006

     occupation numbers 
     1.0000   1.0000   1.0000   1.0000   0.0000   0.0000   0.0000   0.0000

          k =-0.0417 0.1883 0.0000 (  2436 PWs)   bands (ev):

   -20.3119  -8.4280  -6.7847  -6.2008   2.0302   2.8057   3.0688   4.4075

     occupation numbers 
     1.0000   1.0000   1.0000   1.0000   0.0000   0.0000   0.0000   0.0000

          k =-0.0417 0.2422 0.0000 (  2420 PWs)   bands (ev):

   -19.9683  -8.0276  -7.4664  -6.8716   2.5016   3.2770   3.5416   3.9762

     occupation numbers 
     1.0000   1.0000   1.0000   1.0000   0.0000   0.0000   0.0000   0.0000

          k =-0.0417 0.2960 0.0000 (  2421 PWs)   bands (ev):

   -19.5409  -8.2940  -7.5330  -7.5033   3.0889   3.5436   3.8645   4.1394

     occupation numbers 
     1.0000   1.0000   1.0000   1.0000   0.0000   0.0000   0.0000   0.0000

          k =-0.0417 0.3498 0.0000 (  2414 PWs)   bands (ev):

   -19.0311  -9.2517  -8.0406  -6.9488   3.1442   3.7996   4.1295   4.5719

     occupation numbers 
     1.0000   1.0000   1.0000   1.0000   0.0000   0.0000   0.0000   0.0000

          k =-0.0417 0.4036 0.0000 (  2413 PWs)   bands (ev):

   -18.4410 -10.2802  -8.4884  -6.2830   2.8014   3.1398   4.6205   5.3863

     occupation numbers 
     1.0000   1.0000   1.0000   1.0000   0.0000   0.0000   0.0000   0.0000

          k =-0.0417 0.4574 0.0000 (  2412 PWs)   bands (ev):

   -17.7731 -11.3346  -8.8500  -5.5483   2.1193   2.5194   5.5572   6.3122

     occupation numbers 
     1.0000   1.0000   1.0000   1.0000   0.0000   0.0000   0.0000   0.0000

          k =-0.0417 0.5112 0.0000 (  2406 PWs)   bands (ev):

   -17.0305 -12.3857  -9.1241  -4.7698   1.1098   2.3047   6.6069   7.3397

     occupation numbers 
     1.0000   1.0000   1.0000   1.0000   0.0000   0.0000   0.0000   0.0000

          k =-0.0417 0.5650 0.0000 (  2408 PWs)   bands (ev):

   -16.2174 -13.4127  -9.3083  -4.0071   0.1846   2.1604   7.7656   8.4476

     occupation numbers 
     1.0000   1.0000   1.0000   1.0000   0.0000   0.0000   0.0000   0.0000

          k =-0.0417 0.6188 0.0000 (  2410 PWs)   bands (ev):

   -15.3391 -14.4002  -9.4008  -3.4374  -0.4692   2.0880   9.0258   9.5416

     occupation numbers 
     1.0000   1.0000   1.0000   1.0000   0.0000   0.0000   0.0000   0.0000

          k =-0.0417-0.6188 0.0000 (  2410 PWs)   bands (ev):

   -15.3391 -14.4003  -9.4008  -3.4374  -0.4692   2.0880   9.0258   9.5417

     occupation numbers 
     1.0000   1.0000   1.0000   1.0000   0.0000   0.0000   0.0000   0.0000

          k =-0.0417-0.5650 0.0000 (  2408 PWs)   bands (ev):

   -16.2174 -13.4128  -9.3082  -4.0070   0.1844   2.1604   7.7656   8.4476

     occupation numbers 
     1.0000   1.0000   1.0000   1.0000   0.0000   0.0000   0.0000   0.0000

          k =-0.0417-0.5112 0.0000 (  2406 PWs)   bands (ev):

   -17.0305 -12.3859  -9.1239  -4.7697   1.1096   2.3047   6.6069   7.3398

     occupation numbers 
     1.0000   1.0000   1.0000   1.0000   0.0000   0.0000   0.0000   0.0000

          k =-0.0417-0.4574 0.0000 (  2412 PWs)   bands (ev):

   -17.7731 -11.3349  -8.8496  -5.5483   2.1191   2.5194   5.5572   6.3123

     occupation numbers 
     1.0000   1.0000   1.0000   1.0000   0.0000   0.0000   0.0000   0.0000

          k =-0.0417-0.4036 0.0000 (  2413 PWs)   bands (ev):

   -18.4410 -10.2807  -8.4878  -6.2829   2.8014   3.1395   4.6205   5.3863

     occupation numbers 
     1.0000   1.0000   1.0000   1.0000   0.0000   0.0000   0.0000   0.0000

          k =-0.0417-0.3498 0.0000 (  2414 PWs)   bands (ev):

   -19.0311  -9.2527  -8.0395  -6.9488   3.1442   3.7995   4.1292   4.5719

     occupation numbers 
     1.0000   1.0000   1.0000   1.0000   0.0000   0.0000   0.0000   0.0000

          k =-0.0417-0.2960 0.0000 (  2421 PWs)   bands (ev):

   -19.5409  -8.2958  -7.5330  -7.5014   3.0889   3.5436   3.8645   4.1394

     occupation numbers 
     1.0000   1.0000   1.0000   1.0000   0.0000   0.0000   0.0000   0.0000

          k =-0.0417-0.2422 0.0000 (  2420 PWs)   bands (ev):

   -19.9683  -8.0276  -7.4690  -6.8688   2.5016   3.2770   3.5416   3.9761

     occupation numbers 
     1.0000   1.0000   1.0000   1.0000   0.0000   0.0000   0.0000   0.0000

          k =-0.0417-0.1883 0.0000 (  2436 PWs)   bands (ev):

   -20.3119  -8.4280  -6.7875  -6.1978   2.0302   2.8057   3.0688   4.4074

     occupation numbers 
     1.0000   1.0000   1.0000   1.0000   0.0000   0.0000   0.0000   0.0000

          k =-0.0417-0.1345 0.0000 (  2434 PWs)   bands (ev):

   -20.5706  -8.7306  -6.2144  -5.6138   1.6763   2.4517   2.7130   4.8002

     occupation numbers 
     1.0000   1.0000   1.0000   1.0000   0.0000   0.0000   0.0000   0.0000

          k =-0.0417-0.0807 0.0000 (  2432 PWs)   bands (ev):

   -20.7435  -8.9335  -5.7603  -5.2089   1.4402   2.2155   2.4756   4.4534

     occupation numbers 
     1.0000   1.0000   1.0000   1.0000   0.0000   0.0000   0.0000   0.0000

          k =-0.0417-0.0269 0.0000 (  2425 PWs)   bands (ev):

   -20.8300  -9.0352  -5.4926  -5.0150   1.3221   2.0973   2.3569   4.3374

     occupation numbers 
     1.0000   1.0000   1.0000   1.0000   0.0000   0.0000   0.0000   0.0000

     the Fermi energy is    -2.1077 ev

!    total energy              =     -36.85709087 Ry
     total all-electron energy =      -152.385285 Ry
     estimated scf accuracy    <          3.5E-12 Ry
     smearing contrib. (-TS)   =       0.00005708 Ry
     internal energy E=F+TS    =     -36.85714794 Ry

     The total energy is F=E-TS. E is the sum of the following terms:
     one-electron contribution =    -146.83412211 Ry
     hartree contribution      =      74.95369040 Ry
     xc contribution           =      -9.13316735 Ry
     ewald contribution        =      56.48495438 Ry
     one-center paw contrib.   =     -12.32850328 Ry
      -> PAW hartree energy AE =       8.66704032 Ry
      -> PAW hartree energy PS =      -8.65882616 Ry
      -> PAW xc energy AE      =     -10.47210167 Ry
      -> PAW xc energy PS      =       4.29963699 Ry
      -> total E_H with PAW    =      74.96190456 Ry
      -> total E_XC with PAW   =     -15.30563202 Ry

     convergence has been achieved in   4 iterations

     negative rho (up, down):  2.063E-03 0.000E+00

     Forces acting on atoms (cartesian axes, Ry/au):

     atom    1 type  1   force =    -0.00004059   -0.00000369    0.00000000
     atom    2 type  1   force =     0.00004059    0.00000369   -0.00000000
     The non-local contrib.  to forces
     atom    1 type  1   force =    -0.00021873    0.11305033   -0.00000000
     atom    2 type  1   force =    -0.00000327   -0.11279503   -0.00000001
     The ionic contribution  to forces
     atom    1 type  1   force =    -0.00070739    0.80276767    0.00000000
     atom    2 type  1   force =     0.00070739   -0.80276767   -0.00000000
     The local contribution  to forces
     atom    1 type  1   force =     0.00073706   -0.91149852   -0.00000002
     atom    2 type  1   force =    -0.00050842    0.91123310   -0.00000002
     The core correction contribution to forces
     atom    1 type  1   force =     0.00013910   -0.00418989    0.00000000
     atom    2 type  1   force =    -0.00016446    0.00446658    0.00000000
     The Hubbard contrib.    to forces
     atom    1 type  1   force =     0.00000000    0.00000000    0.00000000
     atom    2 type  1   force =     0.00000000    0.00000000    0.00000000
     The SCF correction term to forces
     atom    1 type  1   force =     0.00000003    0.00000010    0.00000000
     atom    2 type  1   force =    -0.00000000    0.00000011    0.00000000

     Total force =     0.000058     Total SCF correction =     0.000000
     Energy error            =      3.7E-08 Ry
     Gradient error          =      4.1E-05 Ry/Bohr

     bfgs converged in   4 scf cycles and   2 bfgs steps
     (criteria: energy <  1.0E-05 Ry, force <  1.0E-04 Ry/Bohr)

     End of BFGS Geometry Optimization

     Final energy             =     -36.8570908661 Ry

     File ./tmp/graphene10.0.bfgs deleted, as requested
Begin final coordinates

ATOMIC_POSITIONS (crystal)
C               -0.0017970255        0.0036381574        0.0000000000    1   1   0
C                0.3351300255        0.3296948426        0.0000000000    1   1   0
End final coordinates



     Writing all to output data dir ./tmp/graphene10.0.save/ :
     XML data file, charge density, pseudopotentials, collected wavefunctions

     init_run     :      1.63s CPU      1.65s WALL (       1 calls)
     electrons    :     31.62s CPU     31.90s WALL (       4 calls)
     update_pot   :      0.07s CPU      0.08s WALL (       3 calls)
     forces       :      0.37s CPU      0.39s WALL (       4 calls)

     Called by init_run:
     wfcinit      :      0.85s CPU      0.86s WALL (       1 calls)
     wfcinit:atom :      0.01s CPU      0.01s WALL (      72 calls)
     wfcinit:wfcr :      0.77s CPU      0.77s WALL (      72 calls)
     potinit      :      0.04s CPU      0.04s WALL (       1 calls)
     hinit0       :      0.72s CPU      0.72s WALL (       1 calls)

     Called by electrons:
     c_bands      :     26.89s CPU     27.03s WALL (      21 calls)
     sum_band     :      4.15s CPU      4.17s WALL (      21 calls)
     v_of_rho     :      0.33s CPU      0.34s WALL (      24 calls)
     v_h          :      0.01s CPU      0.02s WALL (      24 calls)
     v_xc         :      0.36s CPU      0.39s WALL (      28 calls)
     newd         :      0.04s CPU      0.04s WALL (      24 calls)
     PAW_pot      :      0.26s CPU      0.26s WALL (      27 calls)
     mix_rho      :      0.03s CPU      0.03s WALL (      21 calls)

     Called by c_bands:
     init_us_2    :      0.84s CPU      0.85s WALL (    3600 calls)
     cegterg      :     21.74s CPU     21.86s WALL (    1512 calls)

     Called by sum_band:
     sum_band:wei :      0.01s CPU      0.01s WALL (      21 calls)
     sum_band:loo :      3.77s CPU      3.79s WALL (      21 calls)
     sum_band:buf :      0.07s CPU      0.07s WALL (    1512 calls)
     sum_band:ini :      0.36s CPU      0.36s WALL (    1512 calls)
     sum_band:cal :      0.23s CPU      0.23s WALL (    1728 calls)
     sum_band:bec :      0.01s CPU      0.01s WALL (    1728 calls)
     addusdens    :      0.03s CPU      0.03s WALL (      21 calls)
                                        0.00s GPU  (      21 calls)
     addusd:skk   :      0.00s CPU      0.00s WALL (      21 calls)
                                        0.00s GPU  (      21 calls)

     Called by *egterg:
     cdiaghg      :      0.35s CPU      0.36s WALL (    5871 calls)
     cegterg:over :      0.64s CPU      0.64s WALL (    4647 calls)
     cegterg:upda :      0.51s CPU      0.51s WALL (    4647 calls)
     cegterg:last :      0.92s CPU      0.93s WALL (    3390 calls)
     h_psi        :     18.86s CPU     18.95s WALL (    6231 calls)
     s_psi        :      0.55s CPU      0.55s WALL (    6231 calls)
     g_psi        :      0.21s CPU      0.21s WALL (    4647 calls)

     Called by h_psi:
     h_psi:calbec :      0.64s CPU      0.65s WALL (    6231 calls)
     vloc_psi     :     17.49s CPU     17.58s WALL (    6231 calls)
     add_vuspsi   :      0.62s CPU      0.63s WALL (    6231 calls)

     General routines
     calbec       :      0.99s CPU      1.00s WALL (    9111 calls)
     fft          :      0.75s CPU      0.75s WALL (     312 calls)
     ffts         :      0.01s CPU      0.01s WALL (      21 calls)
     fftw         :     17.21s CPU     17.29s WALL (   77608 calls)

     Parallel routines

     PAW routines
     PAW_pot      :      0.26s CPU      0.26s WALL (      27 calls)

     PWSCF        :     33.98s CPU     35.50s WALL


   This run was terminated on:  18:59:49  21Apr2026            

=------------------------------------------------------------------------------=
   JOB DONE.
=------------------------------------------------------------------------------=
