
     Program PWSCF v.7.3.1 starts on 20Apr2026 at  6:12:30 

     This program is part of the open-source Quantum ESPRESSO suite
     for quantum simulation of materials; please cite
         "P. Giannozzi et al., J. Phys.:Condens. Matter 21 395502 (2009);
         "P. Giannozzi et al., J. Phys.:Condens. Matter 29 465901 (2017);
         "P. Giannozzi et al., J. Chem. Phys. 152 154105 (2020);
          URL http://www.quantum-espresso.org", 
     in publications or presentations arising from this work. More details at
     http://www.quantum-espresso.org/quote

     Parallel version (MPI & OpenMP), running on       8 processor cores
     Number of MPI processes:                 8
     Threads/MPI process:                     1

     MPI processes distributed on     1 nodes
     27472 MiB available memory on the printing compute node when the environment starts

     Reading input from relax26.3.in

     Current dimensions of program PWSCF are:
     Max number of different atomic species (ntypx) = 10
     Max number of k-points (npk) =  40000
     Max angular momentum in pseudopotentials (lmaxx) =  4
     file C.pbe-n-kjpaw_psl.1.0.0.UPF: wavefunction(s)  2S 2P renormalized

     IMPORTANT: XC functional enforced from input :
     Exchange-correlation= PBE
                           (   1   4   3   4   0   0   0)
     Any further DFT definition will be discarded
     Please, verify this is what you really want


     K-points division:     npool     =       8
     Subspace diagonalization in iterative solution of the eigenvalue problem:
     a serial algorithm will be used


     G-vector sticks info
     --------------------
     sticks:   dense  smooth     PW     G-vecs:    dense   smooth      PW
     Sum         285     285    103                21731    21731    4743

     Using Slab Decomposition



     bravais-lattice index     =            0
     lattice parameter (alat)  =       5.8425  a.u.
     unit-cell volume          =     634.6909 (a.u.)^3
     number of atoms/cell      =            2
     number of atomic types    =            1
     number of electrons       =         8.00
     number of Kohn-Sham states=            8
     kinetic-energy cutoff     =      40.0000  Ry
     charge density cutoff     =     160.0000  Ry
     scf convergence threshold =      1.0E-08
     mixing beta               =       0.7000
     number of iterations used =            8  plain     mixing
     energy convergence thresh.=      1.0E-05
     force convergence thresh. =      1.0E-04
     Exchange-correlation= PBE
                           (   1   4   3   4   0   0   0)
     nstep                     =           50


     celldm(1)=   5.842541  celldm(2)=   0.000000  celldm(3)=   0.000000
     celldm(4)=   0.000000  celldm(5)=   0.000000  celldm(6)=   0.000000

     crystal axes: (cart. coord. in units of alat)
               a(1) = (   1.000000   0.000000   0.000000 )  
               a(2) = (   0.500000   0.655934   0.000000 )  
               a(3) = (   0.000000   0.000000   4.851734 )  

     reciprocal axes: (cart. coord. in units 2 pi/alat)
               b(1) = (  1.000000 -0.762272  0.000000 )  
               b(2) = (  0.000000  1.524544  0.000000 )  
               b(3) = (  0.000000  0.000000  0.206112 )  


     PseudoPot. # 1 for C  read from file:
     ./C.pbe-n-kjpaw_psl.1.0.0.UPF
     MD5 check sum: 5f16ad9a65e90284d1d834d4ab3b0f7d
     Pseudo is Projector augmented-wave + core cor, Zval =  4.0
     Generated using &quot;atomic&quot; code by A. Dal Corso  v.6.3
     Shape of augmentation charge: PSQ
     Using radial grid of 1073 points,  4 beta functions with: 
                l(1) =   0
                l(2) =   0
                l(3) =   1
                l(4) =   1
     Q(r) pseudized with 0 coefficients 


     atomic species   valence    mass     pseudopotential
     C                 4.00    12.01100     C ( 1.00)

     No symmetry found


                                    s                        frac. trans.

      isym =  1     identity                                     

 cryst.   s( 1) = (     1          0          0      )
                  (     0          1          0      )
                  (     0          0          1      )

 cart.    s( 1) = (  1.0000000  0.0000000  0.0000000 )
                  (  0.0000000  1.0000000  0.0000000 )
                  (  0.0000000  0.0000000  1.0000000 )


   Cartesian axes

     site n.     atom                  positions (alat units)
         1        C      tau(   1) = (   0.0000415  -0.0000925   0.0000000  )
         2        C      tau(   2) = (   0.4999580   0.2187369   0.0000000  )

   Crystallographic axes

     site n.     atom                  positions (cryst. coord.)
         1        C      tau(   1) = (  0.0001120 -0.0001410  0.0000000  )
         2        C      tau(   2) = (  0.3332210  0.3334740  0.0000000  )

     number of k points=   576  Marzari-Vanderbilt smearing, width (Ry)=  0.0200
                       cart. coord. in units 2pi/alat
        k(    1) = (   0.0000000   0.0000000   0.0000000), wk =   0.0034722
        k(    2) = (   0.0000000   0.0635227   0.0000000), wk =   0.0034722
        k(    3) = (   0.0000000   0.1270453   0.0000000), wk =   0.0034722
        k(    4) = (   0.0000000   0.1905680   0.0000000), wk =   0.0034722
        k(    5) = (   0.0000000   0.2540907   0.0000000), wk =   0.0034722
        k(    6) = (   0.0000000   0.3176134   0.0000000), wk =   0.0034722
        k(    7) = (   0.0000000   0.3811360   0.0000000), wk =   0.0034722
        k(    8) = (   0.0000000   0.4446587   0.0000000), wk =   0.0034722
        k(    9) = (   0.0000000   0.5081814   0.0000000), wk =   0.0034722
        k(   10) = (   0.0000000   0.5717041   0.0000000), wk =   0.0034722
        k(   11) = (   0.0000000   0.6352267   0.0000000), wk =   0.0034722
        k(   12) = (   0.0000000   0.6987494   0.0000000), wk =   0.0034722
        k(   13) = (   0.0000000  -0.7622721   0.0000000), wk =   0.0034722
        k(   14) = (   0.0000000  -0.6987494   0.0000000), wk =   0.0034722
        k(   15) = (   0.0000000  -0.6352267   0.0000000), wk =   0.0034722
        k(   16) = (   0.0000000  -0.5717041   0.0000000), wk =   0.0034722
        k(   17) = (   0.0000000  -0.5081814   0.0000000), wk =   0.0034722
        k(   18) = (   0.0000000  -0.4446587   0.0000000), wk =   0.0034722
        k(   19) = (   0.0000000  -0.3811360   0.0000000), wk =   0.0034722
        k(   20) = (   0.0000000  -0.3176134   0.0000000), wk =   0.0034722
        k(   21) = (   0.0000000  -0.2540907   0.0000000), wk =   0.0034722
        k(   22) = (   0.0000000  -0.1905680   0.0000000), wk =   0.0034722
        k(   23) = (   0.0000000  -0.1270453   0.0000000), wk =   0.0034722
        k(   24) = (   0.0000000  -0.0635227   0.0000000), wk =   0.0034722
        k(   25) = (   0.0416667  -0.0317613   0.0000000), wk =   0.0034722
        k(   26) = (   0.0416667   0.0317613   0.0000000), wk =   0.0034722
        k(   27) = (   0.0416667   0.0952840   0.0000000), wk =   0.0034722
        k(   28) = (   0.0416667   0.1588067   0.0000000), wk =   0.0034722
        k(   29) = (   0.0416667   0.2223293   0.0000000), wk =   0.0034722
        k(   30) = (   0.0416667   0.2858520   0.0000000), wk =   0.0034722
        k(   31) = (   0.0416667   0.3493747   0.0000000), wk =   0.0034722
        k(   32) = (   0.0416667   0.4128974   0.0000000), wk =   0.0034722
        k(   33) = (   0.0416667   0.4764200   0.0000000), wk =   0.0034722
        k(   34) = (   0.0416667   0.5399427   0.0000000), wk =   0.0034722
        k(   35) = (   0.0416667   0.6034654   0.0000000), wk =   0.0034722
        k(   36) = (   0.0416667   0.6669881   0.0000000), wk =   0.0034722
        k(   37) = (   0.0416667  -0.7940334   0.0000000), wk =   0.0034722
        k(   38) = (   0.0416667  -0.7305107   0.0000000), wk =   0.0034722
        k(   39) = (   0.0416667  -0.6669881   0.0000000), wk =   0.0034722
        k(   40) = (   0.0416667  -0.6034654   0.0000000), wk =   0.0034722
        k(   41) = (   0.0416667  -0.5399427   0.0000000), wk =   0.0034722
        k(   42) = (   0.0416667  -0.4764200   0.0000000), wk =   0.0034722
        k(   43) = (   0.0416667  -0.4128974   0.0000000), wk =   0.0034722
        k(   44) = (   0.0416667  -0.3493747   0.0000000), wk =   0.0034722
        k(   45) = (   0.0416667  -0.2858520   0.0000000), wk =   0.0034722
        k(   46) = (   0.0416667  -0.2223294   0.0000000), wk =   0.0034722
        k(   47) = (   0.0416667  -0.1588067   0.0000000), wk =   0.0034722
        k(   48) = (   0.0416667  -0.0952840   0.0000000), wk =   0.0034722
        k(   49) = (   0.0833333  -0.0635227   0.0000000), wk =   0.0034722
        k(   50) = (   0.0833333  -0.0000000   0.0000000), wk =   0.0034722
        k(   51) = (   0.0833333   0.0635227   0.0000000), wk =   0.0034722
        k(   52) = (   0.0833333   0.1270453   0.0000000), wk =   0.0034722
        k(   53) = (   0.0833333   0.1905680   0.0000000), wk =   0.0034722
        k(   54) = (   0.0833333   0.2540907   0.0000000), wk =   0.0034722
        k(   55) = (   0.0833333   0.3176134   0.0000000), wk =   0.0034722
        k(   56) = (   0.0833333   0.3811360   0.0000000), wk =   0.0034722
        k(   57) = (   0.0833333   0.4446587   0.0000000), wk =   0.0034722
        k(   58) = (   0.0833333   0.5081814   0.0000000), wk =   0.0034722
        k(   59) = (   0.0833333   0.5717040   0.0000000), wk =   0.0034722
        k(   60) = (   0.0833333   0.6352267   0.0000000), wk =   0.0034722
        k(   61) = (   0.0833333  -0.8257948   0.0000000), wk =   0.0034722
        k(   62) = (   0.0833333  -0.7622721   0.0000000), wk =   0.0034722
        k(   63) = (   0.0833333  -0.6987494   0.0000000), wk =   0.0034722
        k(   64) = (   0.0833333  -0.6352267   0.0000000), wk =   0.0034722
        k(   65) = (   0.0833333  -0.5717041   0.0000000), wk =   0.0034722
        k(   66) = (   0.0833333  -0.5081814   0.0000000), wk =   0.0034722
        k(   67) = (   0.0833333  -0.4446587   0.0000000), wk =   0.0034722
        k(   68) = (   0.0833333  -0.3811360   0.0000000), wk =   0.0034722
        k(   69) = (   0.0833333  -0.3176134   0.0000000), wk =   0.0034722
        k(   70) = (   0.0833333  -0.2540907   0.0000000), wk =   0.0034722
        k(   71) = (   0.0833333  -0.1905680   0.0000000), wk =   0.0034722
        k(   72) = (   0.0833333  -0.1270454   0.0000000), wk =   0.0034722
        k(   73) = (   0.1250000  -0.0952840   0.0000000), wk =   0.0034722
        k(   74) = (   0.1250000  -0.0317614   0.0000000), wk =   0.0034722
        k(   75) = (   0.1250000   0.0317613   0.0000000), wk =   0.0034722
        k(   76) = (   0.1250000   0.0952840   0.0000000), wk =   0.0034722
        k(   77) = (   0.1250000   0.1588067   0.0000000), wk =   0.0034722
        k(   78) = (   0.1250000   0.2223293   0.0000000), wk =   0.0034722
        k(   79) = (   0.1250000   0.2858520   0.0000000), wk =   0.0034722
        k(   80) = (   0.1250000   0.3493747   0.0000000), wk =   0.0034722
        k(   81) = (   0.1250000   0.4128974   0.0000000), wk =   0.0034722
        k(   82) = (   0.1250000   0.4764200   0.0000000), wk =   0.0034722
        k(   83) = (   0.1250000   0.5399427   0.0000000), wk =   0.0034722
        k(   84) = (   0.1250000   0.6034654   0.0000000), wk =   0.0034722
        k(   85) = (   0.1250000  -0.8575561   0.0000000), wk =   0.0034722
        k(   86) = (   0.1250000  -0.7940334   0.0000000), wk =   0.0034722
        k(   87) = (   0.1250000  -0.7305108   0.0000000), wk =   0.0034722
        k(   88) = (   0.1250000  -0.6669881   0.0000000), wk =   0.0034722
        k(   89) = (   0.1250000  -0.6034654   0.0000000), wk =   0.0034722
        k(   90) = (   0.1250000  -0.5399427   0.0000000), wk =   0.0034722
        k(   91) = (   0.1250000  -0.4764201   0.0000000), wk =   0.0034722
        k(   92) = (   0.1250000  -0.4128974   0.0000000), wk =   0.0034722
        k(   93) = (   0.1250000  -0.3493747   0.0000000), wk =   0.0034722
        k(   94) = (   0.1250000  -0.2858520   0.0000000), wk =   0.0034722
        k(   95) = (   0.1250000  -0.2223294   0.0000000), wk =   0.0034722
        k(   96) = (   0.1250000  -0.1588067   0.0000000), wk =   0.0034722
        k(   97) = (   0.1666667  -0.1270454   0.0000000), wk =   0.0034722
        k(   98) = (   0.1666667  -0.0635227   0.0000000), wk =   0.0034722
        k(   99) = (   0.1666667  -0.0000000   0.0000000), wk =   0.0034722
        k(  100) = (   0.1666667   0.0635227   0.0000000), wk =   0.0034722
        k(  101) = (   0.1666667   0.1270453   0.0000000), wk =   0.0034722
        k(  102) = (   0.1666667   0.1905680   0.0000000), wk =   0.0034722
        k(  103) = (   0.1666667   0.2540907   0.0000000), wk =   0.0034722
        k(  104) = (   0.1666667   0.3176133   0.0000000), wk =   0.0034722
        k(  105) = (   0.1666667   0.3811360   0.0000000), wk =   0.0034722
        k(  106) = (   0.1666667   0.4446587   0.0000000), wk =   0.0034722
        k(  107) = (   0.1666667   0.5081814   0.0000000), wk =   0.0034722
        k(  108) = (   0.1666667   0.5717040   0.0000000), wk =   0.0034722
        k(  109) = (   0.1666667  -0.8893174   0.0000000), wk =   0.0034722
        k(  110) = (   0.1666667  -0.8257948   0.0000000), wk =   0.0034722
        k(  111) = (   0.1666667  -0.7622721   0.0000000), wk =   0.0034722
        k(  112) = (   0.1666667  -0.6987494   0.0000000), wk =   0.0034722
        k(  113) = (   0.1666667  -0.6352267   0.0000000), wk =   0.0034722
        k(  114) = (   0.1666667  -0.5717041   0.0000000), wk =   0.0034722
        k(  115) = (   0.1666667  -0.5081814   0.0000000), wk =   0.0034722
        k(  116) = (   0.1666667  -0.4446587   0.0000000), wk =   0.0034722
        k(  117) = (   0.1666667  -0.3811361   0.0000000), wk =   0.0034722
        k(  118) = (   0.1666667  -0.3176134   0.0000000), wk =   0.0034722
        k(  119) = (   0.1666667  -0.2540907   0.0000000), wk =   0.0034722
        k(  120) = (   0.1666667  -0.1905680   0.0000000), wk =   0.0034722
        k(  121) = (   0.2083333  -0.1588067   0.0000000), wk =   0.0034722
        k(  122) = (   0.2083333  -0.0952840   0.0000000), wk =   0.0034722
        k(  123) = (   0.2083333  -0.0317614   0.0000000), wk =   0.0034722
        k(  124) = (   0.2083333   0.0317613   0.0000000), wk =   0.0034722
        k(  125) = (   0.2083333   0.0952840   0.0000000), wk =   0.0034722
        k(  126) = (   0.2083333   0.1588067   0.0000000), wk =   0.0034722
        k(  127) = (   0.2083333   0.2223293   0.0000000), wk =   0.0034722
        k(  128) = (   0.2083333   0.2858520   0.0000000), wk =   0.0034722
        k(  129) = (   0.2083333   0.3493747   0.0000000), wk =   0.0034722
        k(  130) = (   0.2083333   0.4128973   0.0000000), wk =   0.0034722
        k(  131) = (   0.2083333   0.4764200   0.0000000), wk =   0.0034722
        k(  132) = (   0.2083333   0.5399427   0.0000000), wk =   0.0034722
        k(  133) = (   0.2083333  -0.9210788   0.0000000), wk =   0.0034722
        k(  134) = (   0.2083333  -0.8575561   0.0000000), wk =   0.0034722
        k(  135) = (   0.2083333  -0.7940334   0.0000000), wk =   0.0034722
        k(  136) = (   0.2083333  -0.7305108   0.0000000), wk =   0.0034722
        k(  137) = (   0.2083333  -0.6669881   0.0000000), wk =   0.0034722
        k(  138) = (   0.2083333  -0.6034654   0.0000000), wk =   0.0034722
        k(  139) = (   0.2083333  -0.5399427   0.0000000), wk =   0.0034722
        k(  140) = (   0.2083333  -0.4764201   0.0000000), wk =   0.0034722
        k(  141) = (   0.2083333  -0.4128974   0.0000000), wk =   0.0034722
        k(  142) = (   0.2083333  -0.3493747   0.0000000), wk =   0.0034722
        k(  143) = (   0.2083333  -0.2858521   0.0000000), wk =   0.0034722
        k(  144) = (   0.2083333  -0.2223294   0.0000000), wk =   0.0034722
        k(  145) = (   0.2500000  -0.1905681   0.0000000), wk =   0.0034722
        k(  146) = (   0.2500000  -0.1270454   0.0000000), wk =   0.0034722
        k(  147) = (   0.2500000  -0.0635227   0.0000000), wk =   0.0034722
        k(  148) = (   0.2500000  -0.0000000   0.0000000), wk =   0.0034722
        k(  149) = (   0.2500000   0.0635226   0.0000000), wk =   0.0034722
        k(  150) = (   0.2500000   0.1270453   0.0000000), wk =   0.0034722
        k(  151) = (   0.2500000   0.1905680   0.0000000), wk =   0.0034722
        k(  152) = (   0.2500000   0.2540907   0.0000000), wk =   0.0034722
        k(  153) = (   0.2500000   0.3176133   0.0000000), wk =   0.0034722
        k(  154) = (   0.2500000   0.3811360   0.0000000), wk =   0.0034722
        k(  155) = (   0.2500000   0.4446587   0.0000000), wk =   0.0034722
        k(  156) = (   0.2500000   0.5081813   0.0000000), wk =   0.0034722
        k(  157) = (   0.2500000  -0.9528401   0.0000000), wk =   0.0034722
        k(  158) = (   0.2500000  -0.8893174   0.0000000), wk =   0.0034722
        k(  159) = (   0.2500000  -0.8257948   0.0000000), wk =   0.0034722
        k(  160) = (   0.2500000  -0.7622721   0.0000000), wk =   0.0034722
        k(  161) = (   0.2500000  -0.6987494   0.0000000), wk =   0.0034722
        k(  162) = (   0.2500000  -0.6352268   0.0000000), wk =   0.0034722
        k(  163) = (   0.2500000  -0.5717041   0.0000000), wk =   0.0034722
        k(  164) = (   0.2500000  -0.5081814   0.0000000), wk =   0.0034722
        k(  165) = (   0.2500000  -0.4446587   0.0000000), wk =   0.0034722
        k(  166) = (   0.2500000  -0.3811361   0.0000000), wk =   0.0034722
        k(  167) = (   0.2500000  -0.3176134   0.0000000), wk =   0.0034722
        k(  168) = (   0.2500000  -0.2540907   0.0000000), wk =   0.0034722
        k(  169) = (   0.2916667  -0.2223294   0.0000000), wk =   0.0034722
        k(  170) = (   0.2916667  -0.1588067   0.0000000), wk =   0.0034722
        k(  171) = (   0.2916667  -0.0952840   0.0000000), wk =   0.0034722
        k(  172) = (   0.2916667  -0.0317614   0.0000000), wk =   0.0034722
        k(  173) = (   0.2916667   0.0317613   0.0000000), wk =   0.0034722
        k(  174) = (   0.2916667   0.0952840   0.0000000), wk =   0.0034722
        k(  175) = (   0.2916667   0.1588066   0.0000000), wk =   0.0034722
        k(  176) = (   0.2916667   0.2223293   0.0000000), wk =   0.0034722
        k(  177) = (   0.2916667   0.2858520   0.0000000), wk =   0.0034722
        k(  178) = (   0.2916667   0.3493747   0.0000000), wk =   0.0034722
        k(  179) = (   0.2916667   0.4128973   0.0000000), wk =   0.0034722
        k(  180) = (   0.2916667   0.4764200   0.0000000), wk =   0.0034722
        k(  181) = (   0.2916667  -0.9846015   0.0000000), wk =   0.0034722
        k(  182) = (   0.2916667  -0.9210788   0.0000000), wk =   0.0034722
        k(  183) = (   0.2916667  -0.8575561   0.0000000), wk =   0.0034722
        k(  184) = (   0.2916667  -0.7940334   0.0000000), wk =   0.0034722
        k(  185) = (   0.2916667  -0.7305108   0.0000000), wk =   0.0034722
        k(  186) = (   0.2916667  -0.6669881   0.0000000), wk =   0.0034722
        k(  187) = (   0.2916667  -0.6034654   0.0000000), wk =   0.0034722
        k(  188) = (   0.2916667  -0.5399428   0.0000000), wk =   0.0034722
        k(  189) = (   0.2916667  -0.4764201   0.0000000), wk =   0.0034722
        k(  190) = (   0.2916667  -0.4128974   0.0000000), wk =   0.0034722
        k(  191) = (   0.2916667  -0.3493747   0.0000000), wk =   0.0034722
        k(  192) = (   0.2916667  -0.2858521   0.0000000), wk =   0.0034722
        k(  193) = (   0.3333333  -0.2540907   0.0000000), wk =   0.0034722
        k(  194) = (   0.3333333  -0.1905681   0.0000000), wk =   0.0034722
        k(  195) = (   0.3333333  -0.1270454   0.0000000), wk =   0.0034722
        k(  196) = (   0.3333333  -0.0635227   0.0000000), wk =   0.0034722
        k(  197) = (   0.3333333  -0.0000000   0.0000000), wk =   0.0034722
        k(  198) = (   0.3333333   0.0635226   0.0000000), wk =   0.0034722
        k(  199) = (   0.3333333   0.1270453   0.0000000), wk =   0.0034722
        k(  200) = (   0.3333333   0.1905680   0.0000000), wk =   0.0034722
        k(  201) = (   0.3333333   0.2540906   0.0000000), wk =   0.0034722
        k(  202) = (   0.3333333   0.3176133   0.0000000), wk =   0.0034722
        k(  203) = (   0.3333333   0.3811360   0.0000000), wk =   0.0034722
        k(  204) = (   0.3333333   0.4446587   0.0000000), wk =   0.0034722
        k(  205) = (   0.3333333  -1.0163628   0.0000000), wk =   0.0034722
        k(  206) = (   0.3333333  -0.9528401   0.0000000), wk =   0.0034722
        k(  207) = (   0.3333333  -0.8893175   0.0000000), wk =   0.0034722
        k(  208) = (   0.3333333  -0.8257948   0.0000000), wk =   0.0034722
        k(  209) = (   0.3333333  -0.7622721   0.0000000), wk =   0.0034722
        k(  210) = (   0.3333333  -0.6987494   0.0000000), wk =   0.0034722
        k(  211) = (   0.3333333  -0.6352268   0.0000000), wk =   0.0034722
        k(  212) = (   0.3333333  -0.5717041   0.0000000), wk =   0.0034722
        k(  213) = (   0.3333333  -0.5081814   0.0000000), wk =   0.0034722
        k(  214) = (   0.3333333  -0.4446588   0.0000000), wk =   0.0034722
        k(  215) = (   0.3333333  -0.3811361   0.0000000), wk =   0.0034722
        k(  216) = (   0.3333333  -0.3176134   0.0000000), wk =   0.0034722
        k(  217) = (   0.3750000  -0.2858521   0.0000000), wk =   0.0034722
        k(  218) = (   0.3750000  -0.2223294   0.0000000), wk =   0.0034722
        k(  219) = (   0.3750000  -0.1588067   0.0000000), wk =   0.0034722
        k(  220) = (   0.3750000  -0.0952841   0.0000000), wk =   0.0034722
        k(  221) = (   0.3750000  -0.0317614   0.0000000), wk =   0.0034722
        k(  222) = (   0.3750000   0.0317613   0.0000000), wk =   0.0034722
        k(  223) = (   0.3750000   0.0952840   0.0000000), wk =   0.0034722
        k(  224) = (   0.3750000   0.1588066   0.0000000), wk =   0.0034722
        k(  225) = (   0.3750000   0.2223293   0.0000000), wk =   0.0034722
        k(  226) = (   0.3750000   0.2858520   0.0000000), wk =   0.0034722
        k(  227) = (   0.3750000   0.3493746   0.0000000), wk =   0.0034722
        k(  228) = (   0.3750000   0.4128973   0.0000000), wk =   0.0034722
        k(  229) = (   0.3750000  -1.0481241   0.0000000), wk =   0.0034722
        k(  230) = (   0.3750000  -0.9846015   0.0000000), wk =   0.0034722
        k(  231) = (   0.3750000  -0.9210788   0.0000000), wk =   0.0034722
        k(  232) = (   0.3750000  -0.8575561   0.0000000), wk =   0.0034722
        k(  233) = (   0.3750000  -0.7940335   0.0000000), wk =   0.0034722
        k(  234) = (   0.3750000  -0.7305108   0.0000000), wk =   0.0034722
        k(  235) = (   0.3750000  -0.6669881   0.0000000), wk =   0.0034722
        k(  236) = (   0.3750000  -0.6034654   0.0000000), wk =   0.0034722
        k(  237) = (   0.3750000  -0.5399428   0.0000000), wk =   0.0034722
        k(  238) = (   0.3750000  -0.4764201   0.0000000), wk =   0.0034722
        k(  239) = (   0.3750000  -0.4128974   0.0000000), wk =   0.0034722
        k(  240) = (   0.3750000  -0.3493747   0.0000000), wk =   0.0034722
        k(  241) = (   0.4166667  -0.3176134   0.0000000), wk =   0.0034722
        k(  242) = (   0.4166667  -0.2540907   0.0000000), wk =   0.0034722
        k(  243) = (   0.4166667  -0.1905681   0.0000000), wk =   0.0034722
        k(  244) = (   0.4166667  -0.1270454   0.0000000), wk =   0.0034722
        k(  245) = (   0.4166667  -0.0635227   0.0000000), wk =   0.0034722
        k(  246) = (   0.4166667  -0.0000001   0.0000000), wk =   0.0034722
        k(  247) = (   0.4166667   0.0635226   0.0000000), wk =   0.0034722
        k(  248) = (   0.4166667   0.1270453   0.0000000), wk =   0.0034722
        k(  249) = (   0.4166667   0.1905680   0.0000000), wk =   0.0034722
        k(  250) = (   0.4166667   0.2540906   0.0000000), wk =   0.0034722
        k(  251) = (   0.4166667   0.3176133   0.0000000), wk =   0.0034722
        k(  252) = (   0.4166667   0.3811360   0.0000000), wk =   0.0034722
        k(  253) = (   0.4166667  -1.0798855   0.0000000), wk =   0.0034722
        k(  254) = (   0.4166667  -1.0163628   0.0000000), wk =   0.0034722
        k(  255) = (   0.4166667  -0.9528401   0.0000000), wk =   0.0034722
        k(  256) = (   0.4166667  -0.8893175   0.0000000), wk =   0.0034722
        k(  257) = (   0.4166667  -0.8257948   0.0000000), wk =   0.0034722
        k(  258) = (   0.4166667  -0.7622721   0.0000000), wk =   0.0034722
        k(  259) = (   0.4166667  -0.6987495   0.0000000), wk =   0.0034722
        k(  260) = (   0.4166667  -0.6352268   0.0000000), wk =   0.0034722
        k(  261) = (   0.4166667  -0.5717041   0.0000000), wk =   0.0034722
        k(  262) = (   0.4166667  -0.5081814   0.0000000), wk =   0.0034722
        k(  263) = (   0.4166667  -0.4446588   0.0000000), wk =   0.0034722
        k(  264) = (   0.4166667  -0.3811361   0.0000000), wk =   0.0034722
        k(  265) = (   0.4583333  -0.3493748   0.0000000), wk =   0.0034722
        k(  266) = (   0.4583333  -0.2858521   0.0000000), wk =   0.0034722
        k(  267) = (   0.4583333  -0.2223294   0.0000000), wk =   0.0034722
        k(  268) = (   0.4583333  -0.1588067   0.0000000), wk =   0.0034722
        k(  269) = (   0.4583333  -0.0952841   0.0000000), wk =   0.0034722
        k(  270) = (   0.4583333  -0.0317614   0.0000000), wk =   0.0034722
        k(  271) = (   0.4583333   0.0317613   0.0000000), wk =   0.0034722
        k(  272) = (   0.4583333   0.0952839   0.0000000), wk =   0.0034722
        k(  273) = (   0.4583333   0.1588066   0.0000000), wk =   0.0034722
        k(  274) = (   0.4583333   0.2223293   0.0000000), wk =   0.0034722
        k(  275) = (   0.4583333   0.2858520   0.0000000), wk =   0.0034722
        k(  276) = (   0.4583333   0.3493746   0.0000000), wk =   0.0034722
        k(  277) = (   0.4583333  -1.1116468   0.0000000), wk =   0.0034722
        k(  278) = (   0.4583333  -1.0481242   0.0000000), wk =   0.0034722
        k(  279) = (   0.4583333  -0.9846015   0.0000000), wk =   0.0034722
        k(  280) = (   0.4583333  -0.9210788   0.0000000), wk =   0.0034722
        k(  281) = (   0.4583333  -0.8575561   0.0000000), wk =   0.0034722
        k(  282) = (   0.4583333  -0.7940335   0.0000000), wk =   0.0034722
        k(  283) = (   0.4583333  -0.7305108   0.0000000), wk =   0.0034722
        k(  284) = (   0.4583333  -0.6669881   0.0000000), wk =   0.0034722
        k(  285) = (   0.4583333  -0.6034654   0.0000000), wk =   0.0034722
        k(  286) = (   0.4583333  -0.5399428   0.0000000), wk =   0.0034722
        k(  287) = (   0.4583333  -0.4764201   0.0000000), wk =   0.0034722
        k(  288) = (   0.4583333  -0.4128974   0.0000000), wk =   0.0034722
        k(  289) = (  -0.5000000   0.3811361   0.0000000), wk =   0.0034722
        k(  290) = (  -0.5000000   0.4446588   0.0000000), wk =   0.0034722
        k(  291) = (  -0.5000000   0.5081814   0.0000000), wk =   0.0034722
        k(  292) = (  -0.5000000   0.5717041   0.0000000), wk =   0.0034722
        k(  293) = (  -0.5000000   0.6352268   0.0000000), wk =   0.0034722
        k(  294) = (  -0.5000000   0.6987495   0.0000000), wk =   0.0034722
        k(  295) = (  -0.5000000   0.7622721   0.0000000), wk =   0.0034722
        k(  296) = (  -0.5000000   0.8257948   0.0000000), wk =   0.0034722
        k(  297) = (  -0.5000000   0.8893175   0.0000000), wk =   0.0034722
        k(  298) = (  -0.5000000   0.9528402   0.0000000), wk =   0.0034722
        k(  299) = (  -0.5000000   1.0163628   0.0000000), wk =   0.0034722
        k(  300) = (  -0.5000000   1.0798855   0.0000000), wk =   0.0034722
        k(  301) = (  -0.5000000  -0.3811360   0.0000000), wk =   0.0034722
        k(  302) = (  -0.5000000  -0.3176133   0.0000000), wk =   0.0034722
        k(  303) = (  -0.5000000  -0.2540906   0.0000000), wk =   0.0034722
        k(  304) = (  -0.5000000  -0.1905680   0.0000000), wk =   0.0034722
        k(  305) = (  -0.5000000  -0.1270453   0.0000000), wk =   0.0034722
        k(  306) = (  -0.5000000  -0.0635226   0.0000000), wk =   0.0034722
        k(  307) = (  -0.5000000   0.0000001   0.0000000), wk =   0.0034722
        k(  308) = (  -0.5000000   0.0635227   0.0000000), wk =   0.0034722
        k(  309) = (  -0.5000000   0.1270454   0.0000000), wk =   0.0034722
        k(  310) = (  -0.5000000   0.1905681   0.0000000), wk =   0.0034722
        k(  311) = (  -0.5000000   0.2540908   0.0000000), wk =   0.0034722
        k(  312) = (  -0.5000000   0.3176134   0.0000000), wk =   0.0034722
        k(  313) = (  -0.4583333   0.3493748   0.0000000), wk =   0.0034722
        k(  314) = (  -0.4583333   0.4128974   0.0000000), wk =   0.0034722
        k(  315) = (  -0.4583333   0.4764201   0.0000000), wk =   0.0034722
        k(  316) = (  -0.4583333   0.5399428   0.0000000), wk =   0.0034722
        k(  317) = (  -0.4583333   0.6034654   0.0000000), wk =   0.0034722
        k(  318) = (  -0.4583333   0.6669881   0.0000000), wk =   0.0034722
        k(  319) = (  -0.4583333   0.7305108   0.0000000), wk =   0.0034722
        k(  320) = (  -0.4583333   0.7940335   0.0000000), wk =   0.0034722
        k(  321) = (  -0.4583333   0.8575561   0.0000000), wk =   0.0034722
        k(  322) = (  -0.4583333   0.9210788   0.0000000), wk =   0.0034722
        k(  323) = (  -0.4583333   0.9846015   0.0000000), wk =   0.0034722
        k(  324) = (  -0.4583333   1.0481242   0.0000000), wk =   0.0034722
        k(  325) = (  -0.4583333  -0.4128973   0.0000000), wk =   0.0034722
        k(  326) = (  -0.4583333  -0.3493746   0.0000000), wk =   0.0034722
        k(  327) = (  -0.4583333  -0.2858520   0.0000000), wk =   0.0034722
        k(  328) = (  -0.4583333  -0.2223293   0.0000000), wk =   0.0034722
        k(  329) = (  -0.4583333  -0.1588066   0.0000000), wk =   0.0034722
        k(  330) = (  -0.4583333  -0.0952839   0.0000000), wk =   0.0034722
        k(  331) = (  -0.4583333  -0.0317613   0.0000000), wk =   0.0034722
        k(  332) = (  -0.4583333   0.0317614   0.0000000), wk =   0.0034722
        k(  333) = (  -0.4583333   0.0952841   0.0000000), wk =   0.0034722
        k(  334) = (  -0.4583333   0.1588067   0.0000000), wk =   0.0034722
        k(  335) = (  -0.4583333   0.2223294   0.0000000), wk =   0.0034722
        k(  336) = (  -0.4583333   0.2858521   0.0000000), wk =   0.0034722
        k(  337) = (  -0.4166667   0.3176134   0.0000000), wk =   0.0034722
        k(  338) = (  -0.4166667   0.3811361   0.0000000), wk =   0.0034722
        k(  339) = (  -0.4166667   0.4446588   0.0000000), wk =   0.0034722
        k(  340) = (  -0.4166667   0.5081814   0.0000000), wk =   0.0034722
        k(  341) = (  -0.4166667   0.5717041   0.0000000), wk =   0.0034722
        k(  342) = (  -0.4166667   0.6352268   0.0000000), wk =   0.0034722
        k(  343) = (  -0.4166667   0.6987495   0.0000000), wk =   0.0034722
        k(  344) = (  -0.4166667   0.7622721   0.0000000), wk =   0.0034722
        k(  345) = (  -0.4166667   0.8257948   0.0000000), wk =   0.0034722
        k(  346) = (  -0.4166667   0.8893175   0.0000000), wk =   0.0034722
        k(  347) = (  -0.4166667   0.9528401   0.0000000), wk =   0.0034722
        k(  348) = (  -0.4166667   1.0163628   0.0000000), wk =   0.0034722
        k(  349) = (  -0.4166667  -0.4446587   0.0000000), wk =   0.0034722
        k(  350) = (  -0.4166667  -0.3811360   0.0000000), wk =   0.0034722
        k(  351) = (  -0.4166667  -0.3176133   0.0000000), wk =   0.0034722
        k(  352) = (  -0.4166667  -0.2540906   0.0000000), wk =   0.0034722
        k(  353) = (  -0.4166667  -0.1905680   0.0000000), wk =   0.0034722
        k(  354) = (  -0.4166667  -0.1270453   0.0000000), wk =   0.0034722
        k(  355) = (  -0.4166667  -0.0635226   0.0000000), wk =   0.0034722
        k(  356) = (  -0.4166667   0.0000001   0.0000000), wk =   0.0034722
        k(  357) = (  -0.4166667   0.0635227   0.0000000), wk =   0.0034722
        k(  358) = (  -0.4166667   0.1270454   0.0000000), wk =   0.0034722
        k(  359) = (  -0.4166667   0.1905681   0.0000000), wk =   0.0034722
        k(  360) = (  -0.4166667   0.2540907   0.0000000), wk =   0.0034722
        k(  361) = (  -0.3750000   0.2858521   0.0000000), wk =   0.0034722
        k(  362) = (  -0.3750000   0.3493747   0.0000000), wk =   0.0034722
        k(  363) = (  -0.3750000   0.4128974   0.0000000), wk =   0.0034722
        k(  364) = (  -0.3750000   0.4764201   0.0000000), wk =   0.0034722
        k(  365) = (  -0.3750000   0.5399428   0.0000000), wk =   0.0034722
        k(  366) = (  -0.3750000   0.6034654   0.0000000), wk =   0.0034722
        k(  367) = (  -0.3750000   0.6669881   0.0000000), wk =   0.0034722
        k(  368) = (  -0.3750000   0.7305108   0.0000000), wk =   0.0034722
        k(  369) = (  -0.3750000   0.7940335   0.0000000), wk =   0.0034722
        k(  370) = (  -0.3750000   0.8575561   0.0000000), wk =   0.0034722
        k(  371) = (  -0.3750000   0.9210788   0.0000000), wk =   0.0034722
        k(  372) = (  -0.3750000   0.9846015   0.0000000), wk =   0.0034722
        k(  373) = (  -0.3750000  -0.4764200   0.0000000), wk =   0.0034722
        k(  374) = (  -0.3750000  -0.4128973   0.0000000), wk =   0.0034722
        k(  375) = (  -0.3750000  -0.3493746   0.0000000), wk =   0.0034722
        k(  376) = (  -0.3750000  -0.2858520   0.0000000), wk =   0.0034722
        k(  377) = (  -0.3750000  -0.2223293   0.0000000), wk =   0.0034722
        k(  378) = (  -0.3750000  -0.1588066   0.0000000), wk =   0.0034722
        k(  379) = (  -0.3750000  -0.0952840   0.0000000), wk =   0.0034722
        k(  380) = (  -0.3750000  -0.0317613   0.0000000), wk =   0.0034722
        k(  381) = (  -0.3750000   0.0317614   0.0000000), wk =   0.0034722
        k(  382) = (  -0.3750000   0.0952841   0.0000000), wk =   0.0034722
        k(  383) = (  -0.3750000   0.1588067   0.0000000), wk =   0.0034722
        k(  384) = (  -0.3750000   0.2223294   0.0000000), wk =   0.0034722
        k(  385) = (  -0.3333333   0.2540907   0.0000000), wk =   0.0034722
        k(  386) = (  -0.3333333   0.3176134   0.0000000), wk =   0.0034722
        k(  387) = (  -0.3333333   0.3811361   0.0000000), wk =   0.0034722
        k(  388) = (  -0.3333333   0.4446588   0.0000000), wk =   0.0034722
        k(  389) = (  -0.3333333   0.5081814   0.0000000), wk =   0.0034722
        k(  390) = (  -0.3333333   0.5717041   0.0000000), wk =   0.0034722
        k(  391) = (  -0.3333333   0.6352268   0.0000000), wk =   0.0034722
        k(  392) = (  -0.3333333   0.6987494   0.0000000), wk =   0.0034722
        k(  393) = (  -0.3333333   0.7622721   0.0000000), wk =   0.0034722
        k(  394) = (  -0.3333333   0.8257948   0.0000000), wk =   0.0034722
        k(  395) = (  -0.3333333   0.8893175   0.0000000), wk =   0.0034722
        k(  396) = (  -0.3333333   0.9528401   0.0000000), wk =   0.0034722
        k(  397) = (  -0.3333333  -0.5081813   0.0000000), wk =   0.0034722
        k(  398) = (  -0.3333333  -0.4446587   0.0000000), wk =   0.0034722
        k(  399) = (  -0.3333333  -0.3811360   0.0000000), wk =   0.0034722
        k(  400) = (  -0.3333333  -0.3176133   0.0000000), wk =   0.0034722
        k(  401) = (  -0.3333333  -0.2540906   0.0000000), wk =   0.0034722
        k(  402) = (  -0.3333333  -0.1905680   0.0000000), wk =   0.0034722
        k(  403) = (  -0.3333333  -0.1270453   0.0000000), wk =   0.0034722
        k(  404) = (  -0.3333333  -0.0635226   0.0000000), wk =   0.0034722
        k(  405) = (  -0.3333333   0.0000000   0.0000000), wk =   0.0034722
        k(  406) = (  -0.3333333   0.0635227   0.0000000), wk =   0.0034722
        k(  407) = (  -0.3333333   0.1270454   0.0000000), wk =   0.0034722
        k(  408) = (  -0.3333333   0.1905681   0.0000000), wk =   0.0034722
        k(  409) = (  -0.2916667   0.2223294   0.0000000), wk =   0.0034722
        k(  410) = (  -0.2916667   0.2858521   0.0000000), wk =   0.0034722
        k(  411) = (  -0.2916667   0.3493747   0.0000000), wk =   0.0034722
        k(  412) = (  -0.2916667   0.4128974   0.0000000), wk =   0.0034722
        k(  413) = (  -0.2916667   0.4764201   0.0000000), wk =   0.0034722
        k(  414) = (  -0.2916667   0.5399428   0.0000000), wk =   0.0034722
        k(  415) = (  -0.2916667   0.6034654   0.0000000), wk =   0.0034722
        k(  416) = (  -0.2916667   0.6669881   0.0000000), wk =   0.0034722
        k(  417) = (  -0.2916667   0.7305108   0.0000000), wk =   0.0034722
        k(  418) = (  -0.2916667   0.7940334   0.0000000), wk =   0.0034722
        k(  419) = (  -0.2916667   0.8575561   0.0000000), wk =   0.0034722
        k(  420) = (  -0.2916667   0.9210788   0.0000000), wk =   0.0034722
        k(  421) = (  -0.2916667  -0.5399427   0.0000000), wk =   0.0034722
        k(  422) = (  -0.2916667  -0.4764200   0.0000000), wk =   0.0034722
        k(  423) = (  -0.2916667  -0.4128973   0.0000000), wk =   0.0034722
        k(  424) = (  -0.2916667  -0.3493747   0.0000000), wk =   0.0034722
        k(  425) = (  -0.2916667  -0.2858520   0.0000000), wk =   0.0034722
        k(  426) = (  -0.2916667  -0.2223293   0.0000000), wk =   0.0034722
        k(  427) = (  -0.2916667  -0.1588066   0.0000000), wk =   0.0034722
        k(  428) = (  -0.2916667  -0.0952840   0.0000000), wk =   0.0034722
        k(  429) = (  -0.2916667  -0.0317613   0.0000000), wk =   0.0034722
        k(  430) = (  -0.2916667   0.0317614   0.0000000), wk =   0.0034722
        k(  431) = (  -0.2916667   0.0952840   0.0000000), wk =   0.0034722
        k(  432) = (  -0.2916667   0.1588067   0.0000000), wk =   0.0034722
        k(  433) = (  -0.2500000   0.1905681   0.0000000), wk =   0.0034722
        k(  434) = (  -0.2500000   0.2540907   0.0000000), wk =   0.0034722
        k(  435) = (  -0.2500000   0.3176134   0.0000000), wk =   0.0034722
        k(  436) = (  -0.2500000   0.3811361   0.0000000), wk =   0.0034722
        k(  437) = (  -0.2500000   0.4446587   0.0000000), wk =   0.0034722
        k(  438) = (  -0.2500000   0.5081814   0.0000000), wk =   0.0034722
        k(  439) = (  -0.2500000   0.5717041   0.0000000), wk =   0.0034722
        k(  440) = (  -0.2500000   0.6352268   0.0000000), wk =   0.0034722
        k(  441) = (  -0.2500000   0.6987494   0.0000000), wk =   0.0034722
        k(  442) = (  -0.2500000   0.7622721   0.0000000), wk =   0.0034722
        k(  443) = (  -0.2500000   0.8257948   0.0000000), wk =   0.0034722
        k(  444) = (  -0.2500000   0.8893174   0.0000000), wk =   0.0034722
        k(  445) = (  -0.2500000  -0.5717040   0.0000000), wk =   0.0034722
        k(  446) = (  -0.2500000  -0.5081813   0.0000000), wk =   0.0034722
        k(  447) = (  -0.2500000  -0.4446587   0.0000000), wk =   0.0034722
        k(  448) = (  -0.2500000  -0.3811360   0.0000000), wk =   0.0034722
        k(  449) = (  -0.2500000  -0.3176133   0.0000000), wk =   0.0034722
        k(  450) = (  -0.2500000  -0.2540907   0.0000000), wk =   0.0034722
        k(  451) = (  -0.2500000  -0.1905680   0.0000000), wk =   0.0034722
        k(  452) = (  -0.2500000  -0.1270453   0.0000000), wk =   0.0034722
        k(  453) = (  -0.2500000  -0.0635226   0.0000000), wk =   0.0034722
        k(  454) = (  -0.2500000   0.0000000   0.0000000), wk =   0.0034722
        k(  455) = (  -0.2500000   0.0635227   0.0000000), wk =   0.0034722
        k(  456) = (  -0.2500000   0.1270454   0.0000000), wk =   0.0034722
        k(  457) = (  -0.2083333   0.1588067   0.0000000), wk =   0.0034722
        k(  458) = (  -0.2083333   0.2223294   0.0000000), wk =   0.0034722
        k(  459) = (  -0.2083333   0.2858521   0.0000000), wk =   0.0034722
        k(  460) = (  -0.2083333   0.3493747   0.0000000), wk =   0.0034722
        k(  461) = (  -0.2083333   0.4128974   0.0000000), wk =   0.0034722
        k(  462) = (  -0.2083333   0.4764201   0.0000000), wk =   0.0034722
        k(  463) = (  -0.2083333   0.5399427   0.0000000), wk =   0.0034722
        k(  464) = (  -0.2083333   0.6034654   0.0000000), wk =   0.0034722
        k(  465) = (  -0.2083333   0.6669881   0.0000000), wk =   0.0034722
        k(  466) = (  -0.2083333   0.7305108   0.0000000), wk =   0.0034722
        k(  467) = (  -0.2083333   0.7940334   0.0000000), wk =   0.0034722
        k(  468) = (  -0.2083333   0.8575561   0.0000000), wk =   0.0034722
        k(  469) = (  -0.2083333  -0.6034654   0.0000000), wk =   0.0034722
        k(  470) = (  -0.2083333  -0.5399427   0.0000000), wk =   0.0034722
        k(  471) = (  -0.2083333  -0.4764200   0.0000000), wk =   0.0034722
        k(  472) = (  -0.2083333  -0.4128973   0.0000000), wk =   0.0034722
        k(  473) = (  -0.2083333  -0.3493747   0.0000000), wk =   0.0034722
        k(  474) = (  -0.2083333  -0.2858520   0.0000000), wk =   0.0034722
        k(  475) = (  -0.2083333  -0.2223293   0.0000000), wk =   0.0034722
        k(  476) = (  -0.2083333  -0.1588067   0.0000000), wk =   0.0034722
        k(  477) = (  -0.2083333  -0.0952840   0.0000000), wk =   0.0034722
        k(  478) = (  -0.2083333  -0.0317613   0.0000000), wk =   0.0034722
        k(  479) = (  -0.2083333   0.0317614   0.0000000), wk =   0.0034722
        k(  480) = (  -0.2083333   0.0952840   0.0000000), wk =   0.0034722
        k(  481) = (  -0.1666667   0.1270454   0.0000000), wk =   0.0034722
        k(  482) = (  -0.1666667   0.1905680   0.0000000), wk =   0.0034722
        k(  483) = (  -0.1666667   0.2540907   0.0000000), wk =   0.0034722
        k(  484) = (  -0.1666667   0.3176134   0.0000000), wk =   0.0034722
        k(  485) = (  -0.1666667   0.3811361   0.0000000), wk =   0.0034722
        k(  486) = (  -0.1666667   0.4446587   0.0000000), wk =   0.0034722
        k(  487) = (  -0.1666667   0.5081814   0.0000000), wk =   0.0034722
        k(  488) = (  -0.1666667   0.5717041   0.0000000), wk =   0.0034722
        k(  489) = (  -0.1666667   0.6352267   0.0000000), wk =   0.0034722
        k(  490) = (  -0.1666667   0.6987494   0.0000000), wk =   0.0034722
        k(  491) = (  -0.1666667   0.7622721   0.0000000), wk =   0.0034722
        k(  492) = (  -0.1666667   0.8257948   0.0000000), wk =   0.0034722
        k(  493) = (  -0.1666667  -0.6352267   0.0000000), wk =   0.0034722
        k(  494) = (  -0.1666667  -0.5717040   0.0000000), wk =   0.0034722
        k(  495) = (  -0.1666667  -0.5081814   0.0000000), wk =   0.0034722
        k(  496) = (  -0.1666667  -0.4446587   0.0000000), wk =   0.0034722
        k(  497) = (  -0.1666667  -0.3811360   0.0000000), wk =   0.0034722
        k(  498) = (  -0.1666667  -0.3176133   0.0000000), wk =   0.0034722
        k(  499) = (  -0.1666667  -0.2540907   0.0000000), wk =   0.0034722
        k(  500) = (  -0.1666667  -0.1905680   0.0000000), wk =   0.0034722
        k(  501) = (  -0.1666667  -0.1270453   0.0000000), wk =   0.0034722
        k(  502) = (  -0.1666667  -0.0635227   0.0000000), wk =   0.0034722
        k(  503) = (  -0.1666667   0.0000000   0.0000000), wk =   0.0034722
        k(  504) = (  -0.1666667   0.0635227   0.0000000), wk =   0.0034722
        k(  505) = (  -0.1250000   0.0952840   0.0000000), wk =   0.0034722
        k(  506) = (  -0.1250000   0.1588067   0.0000000), wk =   0.0034722
        k(  507) = (  -0.1250000   0.2223294   0.0000000), wk =   0.0034722
        k(  508) = (  -0.1250000   0.2858520   0.0000000), wk =   0.0034722
        k(  509) = (  -0.1250000   0.3493747   0.0000000), wk =   0.0034722
        k(  510) = (  -0.1250000   0.4128974   0.0000000), wk =   0.0034722
        k(  511) = (  -0.1250000   0.4764201   0.0000000), wk =   0.0034722
        k(  512) = (  -0.1250000   0.5399427   0.0000000), wk =   0.0034722
        k(  513) = (  -0.1250000   0.6034654   0.0000000), wk =   0.0034722
        k(  514) = (  -0.1250000   0.6669881   0.0000000), wk =   0.0034722
        k(  515) = (  -0.1250000   0.7305108   0.0000000), wk =   0.0034722
        k(  516) = (  -0.1250000   0.7940334   0.0000000), wk =   0.0034722
        k(  517) = (  -0.1250000  -0.6669880   0.0000000), wk =   0.0034722
        k(  518) = (  -0.1250000  -0.6034654   0.0000000), wk =   0.0034722
        k(  519) = (  -0.1250000  -0.5399427   0.0000000), wk =   0.0034722
        k(  520) = (  -0.1250000  -0.4764200   0.0000000), wk =   0.0034722
        k(  521) = (  -0.1250000  -0.4128974   0.0000000), wk =   0.0034722
        k(  522) = (  -0.1250000  -0.3493747   0.0000000), wk =   0.0034722
        k(  523) = (  -0.1250000  -0.2858520   0.0000000), wk =   0.0034722
        k(  524) = (  -0.1250000  -0.2223293   0.0000000), wk =   0.0034722
        k(  525) = (  -0.1250000  -0.1588067   0.0000000), wk =   0.0034722
        k(  526) = (  -0.1250000  -0.0952840   0.0000000), wk =   0.0034722
        k(  527) = (  -0.1250000  -0.0317613   0.0000000), wk =   0.0034722
        k(  528) = (  -0.1250000   0.0317614   0.0000000), wk =   0.0034722
        k(  529) = (  -0.0833333   0.0635227   0.0000000), wk =   0.0034722
        k(  530) = (  -0.0833333   0.1270454   0.0000000), wk =   0.0034722
        k(  531) = (  -0.0833333   0.1905680   0.0000000), wk =   0.0034722
        k(  532) = (  -0.0833333   0.2540907   0.0000000), wk =   0.0034722
        k(  533) = (  -0.0833333   0.3176134   0.0000000), wk =   0.0034722
        k(  534) = (  -0.0833333   0.3811360   0.0000000), wk =   0.0034722
        k(  535) = (  -0.0833333   0.4446587   0.0000000), wk =   0.0034722
        k(  536) = (  -0.0833333   0.5081814   0.0000000), wk =   0.0034722
        k(  537) = (  -0.0833333   0.5717041   0.0000000), wk =   0.0034722
        k(  538) = (  -0.0833333   0.6352267   0.0000000), wk =   0.0034722
        k(  539) = (  -0.0833333   0.6987494   0.0000000), wk =   0.0034722
        k(  540) = (  -0.0833333   0.7622721   0.0000000), wk =   0.0034722
        k(  541) = (  -0.0833333  -0.6987494   0.0000000), wk =   0.0034722
        k(  542) = (  -0.0833333  -0.6352267   0.0000000), wk =   0.0034722
        k(  543) = (  -0.0833333  -0.5717040   0.0000000), wk =   0.0034722
        k(  544) = (  -0.0833333  -0.5081814   0.0000000), wk =   0.0034722
        k(  545) = (  -0.0833333  -0.4446587   0.0000000), wk =   0.0034722
        k(  546) = (  -0.0833333  -0.3811360   0.0000000), wk =   0.0034722
        k(  547) = (  -0.0833333  -0.3176134   0.0000000), wk =   0.0034722
        k(  548) = (  -0.0833333  -0.2540907   0.0000000), wk =   0.0034722
        k(  549) = (  -0.0833333  -0.1905680   0.0000000), wk =   0.0034722
        k(  550) = (  -0.0833333  -0.1270453   0.0000000), wk =   0.0034722
        k(  551) = (  -0.0833333  -0.0635227   0.0000000), wk =   0.0034722
        k(  552) = (  -0.0833333   0.0000000   0.0000000), wk =   0.0034722
        k(  553) = (  -0.0416667   0.0317613   0.0000000), wk =   0.0034722
        k(  554) = (  -0.0416667   0.0952840   0.0000000), wk =   0.0034722
        k(  555) = (  -0.0416667   0.1588067   0.0000000), wk =   0.0034722
        k(  556) = (  -0.0416667   0.2223294   0.0000000), wk =   0.0034722
        k(  557) = (  -0.0416667   0.2858520   0.0000000), wk =   0.0034722
        k(  558) = (  -0.0416667   0.3493747   0.0000000), wk =   0.0034722
        k(  559) = (  -0.0416667   0.4128974   0.0000000), wk =   0.0034722
        k(  560) = (  -0.0416667   0.4764200   0.0000000), wk =   0.0034722
        k(  561) = (  -0.0416667   0.5399427   0.0000000), wk =   0.0034722
        k(  562) = (  -0.0416667   0.6034654   0.0000000), wk =   0.0034722
        k(  563) = (  -0.0416667   0.6669881   0.0000000), wk =   0.0034722
        k(  564) = (  -0.0416667   0.7305107   0.0000000), wk =   0.0034722
        k(  565) = (  -0.0416667  -0.7305107   0.0000000), wk =   0.0034722
        k(  566) = (  -0.0416667  -0.6669881   0.0000000), wk =   0.0034722
        k(  567) = (  -0.0416667  -0.6034654   0.0000000), wk =   0.0034722
        k(  568) = (  -0.0416667  -0.5399427   0.0000000), wk =   0.0034722
        k(  569) = (  -0.0416667  -0.4764200   0.0000000), wk =   0.0034722
        k(  570) = (  -0.0416667  -0.4128974   0.0000000), wk =   0.0034722
        k(  571) = (  -0.0416667  -0.3493747   0.0000000), wk =   0.0034722
        k(  572) = (  -0.0416667  -0.2858520   0.0000000), wk =   0.0034722
        k(  573) = (  -0.0416667  -0.2223293   0.0000000), wk =   0.0034722
        k(  574) = (  -0.0416667  -0.1588067   0.0000000), wk =   0.0034722
        k(  575) = (  -0.0416667  -0.0952840   0.0000000), wk =   0.0034722
        k(  576) = (  -0.0416667  -0.0317613   0.0000000), wk =   0.0034722

                       cryst. coord.
        k(    1) = (   0.0000000   0.0000000   0.0000000), wk =   0.0034722
        k(    2) = (   0.0000000   0.0416667   0.0000000), wk =   0.0034722
        k(    3) = (   0.0000000   0.0833333   0.0000000), wk =   0.0034722
        k(    4) = (   0.0000000   0.1250000   0.0000000), wk =   0.0034722
        k(    5) = (   0.0000000   0.1666667   0.0000000), wk =   0.0034722
        k(    6) = (   0.0000000   0.2083333   0.0000000), wk =   0.0034722
        k(    7) = (   0.0000000   0.2500000   0.0000000), wk =   0.0034722
        k(    8) = (   0.0000000   0.2916667   0.0000000), wk =   0.0034722
        k(    9) = (   0.0000000   0.3333333   0.0000000), wk =   0.0034722
        k(   10) = (   0.0000000   0.3750000   0.0000000), wk =   0.0034722
        k(   11) = (   0.0000000   0.4166667   0.0000000), wk =   0.0034722
        k(   12) = (   0.0000000   0.4583333   0.0000000), wk =   0.0034722
        k(   13) = (   0.0000000  -0.5000000   0.0000000), wk =   0.0034722
        k(   14) = (   0.0000000  -0.4583333   0.0000000), wk =   0.0034722
        k(   15) = (   0.0000000  -0.4166667   0.0000000), wk =   0.0034722
        k(   16) = (   0.0000000  -0.3750000   0.0000000), wk =   0.0034722
        k(   17) = (   0.0000000  -0.3333333   0.0000000), wk =   0.0034722
        k(   18) = (   0.0000000  -0.2916667   0.0000000), wk =   0.0034722
        k(   19) = (   0.0000000  -0.2500000   0.0000000), wk =   0.0034722
        k(   20) = (   0.0000000  -0.2083333   0.0000000), wk =   0.0034722
        k(   21) = (   0.0000000  -0.1666667   0.0000000), wk =   0.0034722
        k(   22) = (   0.0000000  -0.1250000   0.0000000), wk =   0.0034722
        k(   23) = (   0.0000000  -0.0833333   0.0000000), wk =   0.0034722
        k(   24) = (   0.0000000  -0.0416667   0.0000000), wk =   0.0034722
        k(   25) = (   0.0416667   0.0000000   0.0000000), wk =   0.0034722
        k(   26) = (   0.0416667   0.0416667   0.0000000), wk =   0.0034722
        k(   27) = (   0.0416667   0.0833333   0.0000000), wk =   0.0034722
        k(   28) = (   0.0416667   0.1250000   0.0000000), wk =   0.0034722
        k(   29) = (   0.0416667   0.1666667   0.0000000), wk =   0.0034722
        k(   30) = (   0.0416667   0.2083333   0.0000000), wk =   0.0034722
        k(   31) = (   0.0416667   0.2500000   0.0000000), wk =   0.0034722
        k(   32) = (   0.0416667   0.2916667   0.0000000), wk =   0.0034722
        k(   33) = (   0.0416667   0.3333333   0.0000000), wk =   0.0034722
        k(   34) = (   0.0416667   0.3750000   0.0000000), wk =   0.0034722
        k(   35) = (   0.0416667   0.4166667   0.0000000), wk =   0.0034722
        k(   36) = (   0.0416667   0.4583333   0.0000000), wk =   0.0034722
        k(   37) = (   0.0416667  -0.5000000   0.0000000), wk =   0.0034722
        k(   38) = (   0.0416667  -0.4583333   0.0000000), wk =   0.0034722
        k(   39) = (   0.0416667  -0.4166667   0.0000000), wk =   0.0034722
        k(   40) = (   0.0416667  -0.3750000   0.0000000), wk =   0.0034722
        k(   41) = (   0.0416667  -0.3333333   0.0000000), wk =   0.0034722
        k(   42) = (   0.0416667  -0.2916667   0.0000000), wk =   0.0034722
        k(   43) = (   0.0416667  -0.2500000   0.0000000), wk =   0.0034722
        k(   44) = (   0.0416667  -0.2083333   0.0000000), wk =   0.0034722
        k(   45) = (   0.0416667  -0.1666667   0.0000000), wk =   0.0034722
        k(   46) = (   0.0416667  -0.1250000   0.0000000), wk =   0.0034722
        k(   47) = (   0.0416667  -0.0833333   0.0000000), wk =   0.0034722
        k(   48) = (   0.0416667  -0.0416667   0.0000000), wk =   0.0034722
        k(   49) = (   0.0833333   0.0000000   0.0000000), wk =   0.0034722
        k(   50) = (   0.0833333   0.0416667   0.0000000), wk =   0.0034722
        k(   51) = (   0.0833333   0.0833333   0.0000000), wk =   0.0034722
        k(   52) = (   0.0833333   0.1250000   0.0000000), wk =   0.0034722
        k(   53) = (   0.0833333   0.1666667   0.0000000), wk =   0.0034722
        k(   54) = (   0.0833333   0.2083333   0.0000000), wk =   0.0034722
        k(   55) = (   0.0833333   0.2500000   0.0000000), wk =   0.0034722
        k(   56) = (   0.0833333   0.2916667   0.0000000), wk =   0.0034722
        k(   57) = (   0.0833333   0.3333333   0.0000000), wk =   0.0034722
        k(   58) = (   0.0833333   0.3750000   0.0000000), wk =   0.0034722
        k(   59) = (   0.0833333   0.4166667   0.0000000), wk =   0.0034722
        k(   60) = (   0.0833333   0.4583333   0.0000000), wk =   0.0034722
        k(   61) = (   0.0833333  -0.5000000   0.0000000), wk =   0.0034722
        k(   62) = (   0.0833333  -0.4583333   0.0000000), wk =   0.0034722
        k(   63) = (   0.0833333  -0.4166667   0.0000000), wk =   0.0034722
        k(   64) = (   0.0833333  -0.3750000   0.0000000), wk =   0.0034722
        k(   65) = (   0.0833333  -0.3333333   0.0000000), wk =   0.0034722
        k(   66) = (   0.0833333  -0.2916667   0.0000000), wk =   0.0034722
        k(   67) = (   0.0833333  -0.2500000   0.0000000), wk =   0.0034722
        k(   68) = (   0.0833333  -0.2083333   0.0000000), wk =   0.0034722
        k(   69) = (   0.0833333  -0.1666667   0.0000000), wk =   0.0034722
        k(   70) = (   0.0833333  -0.1250000   0.0000000), wk =   0.0034722
        k(   71) = (   0.0833333  -0.0833333   0.0000000), wk =   0.0034722
        k(   72) = (   0.0833333  -0.0416667   0.0000000), wk =   0.0034722
        k(   73) = (   0.1250000   0.0000000   0.0000000), wk =   0.0034722
        k(   74) = (   0.1250000   0.0416667   0.0000000), wk =   0.0034722
        k(   75) = (   0.1250000   0.0833333   0.0000000), wk =   0.0034722
        k(   76) = (   0.1250000   0.1250000   0.0000000), wk =   0.0034722
        k(   77) = (   0.1250000   0.1666667   0.0000000), wk =   0.0034722
        k(   78) = (   0.1250000   0.2083333   0.0000000), wk =   0.0034722
        k(   79) = (   0.1250000   0.2500000   0.0000000), wk =   0.0034722
        k(   80) = (   0.1250000   0.2916667   0.0000000), wk =   0.0034722
        k(   81) = (   0.1250000   0.3333333   0.0000000), wk =   0.0034722
        k(   82) = (   0.1250000   0.3750000   0.0000000), wk =   0.0034722
        k(   83) = (   0.1250000   0.4166667   0.0000000), wk =   0.0034722
        k(   84) = (   0.1250000   0.4583333   0.0000000), wk =   0.0034722
        k(   85) = (   0.1250000  -0.5000000   0.0000000), wk =   0.0034722
        k(   86) = (   0.1250000  -0.4583333   0.0000000), wk =   0.0034722
        k(   87) = (   0.1250000  -0.4166667   0.0000000), wk =   0.0034722
        k(   88) = (   0.1250000  -0.3750000   0.0000000), wk =   0.0034722
        k(   89) = (   0.1250000  -0.3333333   0.0000000), wk =   0.0034722
        k(   90) = (   0.1250000  -0.2916667   0.0000000), wk =   0.0034722
        k(   91) = (   0.1250000  -0.2500000   0.0000000), wk =   0.0034722
        k(   92) = (   0.1250000  -0.2083333   0.0000000), wk =   0.0034722
        k(   93) = (   0.1250000  -0.1666667   0.0000000), wk =   0.0034722
        k(   94) = (   0.1250000  -0.1250000   0.0000000), wk =   0.0034722
        k(   95) = (   0.1250000  -0.0833333   0.0000000), wk =   0.0034722
        k(   96) = (   0.1250000  -0.0416667   0.0000000), wk =   0.0034722
        k(   97) = (   0.1666667   0.0000000   0.0000000), wk =   0.0034722
        k(   98) = (   0.1666667   0.0416667   0.0000000), wk =   0.0034722
        k(   99) = (   0.1666667   0.0833333   0.0000000), wk =   0.0034722
        k(  100) = (   0.1666667   0.1250000   0.0000000), wk =   0.0034722
        k(  101) = (   0.1666667   0.1666667   0.0000000), wk =   0.0034722
        k(  102) = (   0.1666667   0.2083333   0.0000000), wk =   0.0034722
        k(  103) = (   0.1666667   0.2500000   0.0000000), wk =   0.0034722
        k(  104) = (   0.1666667   0.2916667   0.0000000), wk =   0.0034722
        k(  105) = (   0.1666667   0.3333333   0.0000000), wk =   0.0034722
        k(  106) = (   0.1666667   0.3750000   0.0000000), wk =   0.0034722
        k(  107) = (   0.1666667   0.4166667   0.0000000), wk =   0.0034722
        k(  108) = (   0.1666667   0.4583333   0.0000000), wk =   0.0034722
        k(  109) = (   0.1666667  -0.5000000   0.0000000), wk =   0.0034722
        k(  110) = (   0.1666667  -0.4583333   0.0000000), wk =   0.0034722
        k(  111) = (   0.1666667  -0.4166667   0.0000000), wk =   0.0034722
        k(  112) = (   0.1666667  -0.3750000   0.0000000), wk =   0.0034722
        k(  113) = (   0.1666667  -0.3333333   0.0000000), wk =   0.0034722
        k(  114) = (   0.1666667  -0.2916667   0.0000000), wk =   0.0034722
        k(  115) = (   0.1666667  -0.2500000   0.0000000), wk =   0.0034722
        k(  116) = (   0.1666667  -0.2083333   0.0000000), wk =   0.0034722
        k(  117) = (   0.1666667  -0.1666667   0.0000000), wk =   0.0034722
        k(  118) = (   0.1666667  -0.1250000   0.0000000), wk =   0.0034722
        k(  119) = (   0.1666667  -0.0833333   0.0000000), wk =   0.0034722
        k(  120) = (   0.1666667  -0.0416667   0.0000000), wk =   0.0034722
        k(  121) = (   0.2083333   0.0000000   0.0000000), wk =   0.0034722
        k(  122) = (   0.2083333   0.0416667   0.0000000), wk =   0.0034722
        k(  123) = (   0.2083333   0.0833333   0.0000000), wk =   0.0034722
        k(  124) = (   0.2083333   0.1250000   0.0000000), wk =   0.0034722
        k(  125) = (   0.2083333   0.1666667   0.0000000), wk =   0.0034722
        k(  126) = (   0.2083333   0.2083333   0.0000000), wk =   0.0034722
        k(  127) = (   0.2083333   0.2500000   0.0000000), wk =   0.0034722
        k(  128) = (   0.2083333   0.2916667   0.0000000), wk =   0.0034722
        k(  129) = (   0.2083333   0.3333333   0.0000000), wk =   0.0034722
        k(  130) = (   0.2083333   0.3750000   0.0000000), wk =   0.0034722
        k(  131) = (   0.2083333   0.4166667   0.0000000), wk =   0.0034722
        k(  132) = (   0.2083333   0.4583333   0.0000000), wk =   0.0034722
        k(  133) = (   0.2083333  -0.5000000   0.0000000), wk =   0.0034722
        k(  134) = (   0.2083333  -0.4583333   0.0000000), wk =   0.0034722
        k(  135) = (   0.2083333  -0.4166667   0.0000000), wk =   0.0034722
        k(  136) = (   0.2083333  -0.3750000   0.0000000), wk =   0.0034722
        k(  137) = (   0.2083333  -0.3333333   0.0000000), wk =   0.0034722
        k(  138) = (   0.2083333  -0.2916667   0.0000000), wk =   0.0034722
        k(  139) = (   0.2083333  -0.2500000   0.0000000), wk =   0.0034722
        k(  140) = (   0.2083333  -0.2083333   0.0000000), wk =   0.0034722
        k(  141) = (   0.2083333  -0.1666667   0.0000000), wk =   0.0034722
        k(  142) = (   0.2083333  -0.1250000   0.0000000), wk =   0.0034722
        k(  143) = (   0.2083333  -0.0833333   0.0000000), wk =   0.0034722
        k(  144) = (   0.2083333  -0.0416667   0.0000000), wk =   0.0034722
        k(  145) = (   0.2500000   0.0000000   0.0000000), wk =   0.0034722
        k(  146) = (   0.2500000   0.0416667   0.0000000), wk =   0.0034722
        k(  147) = (   0.2500000   0.0833333   0.0000000), wk =   0.0034722
        k(  148) = (   0.2500000   0.1250000   0.0000000), wk =   0.0034722
        k(  149) = (   0.2500000   0.1666667   0.0000000), wk =   0.0034722
        k(  150) = (   0.2500000   0.2083333   0.0000000), wk =   0.0034722
        k(  151) = (   0.2500000   0.2500000   0.0000000), wk =   0.0034722
        k(  152) = (   0.2500000   0.2916667   0.0000000), wk =   0.0034722
        k(  153) = (   0.2500000   0.3333333   0.0000000), wk =   0.0034722
        k(  154) = (   0.2500000   0.3750000   0.0000000), wk =   0.0034722
        k(  155) = (   0.2500000   0.4166667   0.0000000), wk =   0.0034722
        k(  156) = (   0.2500000   0.4583333   0.0000000), wk =   0.0034722
        k(  157) = (   0.2500000  -0.5000000   0.0000000), wk =   0.0034722
        k(  158) = (   0.2500000  -0.4583333   0.0000000), wk =   0.0034722
        k(  159) = (   0.2500000  -0.4166667   0.0000000), wk =   0.0034722
        k(  160) = (   0.2500000  -0.3750000   0.0000000), wk =   0.0034722
        k(  161) = (   0.2500000  -0.3333333   0.0000000), wk =   0.0034722
        k(  162) = (   0.2500000  -0.2916667   0.0000000), wk =   0.0034722
        k(  163) = (   0.2500000  -0.2500000   0.0000000), wk =   0.0034722
        k(  164) = (   0.2500000  -0.2083333   0.0000000), wk =   0.0034722
        k(  165) = (   0.2500000  -0.1666667   0.0000000), wk =   0.0034722
        k(  166) = (   0.2500000  -0.1250000   0.0000000), wk =   0.0034722
        k(  167) = (   0.2500000  -0.0833333   0.0000000), wk =   0.0034722
        k(  168) = (   0.2500000  -0.0416667   0.0000000), wk =   0.0034722
        k(  169) = (   0.2916667   0.0000000   0.0000000), wk =   0.0034722
        k(  170) = (   0.2916667   0.0416667   0.0000000), wk =   0.0034722
        k(  171) = (   0.2916667   0.0833333   0.0000000), wk =   0.0034722
        k(  172) = (   0.2916667   0.1250000   0.0000000), wk =   0.0034722
        k(  173) = (   0.2916667   0.1666667   0.0000000), wk =   0.0034722
        k(  174) = (   0.2916667   0.2083333   0.0000000), wk =   0.0034722
        k(  175) = (   0.2916667   0.2500000   0.0000000), wk =   0.0034722
        k(  176) = (   0.2916667   0.2916667   0.0000000), wk =   0.0034722
        k(  177) = (   0.2916667   0.3333333   0.0000000), wk =   0.0034722
        k(  178) = (   0.2916667   0.3750000   0.0000000), wk =   0.0034722
        k(  179) = (   0.2916667   0.4166667   0.0000000), wk =   0.0034722
        k(  180) = (   0.2916667   0.4583333   0.0000000), wk =   0.0034722
        k(  181) = (   0.2916667  -0.5000000   0.0000000), wk =   0.0034722
        k(  182) = (   0.2916667  -0.4583333   0.0000000), wk =   0.0034722
        k(  183) = (   0.2916667  -0.4166667   0.0000000), wk =   0.0034722
        k(  184) = (   0.2916667  -0.3750000   0.0000000), wk =   0.0034722
        k(  185) = (   0.2916667  -0.3333333   0.0000000), wk =   0.0034722
        k(  186) = (   0.2916667  -0.2916667   0.0000000), wk =   0.0034722
        k(  187) = (   0.2916667  -0.2500000   0.0000000), wk =   0.0034722
        k(  188) = (   0.2916667  -0.2083333   0.0000000), wk =   0.0034722
        k(  189) = (   0.2916667  -0.1666667   0.0000000), wk =   0.0034722
        k(  190) = (   0.2916667  -0.1250000   0.0000000), wk =   0.0034722
        k(  191) = (   0.2916667  -0.0833333   0.0000000), wk =   0.0034722
        k(  192) = (   0.2916667  -0.0416667   0.0000000), wk =   0.0034722
        k(  193) = (   0.3333333   0.0000000   0.0000000), wk =   0.0034722
        k(  194) = (   0.3333333   0.0416667   0.0000000), wk =   0.0034722
        k(  195) = (   0.3333333   0.0833333   0.0000000), wk =   0.0034722
        k(  196) = (   0.3333333   0.1250000   0.0000000), wk =   0.0034722
        k(  197) = (   0.3333333   0.1666667   0.0000000), wk =   0.0034722
        k(  198) = (   0.3333333   0.2083333   0.0000000), wk =   0.0034722
        k(  199) = (   0.3333333   0.2500000   0.0000000), wk =   0.0034722
        k(  200) = (   0.3333333   0.2916667   0.0000000), wk =   0.0034722
        k(  201) = (   0.3333333   0.3333333   0.0000000), wk =   0.0034722
        k(  202) = (   0.3333333   0.3750000   0.0000000), wk =   0.0034722
        k(  203) = (   0.3333333   0.4166667   0.0000000), wk =   0.0034722
        k(  204) = (   0.3333333   0.4583333   0.0000000), wk =   0.0034722
        k(  205) = (   0.3333333  -0.5000000   0.0000000), wk =   0.0034722
        k(  206) = (   0.3333333  -0.4583333   0.0000000), wk =   0.0034722
        k(  207) = (   0.3333333  -0.4166667   0.0000000), wk =   0.0034722
        k(  208) = (   0.3333333  -0.3750000   0.0000000), wk =   0.0034722
        k(  209) = (   0.3333333  -0.3333333   0.0000000), wk =   0.0034722
        k(  210) = (   0.3333333  -0.2916667   0.0000000), wk =   0.0034722
        k(  211) = (   0.3333333  -0.2500000   0.0000000), wk =   0.0034722
        k(  212) = (   0.3333333  -0.2083333   0.0000000), wk =   0.0034722
        k(  213) = (   0.3333333  -0.1666667   0.0000000), wk =   0.0034722
        k(  214) = (   0.3333333  -0.1250000   0.0000000), wk =   0.0034722
        k(  215) = (   0.3333333  -0.0833333   0.0000000), wk =   0.0034722
        k(  216) = (   0.3333333  -0.0416667   0.0000000), wk =   0.0034722
        k(  217) = (   0.3750000   0.0000000   0.0000000), wk =   0.0034722
        k(  218) = (   0.3750000   0.0416667   0.0000000), wk =   0.0034722
        k(  219) = (   0.3750000   0.0833333   0.0000000), wk =   0.0034722
        k(  220) = (   0.3750000   0.1250000   0.0000000), wk =   0.0034722
        k(  221) = (   0.3750000   0.1666667   0.0000000), wk =   0.0034722
        k(  222) = (   0.3750000   0.2083333   0.0000000), wk =   0.0034722
        k(  223) = (   0.3750000   0.2500000   0.0000000), wk =   0.0034722
        k(  224) = (   0.3750000   0.2916667   0.0000000), wk =   0.0034722
        k(  225) = (   0.3750000   0.3333333   0.0000000), wk =   0.0034722
        k(  226) = (   0.3750000   0.3750000   0.0000000), wk =   0.0034722
        k(  227) = (   0.3750000   0.4166667   0.0000000), wk =   0.0034722
        k(  228) = (   0.3750000   0.4583333   0.0000000), wk =   0.0034722
        k(  229) = (   0.3750000  -0.5000000   0.0000000), wk =   0.0034722
        k(  230) = (   0.3750000  -0.4583333   0.0000000), wk =   0.0034722
        k(  231) = (   0.3750000  -0.4166667   0.0000000), wk =   0.0034722
        k(  232) = (   0.3750000  -0.3750000   0.0000000), wk =   0.0034722
        k(  233) = (   0.3750000  -0.3333333   0.0000000), wk =   0.0034722
        k(  234) = (   0.3750000  -0.2916667   0.0000000), wk =   0.0034722
        k(  235) = (   0.3750000  -0.2500000   0.0000000), wk =   0.0034722
        k(  236) = (   0.3750000  -0.2083333   0.0000000), wk =   0.0034722
        k(  237) = (   0.3750000  -0.1666667   0.0000000), wk =   0.0034722
        k(  238) = (   0.3750000  -0.1250000   0.0000000), wk =   0.0034722
        k(  239) = (   0.3750000  -0.0833333   0.0000000), wk =   0.0034722
        k(  240) = (   0.3750000  -0.0416667   0.0000000), wk =   0.0034722
        k(  241) = (   0.4166667   0.0000000   0.0000000), wk =   0.0034722
        k(  242) = (   0.4166667   0.0416667   0.0000000), wk =   0.0034722
        k(  243) = (   0.4166667   0.0833333   0.0000000), wk =   0.0034722
        k(  244) = (   0.4166667   0.1250000   0.0000000), wk =   0.0034722
        k(  245) = (   0.4166667   0.1666667   0.0000000), wk =   0.0034722
        k(  246) = (   0.4166667   0.2083333   0.0000000), wk =   0.0034722
        k(  247) = (   0.4166667   0.2500000   0.0000000), wk =   0.0034722
        k(  248) = (   0.4166667   0.2916667   0.0000000), wk =   0.0034722
        k(  249) = (   0.4166667   0.3333333   0.0000000), wk =   0.0034722
        k(  250) = (   0.4166667   0.3750000   0.0000000), wk =   0.0034722
        k(  251) = (   0.4166667   0.4166667   0.0000000), wk =   0.0034722
        k(  252) = (   0.4166667   0.4583333   0.0000000), wk =   0.0034722
        k(  253) = (   0.4166667  -0.5000000   0.0000000), wk =   0.0034722
        k(  254) = (   0.4166667  -0.4583333   0.0000000), wk =   0.0034722
        k(  255) = (   0.4166667  -0.4166667   0.0000000), wk =   0.0034722
        k(  256) = (   0.4166667  -0.3750000   0.0000000), wk =   0.0034722
        k(  257) = (   0.4166667  -0.3333333   0.0000000), wk =   0.0034722
        k(  258) = (   0.4166667  -0.2916667   0.0000000), wk =   0.0034722
        k(  259) = (   0.4166667  -0.2500000   0.0000000), wk =   0.0034722
        k(  260) = (   0.4166667  -0.2083333   0.0000000), wk =   0.0034722
        k(  261) = (   0.4166667  -0.1666667   0.0000000), wk =   0.0034722
        k(  262) = (   0.4166667  -0.1250000   0.0000000), wk =   0.0034722
        k(  263) = (   0.4166667  -0.0833333   0.0000000), wk =   0.0034722
        k(  264) = (   0.4166667  -0.0416667   0.0000000), wk =   0.0034722
        k(  265) = (   0.4583333   0.0000000   0.0000000), wk =   0.0034722
        k(  266) = (   0.4583333   0.0416667   0.0000000), wk =   0.0034722
        k(  267) = (   0.4583333   0.0833333   0.0000000), wk =   0.0034722
        k(  268) = (   0.4583333   0.1250000   0.0000000), wk =   0.0034722
        k(  269) = (   0.4583333   0.1666667   0.0000000), wk =   0.0034722
        k(  270) = (   0.4583333   0.2083333   0.0000000), wk =   0.0034722
        k(  271) = (   0.4583333   0.2500000   0.0000000), wk =   0.0034722
        k(  272) = (   0.4583333   0.2916667   0.0000000), wk =   0.0034722
        k(  273) = (   0.4583333   0.3333333   0.0000000), wk =   0.0034722
        k(  274) = (   0.4583333   0.3750000   0.0000000), wk =   0.0034722
        k(  275) = (   0.4583333   0.4166667   0.0000000), wk =   0.0034722
        k(  276) = (   0.4583333   0.4583333   0.0000000), wk =   0.0034722
        k(  277) = (   0.4583333  -0.5000000   0.0000000), wk =   0.0034722
        k(  278) = (   0.4583333  -0.4583333   0.0000000), wk =   0.0034722
        k(  279) = (   0.4583333  -0.4166667   0.0000000), wk =   0.0034722
        k(  280) = (   0.4583333  -0.3750000   0.0000000), wk =   0.0034722
        k(  281) = (   0.4583333  -0.3333333   0.0000000), wk =   0.0034722
        k(  282) = (   0.4583333  -0.2916667   0.0000000), wk =   0.0034722
        k(  283) = (   0.4583333  -0.2500000   0.0000000), wk =   0.0034722
        k(  284) = (   0.4583333  -0.2083333   0.0000000), wk =   0.0034722
        k(  285) = (   0.4583333  -0.1666667   0.0000000), wk =   0.0034722
        k(  286) = (   0.4583333  -0.1250000   0.0000000), wk =   0.0034722
        k(  287) = (   0.4583333  -0.0833333   0.0000000), wk =   0.0034722
        k(  288) = (   0.4583333  -0.0416667   0.0000000), wk =   0.0034722
        k(  289) = (  -0.5000000   0.0000000   0.0000000), wk =   0.0034722
        k(  290) = (  -0.5000000   0.0416667   0.0000000), wk =   0.0034722
        k(  291) = (  -0.5000000   0.0833333   0.0000000), wk =   0.0034722
        k(  292) = (  -0.5000000   0.1250000   0.0000000), wk =   0.0034722
        k(  293) = (  -0.5000000   0.1666667   0.0000000), wk =   0.0034722
        k(  294) = (  -0.5000000   0.2083333   0.0000000), wk =   0.0034722
        k(  295) = (  -0.5000000   0.2500000   0.0000000), wk =   0.0034722
        k(  296) = (  -0.5000000   0.2916667   0.0000000), wk =   0.0034722
        k(  297) = (  -0.5000000   0.3333333   0.0000000), wk =   0.0034722
        k(  298) = (  -0.5000000   0.3750000   0.0000000), wk =   0.0034722
        k(  299) = (  -0.5000000   0.4166667   0.0000000), wk =   0.0034722
        k(  300) = (  -0.5000000   0.4583333   0.0000000), wk =   0.0034722
        k(  301) = (  -0.5000000  -0.5000000   0.0000000), wk =   0.0034722
        k(  302) = (  -0.5000000  -0.4583333   0.0000000), wk =   0.0034722
        k(  303) = (  -0.5000000  -0.4166667   0.0000000), wk =   0.0034722
        k(  304) = (  -0.5000000  -0.3750000   0.0000000), wk =   0.0034722
        k(  305) = (  -0.5000000  -0.3333333   0.0000000), wk =   0.0034722
        k(  306) = (  -0.5000000  -0.2916667   0.0000000), wk =   0.0034722
        k(  307) = (  -0.5000000  -0.2500000   0.0000000), wk =   0.0034722
        k(  308) = (  -0.5000000  -0.2083333   0.0000000), wk =   0.0034722
        k(  309) = (  -0.5000000  -0.1666667   0.0000000), wk =   0.0034722
        k(  310) = (  -0.5000000  -0.1250000   0.0000000), wk =   0.0034722
        k(  311) = (  -0.5000000  -0.0833333   0.0000000), wk =   0.0034722
        k(  312) = (  -0.5000000  -0.0416667   0.0000000), wk =   0.0034722
        k(  313) = (  -0.4583333  -0.0000000   0.0000000), wk =   0.0034722
        k(  314) = (  -0.4583333   0.0416667   0.0000000), wk =   0.0034722
        k(  315) = (  -0.4583333   0.0833333   0.0000000), wk =   0.0034722
        k(  316) = (  -0.4583333   0.1250000   0.0000000), wk =   0.0034722
        k(  317) = (  -0.4583333   0.1666667   0.0000000), wk =   0.0034722
        k(  318) = (  -0.4583333   0.2083333   0.0000000), wk =   0.0034722
        k(  319) = (  -0.4583333   0.2500000   0.0000000), wk =   0.0034722
        k(  320) = (  -0.4583333   0.2916667   0.0000000), wk =   0.0034722
        k(  321) = (  -0.4583333   0.3333333   0.0000000), wk =   0.0034722
        k(  322) = (  -0.4583333   0.3750000   0.0000000), wk =   0.0034722
        k(  323) = (  -0.4583333   0.4166667   0.0000000), wk =   0.0034722
        k(  324) = (  -0.4583333   0.4583333   0.0000000), wk =   0.0034722
        k(  325) = (  -0.4583333  -0.5000000   0.0000000), wk =   0.0034722
        k(  326) = (  -0.4583333  -0.4583333   0.0000000), wk =   0.0034722
        k(  327) = (  -0.4583333  -0.4166667   0.0000000), wk =   0.0034722
        k(  328) = (  -0.4583333  -0.3750000   0.0000000), wk =   0.0034722
        k(  329) = (  -0.4583333  -0.3333333   0.0000000), wk =   0.0034722
        k(  330) = (  -0.4583333  -0.2916667   0.0000000), wk =   0.0034722
        k(  331) = (  -0.4583333  -0.2500000   0.0000000), wk =   0.0034722
        k(  332) = (  -0.4583333  -0.2083333   0.0000000), wk =   0.0034722
        k(  333) = (  -0.4583333  -0.1666667   0.0000000), wk =   0.0034722
        k(  334) = (  -0.4583333  -0.1250000   0.0000000), wk =   0.0034722
        k(  335) = (  -0.4583333  -0.0833333   0.0000000), wk =   0.0034722
        k(  336) = (  -0.4583333  -0.0416667   0.0000000), wk =   0.0034722
        k(  337) = (  -0.4166667  -0.0000000   0.0000000), wk =   0.0034722
        k(  338) = (  -0.4166667   0.0416667   0.0000000), wk =   0.0034722
        k(  339) = (  -0.4166667   0.0833333   0.0000000), wk =   0.0034722
        k(  340) = (  -0.4166667   0.1250000   0.0000000), wk =   0.0034722
        k(  341) = (  -0.4166667   0.1666667   0.0000000), wk =   0.0034722
        k(  342) = (  -0.4166667   0.2083333   0.0000000), wk =   0.0034722
        k(  343) = (  -0.4166667   0.2500000   0.0000000), wk =   0.0034722
        k(  344) = (  -0.4166667   0.2916667   0.0000000), wk =   0.0034722
        k(  345) = (  -0.4166667   0.3333333   0.0000000), wk =   0.0034722
        k(  346) = (  -0.4166667   0.3750000   0.0000000), wk =   0.0034722
        k(  347) = (  -0.4166667   0.4166667   0.0000000), wk =   0.0034722
        k(  348) = (  -0.4166667   0.4583333   0.0000000), wk =   0.0034722
        k(  349) = (  -0.4166667  -0.5000000   0.0000000), wk =   0.0034722
        k(  350) = (  -0.4166667  -0.4583333   0.0000000), wk =   0.0034722
        k(  351) = (  -0.4166667  -0.4166667   0.0000000), wk =   0.0034722
        k(  352) = (  -0.4166667  -0.3750000   0.0000000), wk =   0.0034722
        k(  353) = (  -0.4166667  -0.3333333   0.0000000), wk =   0.0034722
        k(  354) = (  -0.4166667  -0.2916667   0.0000000), wk =   0.0034722
        k(  355) = (  -0.4166667  -0.2500000   0.0000000), wk =   0.0034722
        k(  356) = (  -0.4166667  -0.2083333   0.0000000), wk =   0.0034722
        k(  357) = (  -0.4166667  -0.1666667   0.0000000), wk =   0.0034722
        k(  358) = (  -0.4166667  -0.1250000   0.0000000), wk =   0.0034722
        k(  359) = (  -0.4166667  -0.0833333   0.0000000), wk =   0.0034722
        k(  360) = (  -0.4166667  -0.0416667   0.0000000), wk =   0.0034722
        k(  361) = (  -0.3750000  -0.0000000   0.0000000), wk =   0.0034722
        k(  362) = (  -0.3750000   0.0416667   0.0000000), wk =   0.0034722
        k(  363) = (  -0.3750000   0.0833333   0.0000000), wk =   0.0034722
        k(  364) = (  -0.3750000   0.1250000   0.0000000), wk =   0.0034722
        k(  365) = (  -0.3750000   0.1666667   0.0000000), wk =   0.0034722
        k(  366) = (  -0.3750000   0.2083333   0.0000000), wk =   0.0034722
        k(  367) = (  -0.3750000   0.2500000   0.0000000), wk =   0.0034722
        k(  368) = (  -0.3750000   0.2916667   0.0000000), wk =   0.0034722
        k(  369) = (  -0.3750000   0.3333333   0.0000000), wk =   0.0034722
        k(  370) = (  -0.3750000   0.3750000   0.0000000), wk =   0.0034722
        k(  371) = (  -0.3750000   0.4166667   0.0000000), wk =   0.0034722
        k(  372) = (  -0.3750000   0.4583333   0.0000000), wk =   0.0034722
        k(  373) = (  -0.3750000  -0.5000000   0.0000000), wk =   0.0034722
        k(  374) = (  -0.3750000  -0.4583333   0.0000000), wk =   0.0034722
        k(  375) = (  -0.3750000  -0.4166667   0.0000000), wk =   0.0034722
        k(  376) = (  -0.3750000  -0.3750000   0.0000000), wk =   0.0034722
        k(  377) = (  -0.3750000  -0.3333333   0.0000000), wk =   0.0034722
        k(  378) = (  -0.3750000  -0.2916667   0.0000000), wk =   0.0034722
        k(  379) = (  -0.3750000  -0.2500000   0.0000000), wk =   0.0034722
        k(  380) = (  -0.3750000  -0.2083333   0.0000000), wk =   0.0034722
        k(  381) = (  -0.3750000  -0.1666667   0.0000000), wk =   0.0034722
        k(  382) = (  -0.3750000  -0.1250000   0.0000000), wk =   0.0034722
        k(  383) = (  -0.3750000  -0.0833333   0.0000000), wk =   0.0034722
        k(  384) = (  -0.3750000  -0.0416667   0.0000000), wk =   0.0034722
        k(  385) = (  -0.3333333  -0.0000000   0.0000000), wk =   0.0034722
        k(  386) = (  -0.3333333   0.0416667   0.0000000), wk =   0.0034722
        k(  387) = (  -0.3333333   0.0833333   0.0000000), wk =   0.0034722
        k(  388) = (  -0.3333333   0.1250000   0.0000000), wk =   0.0034722
        k(  389) = (  -0.3333333   0.1666667   0.0000000), wk =   0.0034722
        k(  390) = (  -0.3333333   0.2083333   0.0000000), wk =   0.0034722
        k(  391) = (  -0.3333333   0.2500000   0.0000000), wk =   0.0034722
        k(  392) = (  -0.3333333   0.2916667   0.0000000), wk =   0.0034722
        k(  393) = (  -0.3333333   0.3333333   0.0000000), wk =   0.0034722
        k(  394) = (  -0.3333333   0.3750000   0.0000000), wk =   0.0034722
        k(  395) = (  -0.3333333   0.4166667   0.0000000), wk =   0.0034722
        k(  396) = (  -0.3333333   0.4583333   0.0000000), wk =   0.0034722
        k(  397) = (  -0.3333333  -0.5000000   0.0000000), wk =   0.0034722
        k(  398) = (  -0.3333333  -0.4583333   0.0000000), wk =   0.0034722
        k(  399) = (  -0.3333333  -0.4166667   0.0000000), wk =   0.0034722
        k(  400) = (  -0.3333333  -0.3750000   0.0000000), wk =   0.0034722
        k(  401) = (  -0.3333333  -0.3333333   0.0000000), wk =   0.0034722
        k(  402) = (  -0.3333333  -0.2916667   0.0000000), wk =   0.0034722
        k(  403) = (  -0.3333333  -0.2500000   0.0000000), wk =   0.0034722
        k(  404) = (  -0.3333333  -0.2083333   0.0000000), wk =   0.0034722
        k(  405) = (  -0.3333333  -0.1666667   0.0000000), wk =   0.0034722
        k(  406) = (  -0.3333333  -0.1250000   0.0000000), wk =   0.0034722
        k(  407) = (  -0.3333333  -0.0833333   0.0000000), wk =   0.0034722
        k(  408) = (  -0.3333333  -0.0416667   0.0000000), wk =   0.0034722
        k(  409) = (  -0.2916667  -0.0000000   0.0000000), wk =   0.0034722
        k(  410) = (  -0.2916667   0.0416667   0.0000000), wk =   0.0034722
        k(  411) = (  -0.2916667   0.0833333   0.0000000), wk =   0.0034722
        k(  412) = (  -0.2916667   0.1250000   0.0000000), wk =   0.0034722
        k(  413) = (  -0.2916667   0.1666667   0.0000000), wk =   0.0034722
        k(  414) = (  -0.2916667   0.2083333   0.0000000), wk =   0.0034722
        k(  415) = (  -0.2916667   0.2500000   0.0000000), wk =   0.0034722
        k(  416) = (  -0.2916667   0.2916667   0.0000000), wk =   0.0034722
        k(  417) = (  -0.2916667   0.3333333   0.0000000), wk =   0.0034722
        k(  418) = (  -0.2916667   0.3750000   0.0000000), wk =   0.0034722
        k(  419) = (  -0.2916667   0.4166667   0.0000000), wk =   0.0034722
        k(  420) = (  -0.2916667   0.4583333   0.0000000), wk =   0.0034722
        k(  421) = (  -0.2916667  -0.5000000   0.0000000), wk =   0.0034722
        k(  422) = (  -0.2916667  -0.4583333   0.0000000), wk =   0.0034722
        k(  423) = (  -0.2916667  -0.4166667   0.0000000), wk =   0.0034722
        k(  424) = (  -0.2916667  -0.3750000   0.0000000), wk =   0.0034722
        k(  425) = (  -0.2916667  -0.3333333   0.0000000), wk =   0.0034722
        k(  426) = (  -0.2916667  -0.2916667   0.0000000), wk =   0.0034722
        k(  427) = (  -0.2916667  -0.2500000   0.0000000), wk =   0.0034722
        k(  428) = (  -0.2916667  -0.2083333   0.0000000), wk =   0.0034722
        k(  429) = (  -0.2916667  -0.1666667   0.0000000), wk =   0.0034722
        k(  430) = (  -0.2916667  -0.1250000   0.0000000), wk =   0.0034722
        k(  431) = (  -0.2916667  -0.0833333   0.0000000), wk =   0.0034722
        k(  432) = (  -0.2916667  -0.0416667   0.0000000), wk =   0.0034722
        k(  433) = (  -0.2500000   0.0000000   0.0000000), wk =   0.0034722
        k(  434) = (  -0.2500000   0.0416667   0.0000000), wk =   0.0034722
        k(  435) = (  -0.2500000   0.0833333   0.0000000), wk =   0.0034722
        k(  436) = (  -0.2500000   0.1250000   0.0000000), wk =   0.0034722
        k(  437) = (  -0.2500000   0.1666667   0.0000000), wk =   0.0034722
        k(  438) = (  -0.2500000   0.2083333   0.0000000), wk =   0.0034722
        k(  439) = (  -0.2500000   0.2500000   0.0000000), wk =   0.0034722
        k(  440) = (  -0.2500000   0.2916667   0.0000000), wk =   0.0034722
        k(  441) = (  -0.2500000   0.3333333   0.0000000), wk =   0.0034722
        k(  442) = (  -0.2500000   0.3750000   0.0000000), wk =   0.0034722
        k(  443) = (  -0.2500000   0.4166667   0.0000000), wk =   0.0034722
        k(  444) = (  -0.2500000   0.4583333   0.0000000), wk =   0.0034722
        k(  445) = (  -0.2500000  -0.5000000   0.0000000), wk =   0.0034722
        k(  446) = (  -0.2500000  -0.4583333   0.0000000), wk =   0.0034722
        k(  447) = (  -0.2500000  -0.4166667   0.0000000), wk =   0.0034722
        k(  448) = (  -0.2500000  -0.3750000   0.0000000), wk =   0.0034722
        k(  449) = (  -0.2500000  -0.3333333   0.0000000), wk =   0.0034722
        k(  450) = (  -0.2500000  -0.2916667   0.0000000), wk =   0.0034722
        k(  451) = (  -0.2500000  -0.2500000   0.0000000), wk =   0.0034722
        k(  452) = (  -0.2500000  -0.2083333   0.0000000), wk =   0.0034722
        k(  453) = (  -0.2500000  -0.1666667   0.0000000), wk =   0.0034722
        k(  454) = (  -0.2500000  -0.1250000   0.0000000), wk =   0.0034722
        k(  455) = (  -0.2500000  -0.0833333   0.0000000), wk =   0.0034722
        k(  456) = (  -0.2500000  -0.0416667   0.0000000), wk =   0.0034722
        k(  457) = (  -0.2083333  -0.0000000   0.0000000), wk =   0.0034722
        k(  458) = (  -0.2083333   0.0416667   0.0000000), wk =   0.0034722
        k(  459) = (  -0.2083333   0.0833333   0.0000000), wk =   0.0034722
        k(  460) = (  -0.2083333   0.1250000   0.0000000), wk =   0.0034722
        k(  461) = (  -0.2083333   0.1666667   0.0000000), wk =   0.0034722
        k(  462) = (  -0.2083333   0.2083333   0.0000000), wk =   0.0034722
        k(  463) = (  -0.2083333   0.2500000   0.0000000), wk =   0.0034722
        k(  464) = (  -0.2083333   0.2916667   0.0000000), wk =   0.0034722
        k(  465) = (  -0.2083333   0.3333333   0.0000000), wk =   0.0034722
        k(  466) = (  -0.2083333   0.3750000   0.0000000), wk =   0.0034722
        k(  467) = (  -0.2083333   0.4166667   0.0000000), wk =   0.0034722
        k(  468) = (  -0.2083333   0.4583333   0.0000000), wk =   0.0034722
        k(  469) = (  -0.2083333  -0.5000000   0.0000000), wk =   0.0034722
        k(  470) = (  -0.2083333  -0.4583333   0.0000000), wk =   0.0034722
        k(  471) = (  -0.2083333  -0.4166667   0.0000000), wk =   0.0034722
        k(  472) = (  -0.2083333  -0.3750000   0.0000000), wk =   0.0034722
        k(  473) = (  -0.2083333  -0.3333333   0.0000000), wk =   0.0034722
        k(  474) = (  -0.2083333  -0.2916667   0.0000000), wk =   0.0034722
        k(  475) = (  -0.2083333  -0.2500000   0.0000000), wk =   0.0034722
        k(  476) = (  -0.2083333  -0.2083333   0.0000000), wk =   0.0034722
        k(  477) = (  -0.2083333  -0.1666667   0.0000000), wk =   0.0034722
        k(  478) = (  -0.2083333  -0.1250000   0.0000000), wk =   0.0034722
        k(  479) = (  -0.2083333  -0.0833333   0.0000000), wk =   0.0034722
        k(  480) = (  -0.2083333  -0.0416667   0.0000000), wk =   0.0034722
        k(  481) = (  -0.1666667  -0.0000000   0.0000000), wk =   0.0034722
        k(  482) = (  -0.1666667   0.0416667   0.0000000), wk =   0.0034722
        k(  483) = (  -0.1666667   0.0833333   0.0000000), wk =   0.0034722
        k(  484) = (  -0.1666667   0.1250000   0.0000000), wk =   0.0034722
        k(  485) = (  -0.1666667   0.1666667   0.0000000), wk =   0.0034722
        k(  486) = (  -0.1666667   0.2083333   0.0000000), wk =   0.0034722
        k(  487) = (  -0.1666667   0.2500000   0.0000000), wk =   0.0034722
        k(  488) = (  -0.1666667   0.2916667   0.0000000), wk =   0.0034722
        k(  489) = (  -0.1666667   0.3333333   0.0000000), wk =   0.0034722
        k(  490) = (  -0.1666667   0.3750000   0.0000000), wk =   0.0034722
        k(  491) = (  -0.1666667   0.4166667   0.0000000), wk =   0.0034722
        k(  492) = (  -0.1666667   0.4583333   0.0000000), wk =   0.0034722
        k(  493) = (  -0.1666667  -0.5000000   0.0000000), wk =   0.0034722
        k(  494) = (  -0.1666667  -0.4583333   0.0000000), wk =   0.0034722
        k(  495) = (  -0.1666667  -0.4166667   0.0000000), wk =   0.0034722
        k(  496) = (  -0.1666667  -0.3750000   0.0000000), wk =   0.0034722
        k(  497) = (  -0.1666667  -0.3333333   0.0000000), wk =   0.0034722
        k(  498) = (  -0.1666667  -0.2916667   0.0000000), wk =   0.0034722
        k(  499) = (  -0.1666667  -0.2500000   0.0000000), wk =   0.0034722
        k(  500) = (  -0.1666667  -0.2083333   0.0000000), wk =   0.0034722
        k(  501) = (  -0.1666667  -0.1666667   0.0000000), wk =   0.0034722
        k(  502) = (  -0.1666667  -0.1250000   0.0000000), wk =   0.0034722
        k(  503) = (  -0.1666667  -0.0833333   0.0000000), wk =   0.0034722
        k(  504) = (  -0.1666667  -0.0416667   0.0000000), wk =   0.0034722
        k(  505) = (  -0.1250000   0.0000000   0.0000000), wk =   0.0034722
        k(  506) = (  -0.1250000   0.0416667   0.0000000), wk =   0.0034722
        k(  507) = (  -0.1250000   0.0833333   0.0000000), wk =   0.0034722
        k(  508) = (  -0.1250000   0.1250000   0.0000000), wk =   0.0034722
        k(  509) = (  -0.1250000   0.1666667   0.0000000), wk =   0.0034722
        k(  510) = (  -0.1250000   0.2083333   0.0000000), wk =   0.0034722
        k(  511) = (  -0.1250000   0.2500000   0.0000000), wk =   0.0034722
        k(  512) = (  -0.1250000   0.2916667   0.0000000), wk =   0.0034722
        k(  513) = (  -0.1250000   0.3333333   0.0000000), wk =   0.0034722
        k(  514) = (  -0.1250000   0.3750000   0.0000000), wk =   0.0034722
        k(  515) = (  -0.1250000   0.4166667   0.0000000), wk =   0.0034722
        k(  516) = (  -0.1250000   0.4583333   0.0000000), wk =   0.0034722
        k(  517) = (  -0.1250000  -0.5000000   0.0000000), wk =   0.0034722
        k(  518) = (  -0.1250000  -0.4583333   0.0000000), wk =   0.0034722
        k(  519) = (  -0.1250000  -0.4166667   0.0000000), wk =   0.0034722
        k(  520) = (  -0.1250000  -0.3750000   0.0000000), wk =   0.0034722
        k(  521) = (  -0.1250000  -0.3333333   0.0000000), wk =   0.0034722
        k(  522) = (  -0.1250000  -0.2916667   0.0000000), wk =   0.0034722
        k(  523) = (  -0.1250000  -0.2500000   0.0000000), wk =   0.0034722
        k(  524) = (  -0.1250000  -0.2083333   0.0000000), wk =   0.0034722
        k(  525) = (  -0.1250000  -0.1666667   0.0000000), wk =   0.0034722
        k(  526) = (  -0.1250000  -0.1250000   0.0000000), wk =   0.0034722
        k(  527) = (  -0.1250000  -0.0833333   0.0000000), wk =   0.0034722
        k(  528) = (  -0.1250000  -0.0416667   0.0000000), wk =   0.0034722
        k(  529) = (  -0.0833333  -0.0000000   0.0000000), wk =   0.0034722
        k(  530) = (  -0.0833333   0.0416667   0.0000000), wk =   0.0034722
        k(  531) = (  -0.0833333   0.0833333   0.0000000), wk =   0.0034722
        k(  532) = (  -0.0833333   0.1250000   0.0000000), wk =   0.0034722
        k(  533) = (  -0.0833333   0.1666667   0.0000000), wk =   0.0034722
        k(  534) = (  -0.0833333   0.2083333   0.0000000), wk =   0.0034722
        k(  535) = (  -0.0833333   0.2500000   0.0000000), wk =   0.0034722
        k(  536) = (  -0.0833333   0.2916667   0.0000000), wk =   0.0034722
        k(  537) = (  -0.0833333   0.3333333   0.0000000), wk =   0.0034722
        k(  538) = (  -0.0833333   0.3750000   0.0000000), wk =   0.0034722
        k(  539) = (  -0.0833333   0.4166667   0.0000000), wk =   0.0034722
        k(  540) = (  -0.0833333   0.4583333   0.0000000), wk =   0.0034722
        k(  541) = (  -0.0833333  -0.5000000   0.0000000), wk =   0.0034722
        k(  542) = (  -0.0833333  -0.4583333   0.0000000), wk =   0.0034722
        k(  543) = (  -0.0833333  -0.4166667   0.0000000), wk =   0.0034722
        k(  544) = (  -0.0833333  -0.3750000   0.0000000), wk =   0.0034722
        k(  545) = (  -0.0833333  -0.3333333   0.0000000), wk =   0.0034722
        k(  546) = (  -0.0833333  -0.2916667   0.0000000), wk =   0.0034722
        k(  547) = (  -0.0833333  -0.2500000   0.0000000), wk =   0.0034722
        k(  548) = (  -0.0833333  -0.2083333   0.0000000), wk =   0.0034722
        k(  549) = (  -0.0833333  -0.1666667   0.0000000), wk =   0.0034722
        k(  550) = (  -0.0833333  -0.1250000   0.0000000), wk =   0.0034722
        k(  551) = (  -0.0833333  -0.0833333   0.0000000), wk =   0.0034722
        k(  552) = (  -0.0833333  -0.0416667   0.0000000), wk =   0.0034722
        k(  553) = (  -0.0416667  -0.0000000   0.0000000), wk =   0.0034722
        k(  554) = (  -0.0416667   0.0416667   0.0000000), wk =   0.0034722
        k(  555) = (  -0.0416667   0.0833333   0.0000000), wk =   0.0034722
        k(  556) = (  -0.0416667   0.1250000   0.0000000), wk =   0.0034722
        k(  557) = (  -0.0416667   0.1666667   0.0000000), wk =   0.0034722
        k(  558) = (  -0.0416667   0.2083333   0.0000000), wk =   0.0034722
        k(  559) = (  -0.0416667   0.2500000   0.0000000), wk =   0.0034722
        k(  560) = (  -0.0416667   0.2916667   0.0000000), wk =   0.0034722
        k(  561) = (  -0.0416667   0.3333333   0.0000000), wk =   0.0034722
        k(  562) = (  -0.0416667   0.3750000   0.0000000), wk =   0.0034722
        k(  563) = (  -0.0416667   0.4166667   0.0000000), wk =   0.0034722
        k(  564) = (  -0.0416667   0.4583333   0.0000000), wk =   0.0034722
        k(  565) = (  -0.0416667  -0.5000000   0.0000000), wk =   0.0034722
        k(  566) = (  -0.0416667  -0.4583333   0.0000000), wk =   0.0034722
        k(  567) = (  -0.0416667  -0.4166667   0.0000000), wk =   0.0034722
        k(  568) = (  -0.0416667  -0.3750000   0.0000000), wk =   0.0034722
        k(  569) = (  -0.0416667  -0.3333333   0.0000000), wk =   0.0034722
        k(  570) = (  -0.0416667  -0.2916667   0.0000000), wk =   0.0034722
        k(  571) = (  -0.0416667  -0.2500000   0.0000000), wk =   0.0034722
        k(  572) = (  -0.0416667  -0.2083333   0.0000000), wk =   0.0034722
        k(  573) = (  -0.0416667  -0.1666667   0.0000000), wk =   0.0034722
        k(  574) = (  -0.0416667  -0.1250000   0.0000000), wk =   0.0034722
        k(  575) = (  -0.0416667  -0.0833333   0.0000000), wk =   0.0034722
        k(  576) = (  -0.0416667  -0.0416667   0.0000000), wk =   0.0034722

     Dense  grid:    21731 G-vectors     FFT dimensions: (  24,  20, 120)

     Dynamical RAM for                 wfc:       0.33 MB

     Dynamical RAM for     wfc (w. buffer):      24.16 MB

     Dynamical RAM for           str. fact:       0.33 MB

     Dynamical RAM for           local pot:       0.00 MB

     Dynamical RAM for          nlocal pot:       0.66 MB

     Dynamical RAM for                qrad:       0.29 MB

     Dynamical RAM for          rho,v,vnew:       2.31 MB

     Dynamical RAM for               rhoin:       0.77 MB

     Dynamical RAM for            rho*nmix:       5.31 MB

     Dynamical RAM for           G-vectors:       1.41 MB

     Dynamical RAM for          h,s,v(r/c):       0.01 MB

     Dynamical RAM for          <psi|beta>:       0.00 MB

     Dynamical RAM for                 psi:       0.66 MB

     Dynamical RAM for                hpsi:       0.66 MB

     Dynamical RAM for                spsi:       0.66 MB

     Dynamical RAM for      wfcinit/wfcrot:       0.66 MB

     Dynamical RAM for           addusdens:       2.16 MB

     Dynamical RAM for          addusforce:       2.12 MB

     Estimated static dynamical RAM per process >      32.80 MB

     Estimated max dynamical RAM per process >      40.26 MB

     Estimated total dynamical RAM >     284.91 MB

     Check: negative core charge=   -0.000013

     Initial potential from superposition of free atoms

     starting charge       7.9999, renormalised to       8.0000

     negative rho (up, down):  1.124E-03 0.000E+00
     Starting wfcs are    8 randomized atomic wfcs
     Checking if some PAW data can be deallocated... 

     total cpu time spent up to now is        1.6 secs

     per-process dynamical memory:    40.7 Mb

     Self-consistent Calculation

     iteration #  1     ecut=    40.00 Ry     beta= 0.70
     Davidson diagonalization with overlap

---- Real-time Memory Report at c_bands before calling an iterative solver
            72 MiB given to the printing process from OS
            40 MiB allocation reported by mallinfo(arena+hblkhd)
         27099 MiB available memory on the node where the printing process lives
------------------
     ethr =  1.00E-02,  avg # of iterations =  5.6

     negative rho (up, down):  1.737E-03 0.000E+00

     total cpu time spent up to now is        3.2 secs

     total energy              =     -36.70413440 Ry
     estimated scf accuracy    <       0.13904016 Ry

     iteration #  2     ecut=    40.00 Ry     beta= 0.70
     Davidson diagonalization with overlap

---- Real-time Memory Report at c_bands before calling an iterative solver
            81 MiB given to the printing process from OS
            49 MiB allocation reported by mallinfo(arena+hblkhd)
         27036 MiB available memory on the node where the printing process lives
------------------
     ethr =  1.74E-03,  avg # of iterations =  3.4

     negative rho (up, down):  1.890E-03 0.000E+00

     total cpu time spent up to now is        4.6 secs

     total energy              =     -36.72534801 Ry
     estimated scf accuracy    <       0.00208057 Ry

     iteration #  3     ecut=    40.00 Ry     beta= 0.70
     Davidson diagonalization with overlap

---- Real-time Memory Report at c_bands before calling an iterative solver
            82 MiB given to the printing process from OS
            50 MiB allocation reported by mallinfo(arena+hblkhd)
         27028 MiB available memory on the node where the printing process lives
------------------
     ethr =  2.60E-05,  avg # of iterations =  9.9

     negative rho (up, down):  1.966E-03 0.000E+00

     total cpu time spent up to now is        6.8 secs

     total energy              =     -36.72557424 Ry
     estimated scf accuracy    <       0.00018468 Ry

     iteration #  4     ecut=    40.00 Ry     beta= 0.70
     Davidson diagonalization with overlap

---- Real-time Memory Report at c_bands before calling an iterative solver
            83 MiB given to the printing process from OS
            51 MiB allocation reported by mallinfo(arena+hblkhd)
         27016 MiB available memory on the node where the printing process lives
------------------
     ethr =  2.31E-06,  avg # of iterations =  5.2

     negative rho (up, down):  1.969E-03 0.000E+00

     total cpu time spent up to now is        8.4 secs

     total energy              =     -36.72557855 Ry
     estimated scf accuracy    <       0.00002917 Ry

     iteration #  5     ecut=    40.00 Ry     beta= 0.70
     Davidson diagonalization with overlap

---- Real-time Memory Report at c_bands before calling an iterative solver
            83 MiB given to the printing process from OS
            51 MiB allocation reported by mallinfo(arena+hblkhd)
         26984 MiB available memory on the node where the printing process lives
------------------
     ethr =  3.65E-07,  avg # of iterations =  1.4

     negative rho (up, down):  1.970E-03 0.000E+00

     total cpu time spent up to now is        9.4 secs

     total energy              =     -36.72558508 Ry
     estimated scf accuracy    <       0.00000167 Ry

     iteration #  6     ecut=    40.00 Ry     beta= 0.70
     Davidson diagonalization with overlap

---- Real-time Memory Report at c_bands before calling an iterative solver
            84 MiB given to the printing process from OS
            52 MiB allocation reported by mallinfo(arena+hblkhd)
         26989 MiB available memory on the node where the printing process lives
------------------
     ethr =  2.09E-08,  avg # of iterations =  1.8

     negative rho (up, down):  1.970E-03 0.000E+00

     total cpu time spent up to now is       10.6 secs

     total energy              =     -36.72558540 Ry
     estimated scf accuracy    <       0.00000004 Ry

     iteration #  7     ecut=    40.00 Ry     beta= 0.70
     Davidson diagonalization with overlap

---- Real-time Memory Report at c_bands before calling an iterative solver
            85 MiB given to the printing process from OS
            53 MiB allocation reported by mallinfo(arena+hblkhd)
         26948 MiB available memory on the node where the printing process lives
------------------
     ethr =  4.57E-10,  avg # of iterations =  2.3

     negative rho (up, down):  1.970E-03 0.000E+00

     total cpu time spent up to now is       11.9 secs

     End of self-consistent calculation

          k = 0.0000 0.0000 0.0000 (  2683 PWs)   bands (ev):

   -20.2430  -8.6535  -6.0782  -4.9008   0.9717   1.1592   1.8831   2.0335

     occupation numbers 
     1.0000   1.0000   1.0000   1.0000   0.0000   0.0000   0.0000   0.0000

          k = 0.0000 0.0635 0.0000 (  2681 PWs)   bands (ev):

   -20.1987  -8.6015  -6.1649  -5.0904   0.9496   1.2238   1.9443   2.2420

     occupation numbers 
     1.0000   1.0000   1.0000   1.0000   0.0000   0.0000   0.0000   0.0000

          k = 0.0000 0.1270 0.0000 (  2681 PWs)   bands (ev):

   -20.0661  -8.4461  -6.4176  -5.5810   0.8720   1.4119   2.1279   2.4301

     occupation numbers 
     1.0000   1.0000   1.0000   1.0000   0.0000   0.0000   0.0000   0.0000

          k = 0.0000 0.1906 0.0000 (  2683 PWs)   bands (ev):

   -19.8459  -8.1885  -6.8180  -6.2273   0.7000   1.7221   2.4310   2.7428

     occupation numbers 
     1.0000   1.0000   1.0000   1.0000   0.0000   0.0000   0.0000   0.0000

          k = 0.0000 0.2541 0.0000 (  2696 PWs)   bands (ev):

   -19.5397  -7.8308  -7.3447  -6.9187   0.4005   2.1559   2.8420   3.1798

     occupation numbers 
     1.0000   1.0000   1.0000   1.0000   0.0000   0.0000   0.0000   0.0000

          k = 0.0000 0.3176 0.0000 (  2722 PWs)   bands (ev):

   -19.1498  -7.9772  -7.5911  -7.3763  -0.0196   2.7141   3.2182   3.7416

     occupation numbers 
     1.0000   1.0000   1.0000   1.0000   0.0000   0.0000   0.0000   0.0000

          k = 0.0000 0.3811 0.0000 (  2700 PWs)   bands (ev):

   -18.6796  -8.6979  -8.2081  -6.8295  -0.5131   2.7813   3.3965   4.1918

     occupation numbers 
     1.0000   1.0000   1.0000   1.0000   0.0000   0.0000   0.0000   0.0000

          k = 0.0000 0.4447 0.0000 (  2712 PWs)   bands (ev):

   -18.1342  -9.4895  -8.7498  -6.1969  -1.0184   2.0665   4.2024   4.9586

     occupation numbers 
     1.0000   1.0000   1.0000   1.0000   0.0000   0.0000   0.0000   0.0000

          k = 0.0000 0.5082 0.0000 (  2692 PWs)   bands (ev):

   -17.5211 -10.3316  -9.2037  -5.4866  -1.4813   1.2961   5.1302   5.8570

     occupation numbers 
     1.0000   1.0000   1.0000   1.0000   0.0000   0.0000   0.0000   0.0000

          k = 0.0000 0.5717 0.0000 (  2710 PWs)   bands (ev):

   -16.8539 -11.1971  -9.5627  -4.7092  -1.8654   0.4862   6.1777   6.8577

     occupation numbers 
     1.0000   1.0000   1.0000   1.0000   0.0010   0.0000   0.0000   0.0000

          k = 0.0000 0.6352 0.0000 (  2736 PWs)   bands (ev):

   -16.1608 -12.0441  -9.8220  -3.8782  -2.1494  -0.3589   7.3399   7.9147

     occupation numbers 
     1.0000   1.0000   1.0000   1.0000   0.0685   0.0000   0.0000   0.0000

          k = 0.0000 0.6987 0.0000 (  2726 PWs)   bands (ev):

   -15.5215 -12.7808  -9.9784  -3.0093  -2.3225  -1.2318   8.6059   8.8715

     occupation numbers 
     1.0000   1.0000   1.0000   1.0137   0.3295   0.0000   0.0000   0.0000

          k = 0.0000-0.7623 0.0000 (  2734 PWs)   bands (ev):

   -15.2044 -13.1313 -10.0308  -2.3806  -2.1277  -2.1141   9.2862   9.8282

     occupation numbers 
     1.0000   1.0000   1.0000   0.4749   0.0533   0.0453   0.0000   0.0000

          k = 0.0000-0.6987 0.0000 (  2726 PWs)   bands (ev):

   -15.5215 -12.7808  -9.9784  -3.0093  -2.3225  -1.2318   8.6059   8.8714

     occupation numbers 
     1.0000   1.0000   1.0000   1.0137   0.3295   0.0000   0.0000   0.0000

          k = 0.0000-0.6352 0.0000 (  2736 PWs)   bands (ev):

   -16.1608 -12.0441  -9.8220  -3.8782  -2.1494  -0.3589   7.3399   7.9147

     occupation numbers 
     1.0000   1.0000   1.0000   1.0000   0.0685   0.0000   0.0000   0.0000

          k = 0.0000-0.5717 0.0000 (  2710 PWs)   bands (ev):

   -16.8539 -11.1971  -9.5627  -4.7092  -1.8654   0.4862   6.1777   6.8578

     occupation numbers 
     1.0000   1.0000   1.0000   1.0000   0.0010   0.0000   0.0000   0.0000

          k = 0.0000-0.5082 0.0000 (  2692 PWs)   bands (ev):

   -17.5211 -10.3316  -9.2037  -5.4866  -1.4813   1.2961   5.1302   5.8570

     occupation numbers 
     1.0000   1.0000   1.0000   1.0000   0.0000   0.0000   0.0000   0.0000

          k = 0.0000-0.4447 0.0000 (  2712 PWs)   bands (ev):

   -18.1342  -9.4895  -8.7498  -6.1969  -1.0184   2.0665   4.2024   4.9586

     occupation numbers 
     1.0000   1.0000   1.0000   1.0000   0.0000   0.0000   0.0000   0.0000

          k = 0.0000-0.3811 0.0000 (  2700 PWs)   bands (ev):

   -18.6796  -8.6979  -8.2081  -6.8295  -0.5131   2.7813   3.3965   4.1918

     occupation numbers 
     1.0000   1.0000   1.0000   1.0000   0.0000   0.0000   0.0000   0.0000

          k = 0.0000-0.3176 0.0000 (  2722 PWs)   bands (ev):

   -19.1498  -7.9772  -7.5911  -7.3763  -0.0196   2.7141   3.2184   3.7427

     occupation numbers 
     1.0000   1.0000   1.0000   1.0000   0.0000   0.0000   0.0000   0.0000

          k = 0.0000-0.2541 0.0000 (  2696 PWs)   bands (ev):

   -19.5397  -7.8308  -7.3447  -6.9187   0.4005   2.1559   2.8422   3.1798

     occupation numbers 
     1.0000   1.0000   1.0000   1.0000   0.0000   0.0000   0.0000   0.0000

          k = 0.0000-0.1906 0.0000 (  2683 PWs)   bands (ev):

   -19.8459  -8.1885  -6.8180  -6.2273   0.7000   1.7221   2.4310   2.7428

     occupation numbers 
     1.0000   1.0000   1.0000   1.0000   0.0000   0.0000   0.0000   0.0000

          k = 0.0000-0.1270 0.0000 (  2681 PWs)   bands (ev):

   -20.0661  -8.4461  -6.4176  -5.5810   0.8720   1.4119   2.1279   2.4301

     occupation numbers 
     1.0000   1.0000   1.0000   1.0000   0.0000   0.0000   0.0000   0.0000

          k = 0.0000-0.0635 0.0000 (  2681 PWs)   bands (ev):

   -20.1987  -8.6015  -6.1649  -5.0904   0.9496   1.2238   1.9443   2.2420

     occupation numbers 
     1.0000   1.0000   1.0000   1.0000   0.0000   0.0000   0.0000   0.0000

          k = 0.0417-0.0318 0.0000 (  2683 PWs)   bands (ev):

   -20.2130  -8.6190  -6.1717  -5.0540   1.1010   1.1990   1.9250   2.1503

     occupation numbers 
     1.0000   1.0000   1.0000   1.0000   0.0000   0.0000   0.0000   0.0000

          k = 0.0417 0.0318 0.0000 (  2683 PWs)   bands (ev):

   -20.2130  -8.6190  -6.1728  -5.0527   1.1001   1.1989   1.9250   2.1522

     occupation numbers 
     1.0000   1.0000   1.0000   1.0000   0.0000   0.0000   0.0000   0.0000

          k = 0.0417 0.0953 0.0000 (  2681 PWs)   bands (ev):

   -20.1245  -8.5154  -6.3928  -5.3334   1.0190   1.3263   2.0474   2.3412

     occupation numbers 
     1.0000   1.0000   1.0000   1.0000   0.0000   0.0000   0.0000   0.0000

          k = 0.0417 0.1588 0.0000 (  2683 PWs)   bands (ev):

   -19.9481  -8.3090  -6.8054  -5.8022   0.8812   1.5766   2.2909   2.5959

     occupation numbers 
     1.0000   1.0000   1.0000   1.0000   0.0000   0.0000   0.0000   0.0000

          k = 0.0417 0.2223 0.0000 (  2694 PWs)   bands (ev):

   -19.6849  -8.0015  -7.3565  -6.3718   0.6456   1.9494   2.6495   2.9719

     occupation numbers 
     1.0000   1.0000   1.0000   1.0000   0.0000   0.0000   0.0000   0.0000

          k = 0.0417 0.2859 0.0000 (  2694 PWs)   bands (ev):

   -19.3369  -7.9827  -7.5956  -7.0001   0.2877   2.4459   3.0826   3.4717

     occupation numbers 
     1.0000   1.0000   1.0000   1.0000   0.0000   0.0000   0.0000   0.0000

          k = 0.0417 0.3494 0.0000 (  2726 PWs)   bands (ev):

   -18.9070  -8.6415  -7.6609  -7.0954  -0.1691   3.0334   3.0665   3.9092

     occupation numbers 
     1.0000   1.0000   1.0000   1.0000   0.0000   0.0000   0.0000   0.0000

          k = 0.0417 0.4129 0.0000 (  2714 PWs)   bands (ev):

   -18.3992  -9.3245  -8.3150  -6.5062  -0.6683   2.3784   3.8108   4.5822

     occupation numbers 
     1.0000   1.0000   1.0000   1.0000   0.0000   0.0000   0.0000   0.0000

          k = 0.0417 0.4764 0.0000 (  2702 PWs)   bands (ev):

   -17.8200 -10.0524  -8.9056  -5.8356  -1.1510   1.6383   4.6778   5.4201

     occupation numbers 
     1.0000   1.0000   1.0000   1.0000   0.0000   0.0000   0.0000   0.0000

          k = 0.0417 0.5399 0.0000 (  2700 PWs)   bands (ev):

   -17.1797 -10.8382  -9.3849  -5.0929  -1.5720   0.8568   5.6657   6.3720

     occupation numbers 
     1.0000   1.0000   1.0000   1.0000   0.0000   0.0000   0.0000   0.0000

          k = 0.0417 0.6035 0.0000 (  2718 PWs)   bands (ev):

   -16.4976 -11.6562  -9.7386  -4.2904  -1.9032   0.0391   6.7710   7.4052

     occupation numbers 
     1.0000   1.0000   1.0000   1.0000   0.0020   0.0000   0.0000   0.0000

          k = 0.0417 0.6670 0.0000 (  2727 PWs)   bands (ev):

   -15.8202 -12.4386  -9.9704  -3.4431  -2.1294  -0.8108   7.9867   8.4272

     occupation numbers 
     1.0000   1.0000   1.0000   1.0000   0.0544   0.0000   0.0000   0.0000

          k = 0.0417-0.7940 0.0000 (  2731 PWs)   bands (ev):

   -15.2968 -13.0188 -10.0851  -2.5692  -2.2438  -1.6836   9.1150   9.2916

     occupation numbers 
     1.0000   1.0000   1.0000   0.9468   0.1767   0.0000   0.0000   0.0000

          k = 0.0417-0.7305 0.0000 (  2731 PWs)   bands (ev):

   -15.2969 -13.0185 -10.0853  -2.5696  -2.2437  -1.6832   9.1148   9.2916

     occupation numbers 
     1.0000   1.0000   1.0000   0.9474   0.1766   0.0000   0.0000   0.0000

          k = 0.0417-0.6670 0.0000 (  2727 PWs)   bands (ev):

   -15.8203 -12.4379  -9.9711  -3.4434  -2.1293  -0.8103   7.9867   8.4269

     occupation numbers 
     1.0000   1.0000   1.0000   1.0000   0.0544   0.0000   0.0000   0.0000

          k = 0.0417-0.6035 0.0000 (  2718 PWs)   bands (ev):

   -16.4977 -11.6549  -9.7400  -4.2906  -1.9029   0.0396   6.7711   7.4051

     occupation numbers 
     1.0000   1.0000   1.0000   1.0000   0.0020   0.0000   0.0000   0.0000

          k = 0.0417-0.5399 0.0000 (  2700 PWs)   bands (ev):

   -17.1798 -10.8362  -9.3872  -5.0931  -1.5716   0.8573   5.6657   6.3718

     occupation numbers 
     1.0000   1.0000   1.0000   1.0000   0.0000   0.0000   0.0000   0.0000

          k = 0.0417-0.4764 0.0000 (  2702 PWs)   bands (ev):

   -17.8201 -10.0494  -8.9090  -5.8357  -1.1505   1.6389   4.6778   5.7185

     occupation numbers 
     1.0000   1.0000   1.0000   1.0000   0.0000   0.0000   0.0000   0.0000

          k = 0.0417-0.4129 0.0000 (  2714 PWs)   bands (ev):

   -18.3992  -9.3206  -8.3194  -6.5064  -0.6677   2.3789   3.8108   4.5823

     occupation numbers 
     1.0000   1.0000   1.0000   1.0000   0.0000   0.0000   0.0000   0.0000

          k = 0.0417-0.3494 0.0000 (  2726 PWs)   bands (ev):

   -18.9070  -8.6370  -7.6660  -7.0955  -0.1683   3.0337   3.0667   3.9087

     occupation numbers 
     1.0000   1.0000   1.0000   1.0000   0.0000   0.0000   0.0000   0.0000

          k = 0.0417-0.2859 0.0000 (  2694 PWs)   bands (ev):

   -19.3369  -7.9780  -7.5957  -7.0055   0.2887   2.4459   3.0826   3.4717

     occupation numbers 
     1.0000   1.0000   1.0000   1.0000   0.0000   0.0000   0.0000   0.0000

          k = 0.0417-0.2223 0.0000 (  2694 PWs)   bands (ev):

   -19.6849  -8.0015  -7.3518  -6.3773   0.6469   1.9494   2.6495   2.9719

     occupation numbers 
     1.0000   1.0000   1.0000   1.0000   0.0000   0.0000   0.0000   0.0000

          k = 0.0417-0.1588 0.0000 (  2683 PWs)   bands (ev):

   -19.9481  -8.3090  -6.8012  -5.8072   0.8827   1.5766   2.2909   2.5960

     occupation numbers 
     1.0000   1.0000   1.0000   1.0000   0.0000   0.0000   0.0000   0.0000

          k = 0.0417-0.0953 0.0000 (  2681 PWs)   bands (ev):

   -20.1245  -8.5154  -6.3899  -5.3370   1.0207   1.3264   2.0474   2.3409

     occupation numbers 
     1.0000   1.0000   1.0000   1.0000   0.0000   0.0000   0.0000   0.0000

          k = 0.0833-0.0635 0.0000 (  2681 PWs)   bands (ev):

   -20.1229  -8.5161  -6.5093  -5.3739   1.3191   1.3957   2.0505   2.3206

     occupation numbers 
     1.0000   1.0000   1.0000   1.0000   0.0000   0.0000   0.0000   0.0000

          k = 0.0833-0.0000 0.0000 (  2689 PWs)   bands (ev):

   -20.1671  -8.5677  -6.3342  -5.3280   1.2546   1.5111   1.9894   2.2054

     occupation numbers 
     1.0000   1.0000   1.0000   1.0000   0.0000   0.0000   0.0000   0.0000

          k = 0.0833 0.0635 0.0000 (  2681 PWs)   bands (ev):

   -20.1229  -8.5160  -6.5128  -5.3696   1.3190   1.3930   2.0505   2.3208

     occupation numbers 
     1.0000   1.0000   1.0000   1.0000   0.0000   0.0000   0.0000   0.0000

          k = 0.0833 0.1270 0.0000 (  2685 PWs)   bands (ev):

   -19.9907  -8.3616  -6.9587  -5.5475   1.2130   1.5104   2.2330   2.5275

     occupation numbers 
     1.0000   1.0000   1.0000   1.0000   0.0000   0.0000   0.0000   0.0000

          k = 0.0833 0.1906 0.0000 (  2686 PWs)   bands (ev):

   -19.7714  -8.1056  -7.5427  -5.8973   1.0078   1.8246   2.5329   2.8459

     occupation numbers 
     1.0000   1.0000   1.0000   1.0000   0.0000   0.0000   0.0000   0.0000

          k = 0.0833 0.2541 0.0000 (  2698 PWs)   bands (ev):

   -19.4664  -8.1813  -7.7504  -6.3993   0.7186   2.2610   2.9286   3.2856

     occupation numbers 
     1.0000   1.0000   1.0000   1.0000   0.0000   0.0000   0.0000   0.0000

          k = 0.0833 0.3176 0.0000 (  2702 PWs)   bands (ev):

   -19.0785  -8.8275  -7.2995  -7.0137   0.3256   2.8206   3.1162   3.7455

     occupation numbers 
     1.0000   1.0000   1.0000   1.0000   0.0000   0.0000   0.0000   0.0000

          k = 0.0833 0.3811 0.0000 (  2712 PWs)   bands (ev):

   -18.6112  -9.4607  -7.6980  -6.7579  -0.1382   2.5602   3.5034   4.2929

     occupation numbers 
     1.0000   1.0000   1.0000   1.0000   0.0000   0.0000   0.0000   0.0000

          k = 0.0833 0.4447 0.0000 (  2701 PWs)   bands (ev):

   -18.0700 -10.0828  -8.4024  -6.1322  -0.6152   1.8628   4.3090   5.0655

     occupation numbers 
     1.0000   1.0000   1.0000   1.0000   0.0000   0.0000   0.0000   0.0000

          k = 0.0833 0.5082 0.0000 (  2700 PWs)   bands (ev):

   -17.4636 -10.7176  -9.0622  -5.4314  -1.0537   1.1246   5.2364   5.9628

     occupation numbers 
     1.0000   1.0000   1.0000   1.0000   0.0000   0.0000   0.0000   0.0000

          k = 0.0833 0.5717 0.0000 (  2705 PWs)   bands (ev):

   -16.8071 -11.3950  -9.6061  -4.6669  -1.4180   0.3538   6.2830   6.9535

     occupation numbers 
     1.0000   1.0000   1.0000   1.0000   0.0000   0.0000   0.0000   0.0000

          k = 0.0833 0.6352 0.0000 (  2729 PWs)   bands (ev):

   -16.1317 -12.1055  -9.9910  -3.8536  -1.6877  -0.4493   7.4436   7.9717

     occupation numbers 
     1.0000   1.0000   1.0000   1.0000   0.0000   0.0000   0.0000   0.0000

          k = 0.0833-0.8258 0.0000 (  2730 PWs)   bands (ev):

   -15.5216 -12.7510 -10.2142  -3.0105  -1.8523  -1.2797   8.7060   8.7583

     occupation numbers 
     1.0000   1.0000   1.0000   1.0135   0.0008   0.0000   0.0000   0.0000

          k = 0.0833-0.7623 0.0000 (  2730 PWs)   bands (ev):

   -15.2293 -13.0576 -10.2871  -2.2596  -2.0251  -1.9075   8.9854   9.9155

     occupation numbers 
     1.0000   1.0000   1.0000   0.2026   0.0139   0.0021   0.0000   0.0000

          k = 0.0833-0.6987 0.0000 (  2730 PWs)   bands (ev):

   -15.5218 -12.7500 -10.2151  -3.0112  -1.8522  -1.2788   8.7061   8.7579

     occupation numbers 
     1.0000   1.0000   1.0000   1.0134   0.0008   0.0000   0.0000   0.0000

          k = 0.0833-0.6352 0.0000 (  2729 PWs)   bands (ev):

   -16.1319 -12.1035  -9.9930  -3.8542  -1.6874  -0.4483   7.4436   7.9714

     occupation numbers 
     1.0000   1.0000   1.0000   1.0000   0.0000   0.0000   0.0000   0.0000

          k = 0.0833-0.5717 0.0000 (  2705 PWs)   bands (ev):

   -16.8073 -11.3920  -9.6093  -4.6674  -1.4175   0.3548   6.2830   6.9535

     occupation numbers 
     1.0000   1.0000   1.0000   1.0000   0.0000   0.0000   0.0000   0.0000

          k = 0.0833-0.5082 0.0000 (  2700 PWs)   bands (ev):

   -17.4638 -10.7138  -9.0665  -5.4318  -1.0529   1.1256   5.2364   5.9621

     occupation numbers 
     1.0000   1.0000   1.0000   1.0000   0.0000   0.0000   0.0000   0.0000

          k = 0.0833-0.4447 0.0000 (  2701 PWs)   bands (ev):

   -18.0701 -10.0785  -8.4073  -6.1325  -0.6142   1.8638   4.3090   5.0655

     occupation numbers 
     1.0000   1.0000   1.0000   1.0000   0.0000   0.0000   0.0000   0.0000

          k = 0.0833-0.3811 0.0000 (  2712 PWs)   bands (ev):

   -18.6112  -9.4563  -7.7034  -6.7581  -0.1369   2.5610   3.5032   4.2926

     occupation numbers 
     1.0000   1.0000   1.0000   1.0000   0.0000   0.0000   0.0000   0.0000

          k = 0.0833-0.3176 0.0000 (  2702 PWs)   bands (ev):

   -19.0785  -8.8229  -7.2997  -7.0194   0.3273   2.8204   3.1167   3.7459

     occupation numbers 
     1.0000   1.0000   1.0000   1.0000   0.0000   0.0000   0.0000   0.0000

          k = 0.0833-0.2541 0.0000 (  2698 PWs)   bands (ev):

   -19.4665  -8.1766  -7.7505  -6.4054   0.7208   2.2610   2.9287   3.2856

     occupation numbers 
     1.0000   1.0000   1.0000   1.0000   0.0000   0.0000   0.0000   0.0000

          k = 0.0833-0.1906 0.0000 (  2686 PWs)   bands (ev):

   -19.7714  -8.1057  -7.5379  -5.9037   1.0105   1.8246   2.5328   2.8459

     occupation numbers 
     1.0000   1.0000   1.0000   1.0000   0.0000   0.0000   0.0000   0.0000

          k = 0.0833-0.1270 0.0000 (  2685 PWs)   bands (ev):

   -19.9907  -8.3616  -6.9540  -5.5535   1.2160   1.5104   2.2330   2.5274

     occupation numbers 
     1.0000   1.0000   1.0000   1.0000   0.0000   0.0000   0.0000   0.0000

          k = 0.1250-0.0953 0.0000 (  2690 PWs)   bands (ev):

   -19.9737  -8.3458  -7.1499  -5.6461   1.5218   1.7389   2.2586   2.5423

     occupation numbers 
     1.0000   1.0000   1.0000   1.0000   0.0000   0.0000   0.0000   0.0000

          k = 0.1250-0.0318 0.0000 (  2690 PWs)   bands (ev):

   -20.0615  -8.4481  -6.7010  -5.7468   1.3950   2.0191   2.1376   2.3896

     occupation numbers 
     1.0000   1.0000   1.0000   1.0000   0.0000   0.0000   0.0000   0.0000

          k = 0.1250 0.0318 0.0000 (  2690 PWs)   bands (ev):

   -20.0615  -8.4481  -6.7037  -5.7435   1.3950   2.0162   2.1377   2.3905

     occupation numbers 
     1.0000   1.0000   1.0000   1.0000   0.0000   0.0000   0.0000   0.0000

          k = 0.1250 0.0953 0.0000 (  2690 PWs)   bands (ev):

   -19.9736  -8.3457  -7.1546  -5.6402   1.5215   1.7352   2.2586   2.5425

     occupation numbers 
     1.0000   1.0000   1.0000   1.0000   0.0000   0.0000   0.0000   0.0000

          k = 0.1250 0.1588 0.0000 (  2685 PWs)   bands (ev):

   -19.7985  -8.1419  -7.7658  -5.7011   1.4853   1.7820   2.4974   2.8015

     occupation numbers 
     1.0000   1.0000   1.0000   1.0000   0.0000   0.0000   0.0000   0.0000

          k = 0.1250 0.2223 0.0000 (  2693 PWs)   bands (ev):

   -19.5375  -8.4227  -7.8387  -5.9866   1.2387   2.1583   2.8374   3.1819

     occupation numbers 
     1.0000   1.0000   1.0000   1.0000   0.0000   0.0000   0.0000   0.0000

          k = 0.1250 0.2859 0.0000 (  2708 PWs)   bands (ev):

   -19.1928  -9.0763  -7.4393  -6.4691   0.9203   2.6578   3.0806   3.6714

     occupation numbers 
     1.0000   1.0000   1.0000   1.0000   0.0000   0.0000   0.0000   0.0000

          k = 0.1250 0.3494 0.0000 (  2694 PWs)   bands (ev):

   -18.7677  -9.7012  -7.0971  -6.9480   0.5191   2.6181   3.2797   4.0874

     occupation numbers 
     1.0000   1.0000   1.0000   1.0000   0.0000   0.0000   0.0000   0.0000

          k = 0.1250 0.4129 0.0000 (  2710 PWs)   bands (ev):

   -18.2674 -10.2870  -7.8171  -6.3714   0.0737   1.9648   4.0240   4.7941

     occupation numbers 
     1.0000   1.0000   1.0000   1.0000   0.0000   0.0000   0.0000   0.0000

          k = 0.1250 0.4764 0.0000 (  2695 PWs)   bands (ev):

   -17.6996 -10.8369  -8.5717  -5.7179  -0.3615   1.2760   4.8905   5.6338

     occupation numbers 
     1.0000   1.0000   1.0000   1.0000   0.0000   0.0000   0.0000   0.0000

          k = 0.1250 0.5399 0.0000 (  2704 PWs)   bands (ev):

   -17.0772 -11.3709  -9.2925  -4.9990  -0.7438   0.5642   5.8772   6.5762

     occupation numbers 
     1.0000   1.0000   1.0000   1.0000   0.0000   0.0000   0.0000   0.0000

          k = 0.1250 0.6035 0.0000 (  2709 PWs)   bands (ev):

   -16.4245 -11.9180  -9.8973  -4.2298  -1.0456  -0.1722   6.9801   7.5704

     occupation numbers 
     1.0000   1.0000   1.0000   1.0000   0.0000   0.0000   0.0000   0.0000

          k = 0.1250-0.8576 0.0000 (  2728 PWs)   bands (ev):

   -15.7965 -12.4731 -10.3153  -3.4312  -1.2524  -0.9336   8.1909   8.3989

     occupation numbers 
     1.0000   1.0000   1.0000   1.0000   0.0000   0.0000   0.0000   0.0000

          k = 0.1250-0.7940 0.0000 (  2726 PWs)   bands (ev):

   -15.3409 -12.8983 -10.5218  -2.6529  -1.6880  -1.3571   8.6820   9.4828

     occupation numbers 
     1.0000   1.0000   1.0000   1.0539   0.0000   0.0000   0.0000   0.0000

          k = 0.1250-0.7305 0.0000 (  2726 PWs)   bands (ev):

   -15.3411 -12.8974 -10.5226  -2.6539  -1.6869  -1.3569   8.6816   9.4828

     occupation numbers 
     1.0000   1.0000   1.0000   1.0546   0.0000   0.0000   0.0000   0.0000

          k = 0.1250-0.6670 0.0000 (  2728 PWs)   bands (ev):

   -15.7969 -12.4707 -10.3176  -3.4321  -1.2520  -0.9322   8.1909   8.3982

     occupation numbers 
     1.0000   1.0000   1.0000   1.0000   0.0000   0.0000   0.0000   0.0000

          k = 0.1250-0.6035 0.0000 (  2709 PWs)   bands (ev):

   -16.4249 -11.9146  -9.9009  -4.2305  -1.0450  -0.1707   6.9802   7.5703

     occupation numbers 
     1.0000   1.0000   1.0000   1.0000   0.0000   0.0000   0.0000   0.0000

          k = 0.1250-0.5399 0.0000 (  2704 PWs)   bands (ev):

   -17.0774 -11.3669  -9.2970  -4.9996  -0.7429   0.5657   5.8772   6.5762

     occupation numbers 
     1.0000   1.0000   1.0000   1.0000   0.0000   0.0000   0.0000   0.0000

          k = 0.1250-0.4764 0.0000 (  2695 PWs)   bands (ev):

   -17.6997 -10.8328  -8.5766  -5.7184  -0.3603   1.2774   4.8905   5.6339

     occupation numbers 
     1.0000   1.0000   1.0000   1.0000   0.0000   0.0000   0.0000   0.0000

          k = 0.1250-0.4129 0.0000 (  2710 PWs)   bands (ev):

   -18.2675 -10.2828  -7.8224  -6.3718   0.0753   1.9661   4.0240   4.7944

     occupation numbers 
     1.0000   1.0000   1.0000   1.0000   0.0000   0.0000   0.0000   0.0000

          k = 0.1250-0.3494 0.0000 (  2694 PWs)   bands (ev):

   -18.7678  -9.6970  -7.1027  -6.9483   0.5212   2.6192   3.2798   4.0869

     occupation numbers 
     1.0000   1.0000   1.0000   1.0000   0.0000   0.0000   0.0000   0.0000

          k = 0.1250-0.2859 0.0000 (  2708 PWs)   bands (ev):

   -19.1928  -9.0720  -7.4396  -6.4751   0.9230   2.6577   3.0806   3.6844

     occupation numbers 
     1.0000   1.0000   1.0000   1.0000   0.0000   0.0000   0.0000   0.0000

          k = 0.1250-0.2223 0.0000 (  2693 PWs)   bands (ev):

   -19.5375  -8.4182  -7.8389  -5.9930   1.2420   2.1583   2.8374   3.1819

     occupation numbers 
     1.0000   1.0000   1.0000   1.0000   0.0000   0.0000   0.0000   0.0000

          k = 0.1250-0.1588 0.0000 (  2685 PWs)   bands (ev):

   -19.7985  -8.1421  -7.7611  -5.7076   1.4892   1.7819   2.4974   2.8015

     occupation numbers 
     1.0000   1.0000   1.0000   1.0000   0.0000   0.0000   0.0000   0.0000

          k = 0.1667-0.1270 0.0000 (  2687 PWs)   bands (ev):

   -19.7663  -8.1102  -7.9913  -5.8479   1.8066   2.1073   2.5450   2.8468

     occupation numbers 
     1.0000   1.0000   1.0000   1.0000   0.0000   0.0000   0.0000   0.0000

          k = 0.1667-0.0635 0.0000 (  2692 PWs)   bands (ev):

   -19.8970  -8.2615  -7.3588  -6.0739   1.6207   2.3683   2.4215   2.6755

     occupation numbers 
     1.0000   1.0000   1.0000   1.0000   0.0000   0.0000   0.0000   0.0000

          k = 0.1667-0.0000 0.0000 (  2686 PWs)   bands (ev):

   -19.9407  -8.3121  -6.9973  -6.3017   1.5573   2.3085   2.5443   2.8134

     occupation numbers 
     1.0000   1.0000   1.0000   1.0000   0.0000   0.0000   0.0000   0.0000

          k = 0.1667 0.0635 0.0000 (  2692 PWs)   bands (ev):

   -19.8970  -8.2615  -7.3631  -6.0687   1.6206   2.3682   2.4176   2.6753

     occupation numbers 
     1.0000   1.0000   1.0000   1.0000   0.0000   0.0000   0.0000   0.0000

          k = 0.1667 0.1270 0.0000 (  2687 PWs)   bands (ev):

   -19.7662  -8.1101  -7.9958  -5.8419   1.8063   2.1034   2.5450   2.8470

     occupation numbers 
     1.0000   1.0000   1.0000   1.0000   0.0000   0.0000   0.0000   0.0000

          k = 0.1667 0.1906 0.0000 (  2694 PWs)   bands (ev):

   -19.5495  -8.6751  -7.8596  -5.8454   1.8189   2.1431   2.8219   3.1620

     occupation numbers 
     1.0000   1.0000   1.0000   1.0000   0.0000   0.0000   0.0000   0.0000

          k = 0.1667 0.2541 0.0000 (  2705 PWs)   bands (ev):

   -19.2489  -9.3459  -7.5129  -6.1077   1.5625   2.5781   3.0141   3.5959

     occupation numbers 
     1.0000   1.0000   1.0000   1.0000   0.0000   0.0000   0.0000   0.0000

          k = 0.1667 0.3176 0.0000 (  2707 PWs)   bands (ev):

   -18.8675  -9.9803  -7.0742  -6.5952   1.2415   2.5774   3.1394   3.9584

     occupation numbers 
     1.0000   1.0000   1.0000   1.0000   0.0000   0.0000   0.0000   0.0000

          k = 0.1667 0.3811 0.0000 (  2702 PWs)   bands (ev):

   -18.4100 -10.5627  -7.2494  -6.5498   0.8558   1.9581   3.8229   4.6044

     occupation numbers 
     1.0000   1.0000   1.0000   1.0000   0.0000   0.0000   0.0000   0.0000

          k = 0.1667 0.4447 0.0000 (  2702 PWs)   bands (ev):

   -17.8840 -11.0857  -8.0082  -5.9481   0.4471   1.3141   4.6283   5.3866

     occupation numbers 
     1.0000   1.0000   1.0000   1.0000   0.0000   0.0000   0.0000   0.0000

          k = 0.1667 0.5082 0.0000 (  2700 PWs)   bands (ev):

   -17.3014 -11.5497  -8.8084  -5.2808   0.0642   0.6631   5.5543   6.2780

     occupation numbers 
     1.0000   1.0000   1.0000   1.0000   0.0000   0.0000   0.0000   0.0000

          k = 0.1667 0.5717 0.0000 (  2712 PWs)   bands (ev):

   -16.6836 -11.9646  -9.5800  -4.5641  -0.2577   0.0038   6.5981   7.2411

     occupation numbers 
     1.0000   1.0000   1.0000   1.0000   0.0000   0.0000   0.0000   0.0000

          k = 0.1667-0.8893 0.0000 (  2731 PWs)   bands (ev):

   -16.0726 -12.3470 -10.2347  -3.8215  -0.6675  -0.4976   7.7534   8.1036

     occupation numbers 
     1.0000   1.0000   1.0000   1.0000   0.0000   0.0000   0.0000   0.0000

          k = 0.1667-0.8258 0.0000 (  2727 PWs)   bands (ev):

   -15.5625 -12.6824 -10.6732  -3.0987  -1.3327  -0.6447   8.4107   9.0029

     occupation numbers 
     1.0000   1.0000   1.0000   1.0043   0.0000   0.0000   0.0000   0.0000

          k = 0.1667-0.7623 0.0000 (  2726 PWs)   bands (ev):

   -15.3441 -12.8371 -10.8261  -2.6499  -1.7596  -0.6941   8.4093  10.1651

     occupation numbers 
     1.0000   1.0000   1.0000   1.0514   0.0001   0.0000   0.0000   0.0000

          k = 0.1667-0.6987 0.0000 (  2727 PWs)   bands (ev):

   -15.5630 -12.6800 -10.6753  -3.0999  -1.3311  -0.6444   8.4100   9.0030

     occupation numbers 
     1.0000   1.0000   1.0000   1.0042   0.0000   0.0000   0.0000   0.0000

          k = 0.1667-0.6352 0.0000 (  2731 PWs)   bands (ev):

   -16.0731 -12.3433 -10.2384  -3.8226  -0.6656  -0.4970   7.7534   8.1032

     occupation numbers 
     1.0000   1.0000   1.0000   1.0000   0.0000   0.0000   0.0000   0.0000

          k = 0.1667-0.5717 0.0000 (  2712 PWs)   bands (ev):

   -16.6840 -11.9605  -9.5844  -4.5651  -0.2568   0.0057   6.5982   7.2409

     occupation numbers 
     1.0000   1.0000   1.0000   1.0000   0.0000   0.0000   0.0000   0.0000

          k = 0.1667-0.5082 0.0000 (  2700 PWs)   bands (ev):

   -17.3017 -11.5456  -8.8132  -5.2816   0.0655   0.6650   5.5543   6.2781

     occupation numbers 
     1.0000   1.0000   1.0000   1.0000   0.0000   0.0000   0.0000   0.0000

          k = 0.1667-0.4447 0.0000 (  2702 PWs)   bands (ev):

   -17.8842 -11.0817  -8.0132  -5.9487   0.4489   1.3160   4.6283   5.3861

     occupation numbers 
     1.0000   1.0000   1.0000   1.0000   0.0000   0.0000   0.0000   0.0000

          k = 0.1667-0.3811 0.0000 (  2702 PWs)   bands (ev):

   -18.4102 -10.5588  -7.2548  -6.5503   0.8581   1.9597   3.8229   4.6044

     occupation numbers 
     1.0000   1.0000   1.0000   1.0000   0.0000   0.0000   0.0000   0.0000

          k = 0.1667-0.3176 0.0000 (  2707 PWs)   bands (ev):

   -18.8675  -9.9763  -7.0747  -6.6009   1.2445   2.5787   3.1394   3.9590

     occupation numbers 
     1.0000   1.0000   1.0000   1.0000   0.0000   0.0000   0.0000   0.0000

          k = 0.1667-0.2541 0.0000 (  2705 PWs)   bands (ev):

   -19.2489  -9.3417  -7.5132  -6.1138   1.5661   2.5779   3.0145   3.5980

     occupation numbers 
     1.0000   1.0000   1.0000   1.0000   0.0000   0.0000   0.0000   0.0000

          k = 0.1667-0.1906 0.0000 (  2694 PWs)   bands (ev):

   -19.5496  -8.6708  -7.8599  -5.8516   1.8232   2.1430   2.8218   3.1619

     occupation numbers 
     1.0000   1.0000   1.0000   1.0000   0.0000   0.0000   0.0000   0.0000

          k = 0.2083-0.1588 0.0000 (  2691 PWs)   bands (ev):

   -19.5028  -8.9144  -7.8131  -6.0189   2.1706   2.4996   2.8830   3.2367

     occupation numbers 
     1.0000   1.0000   1.0000   1.0000   0.0000   0.0000   0.0000   0.0000

          k = 0.2083-0.0953 0.0000 (  2691 PWs)   bands (ev):

   -19.6749  -8.2112  -8.0106  -6.2961   1.9302   2.6759   2.7698   3.0436

     occupation numbers 
     1.0000   1.0000   1.0000   1.0000   0.0000   0.0000   0.0000   0.0000

          k = 0.2083-0.0318 0.0000 (  2696 PWs)   bands (ev):

   -19.7614  -8.1099  -7.5735  -6.7335   1.8053   2.5616   2.7948   3.3282

     occupation numbers 
     1.0000   1.0000   1.0000   1.0000   0.0000   0.0000   0.0000   0.0000

          k = 0.2083 0.0318 0.0000 (  2696 PWs)   bands (ev):

   -19.7614  -8.1099  -7.5771  -6.7295   1.8053   2.5616   2.7945   3.3249

     occupation numbers 
     1.0000   1.0000   1.0000   1.0000   0.0000   0.0000   0.0000   0.0000

          k = 0.2083 0.0953 0.0000 (  2691 PWs)   bands (ev):

   -19.6749  -8.2154  -8.0104  -6.2907   1.9301   2.6761   2.7665   3.0429

     occupation numbers 
     1.0000   1.0000   1.0000   1.0000   0.0000   0.0000   0.0000   0.0000

          k = 0.2083 0.1588 0.0000 (  2691 PWs)   bands (ev):

   -19.5027  -8.9185  -7.8128  -6.0131   2.1700   2.4958   2.8829   3.2369

     occupation numbers 
     1.0000   1.0000   1.0000   1.0000   0.0000   0.0000   0.0000   0.0000

          k = 0.2083 0.2223 0.0000 (  2701 PWs)   bands (ev):

   -19.2467  -9.6117  -7.5197  -5.9964   2.1988   2.5914   2.9451   3.5411

     occupation numbers 
     1.0000   1.0000   1.0000   1.0000   0.0000   0.0000   0.0000   0.0000

          k = 0.2083 0.2859 0.0000 (  2705 PWs)   bands (ev):

   -18.9098 -10.2650  -7.1351  -6.2598   1.9608   2.4678   3.0830   3.9030

     occupation numbers 
     1.0000   1.0000   1.0000   1.0000   0.0000   0.0000   0.0000   0.0000

          k = 0.2083 0.3494 0.0000 (  2701 PWs)   bands (ev):

   -18.4967 -10.8601  -6.7662  -6.6652   1.6619   1.8678   3.7052   4.4943

     occupation numbers 
     1.0000   1.0000   1.0000   1.0000   0.0000   0.0000   0.0000   0.0000

          k = 0.2083 0.4129 0.0000 (  2707 PWs)   bands (ev):

   -18.0149 -11.3843  -7.4515  -6.1189   1.2585   1.3106   4.4496   5.2195

     occupation numbers 
     1.0000   1.0000   1.0000   1.0000   0.0000   0.0000   0.0000   0.0000

          k = 0.2083 0.4764 0.0000 (  2702 PWs)   bands (ev):

   -17.4763 -11.8282  -8.2462  -5.5084   0.6606   0.9501   5.3148   6.0594

     occupation numbers 
     1.0000   1.0000   1.0000   1.0000   0.0000   0.0000   0.0000   0.0000

          k = 0.2083 0.5399 0.0000 (  2723 PWs)   bands (ev):

   -16.9013 -12.1841  -9.0837  -4.8516   0.0773   0.6239   6.2986   6.9858

     occupation numbers 
     1.0000   1.0000   1.0000   1.0000   0.0000   0.0000   0.0000   0.0000

          k = 0.2083-0.9211 0.0000 (  2737 PWs)   bands (ev):

   -16.3270 -12.4446  -9.8937  -4.1744  -0.4940   0.3617   7.3959   7.8792

     occupation numbers 
     1.0000   1.0000   1.0000   1.0000   0.0000   0.0000   0.0000   0.0000

          k = 0.2083-0.8576 0.0000 (  2736 PWs)   bands (ev):

   -15.8233 -12.6035 -10.5841  -3.5226  -1.0442   0.1804   8.2477   8.5942

     occupation numbers 
     1.0000   1.0000   1.0000   1.0000   0.0000   0.0000   0.0000   0.0000

          k = 0.2083-0.7940 0.0000 (  2736 PWs)   bands (ev):

   -15.5094 -12.6665 -11.0122  -3.0204  -1.4844   0.0881   8.1734   9.8480

     occupation numbers 
     1.0000   1.0000   1.0000   1.0120   0.0000   0.0000   0.0000   0.0000

          k = 0.2083-0.7305 0.0000 (  2736 PWs)   bands (ev):

   -15.5097 -12.6647 -11.0137  -3.0212  -1.4833   0.0883   8.1731   9.8481

     occupation numbers 
     1.0000   1.0000   1.0000   1.0119   0.0000   0.0000   0.0000   0.0000

          k = 0.2083-0.6670 0.0000 (  2736 PWs)   bands (ev):

   -15.8240 -12.5997 -10.5876  -3.5240  -1.0422   0.1809   8.2468   8.5943

     occupation numbers 
     1.0000   1.0000   1.0000   1.0000   0.0000   0.0000   0.0000   0.0000

          k = 0.2083-0.6035 0.0000 (  2737 PWs)   bands (ev):

   -16.3276 -12.4404  -9.8980  -4.1757  -0.4917   0.3626   7.3959   7.8787

     occupation numbers 
     1.0000   1.0000   1.0000   1.0000   0.0000   0.0000   0.0000   0.0000

          k = 0.2083-0.5399 0.0000 (  2723 PWs)   bands (ev):

   -16.9018 -12.1800  -9.0882  -4.8527   0.0797   0.6252   6.2986   6.9857

     occupation numbers 
     1.0000   1.0000   1.0000   1.0000   0.0000   0.0000   0.0000   0.0000

          k = 0.2083-0.4764 0.0000 (  2702 PWs)   bands (ev):

   -17.4766 -11.8243  -8.2509  -5.5093   0.6629   0.9519   5.3149   6.0594

     occupation numbers 
     1.0000   1.0000   1.0000   1.0000   0.0000   0.0000   0.0000   0.0000

          k = 0.2083-0.4129 0.0000 (  2707 PWs)   bands (ev):

   -18.0152 -11.3805  -7.4565  -6.1197   1.2606   1.3130   4.4497   5.2196

     occupation numbers 
     1.0000   1.0000   1.0000   1.0000   0.0000   0.0000   0.0000   0.0000

          k = 0.2083-0.3494 0.0000 (  2701 PWs)   bands (ev):

   -18.4969 -10.8564  -6.7716  -6.6658   1.6650   1.8697   3.7051   4.4944

     occupation numbers 
     1.0000   1.0000   1.0000   1.0000   0.0000   0.0000   0.0000   0.0000

          k = 0.2083-0.2859 0.0000 (  2705 PWs)   bands (ev):

   -18.9099 -10.2613  -7.1356  -6.2655   1.9647   2.4693   3.0829   3.9030

     occupation numbers 
     1.0000   1.0000   1.0000   1.0000   0.0000   0.0000   0.0000   0.0000

          k = 0.2083-0.2223 0.0000 (  2701 PWs)   bands (ev):

   -19.2468  -9.6078  -7.5201  -6.0023   2.2032   2.5913   2.9456   3.5405

     occupation numbers 
     1.0000   1.0000   1.0000   1.0000   0.0000   0.0000   0.0000   0.0000

          k = 0.2500-0.1906 0.0000 (  2704 PWs)   bands (ev):

   -19.1864  -9.8539  -7.4600  -6.1728   2.6017   2.8419   2.9119   3.5446

     occupation numbers 
     1.0000   1.0000   1.0000   1.0000   0.0000   0.0000   0.0000   0.0000

          k = 0.2500-0.1270 0.0000 (  2695 PWs)   bands (ev):

   -19.3976  -9.1353  -7.6992  -6.4663   2.3206   3.0094   3.1284   3.4680

     occupation numbers 
     1.0000   1.0000   1.0000   1.0000   0.0000   0.0000   0.0000   0.0000

          k = 0.2500-0.0635 0.0000 (  2695 PWs)   bands (ev):

   -19.5253  -8.4091  -7.8442  -6.9671   2.1369   2.8901   3.1222   3.6912

     occupation numbers 
     1.0000   1.0000   1.0000   1.0000   0.0000   0.0000   0.0000   0.0000

          k = 0.2500-0.0000 0.0000 (  2692 PWs)   bands (ev):

   -19.5681  -7.8927  -7.8707  -7.4360   2.0750   2.8381   3.0756   4.0232

     occupation numbers 
     1.0000   1.0000   1.0000   1.0000   0.0000   0.0000   0.0000   0.0000

          k = 0.2500 0.0635 0.0000 (  2695 PWs)   bands (ev):

   -19.5253  -8.4131  -7.8441  -6.9624   2.1368   2.8901   3.1217   3.6882

     occupation numbers 
     1.0000   1.0000   1.0000   1.0000   0.0000   0.0000   0.0000   0.0000

          k = 0.2500 0.1270 0.0000 (  2695 PWs)   bands (ev):

   -19.3975  -9.1392  -7.6989  -6.4611   2.3204   3.0093   3.1253   3.4674

     occupation numbers 
     1.0000   1.0000   1.0000   1.0000   0.0000   0.0000   0.0000   0.0000

          k = 0.2500 0.1906 0.0000 (  2704 PWs)   bands (ev):

   -19.1864  -9.8576  -7.4596  -6.1674   2.6005   2.8410   2.9087   3.5445

     occupation numbers 
     1.0000   1.0000   1.0000   1.0000   0.0000   0.0000   0.0000   0.0000

          k = 0.2500 0.2541 0.0000 (  2709 PWs)   bands (ev):

   -18.8947 -10.5348  -7.1301  -6.1523   2.3123   2.6034   3.1227   3.9214

     occupation numbers 
     1.0000   1.0000   1.0000   1.0000   0.0000   0.0000   0.0000   0.0000

          k = 0.2500 0.3176 0.0000 (  2700 PWs)   bands (ev):

   -18.5272 -11.1507  -6.7166  -6.4317   1.7221   2.4070   3.6719   4.4630

     occupation numbers 
     1.0000   1.0000   1.0000   1.0000   0.0000   0.0000   0.0000   0.0000

          k = 0.2500 0.3811 0.0000 (  2692 PWs)   bands (ev):

   -18.0915 -11.6895  -6.9647  -6.2284   1.1366   2.1523   4.3543   5.1332

     occupation numbers 
     1.0000   1.0000   1.0000   1.0000   0.0000   0.0000   0.0000   0.0000

          k = 0.2500 0.4447 0.0000 (  2712 PWs)   bands (ev):

   -17.6002 -12.1370  -7.6807  -5.6793   0.5798   1.8506   5.1586   5.9204

     occupation numbers 
     1.0000   1.0000   1.0000   1.0000   0.0000   0.0000   0.0000   0.0000

          k = 0.2500 0.5082 0.0000 (  2714 PWs)   bands (ev):

   -17.0740 -12.4760  -8.5052  -5.0885   0.0629   1.5456   6.0818   7.1373

     occupation numbers 
     1.0000   1.0000   1.0000   1.0000   0.0000   0.0000   0.0000   0.0000

          k = 0.2500-0.9528 0.0000 (  2723 PWs)   bands (ev):

   -16.5492 -12.6830  -9.3699  -4.4851  -0.4110   1.2778   7.1199   7.7128

     occupation numbers 
     1.0000   1.0000   1.0000   1.0000   0.0000   0.0000   0.0000   0.0000

          k = 0.2500-0.8893 0.0000 (  2739 PWs)   bands (ev):

   -16.0855 -12.7271 -10.2059  -3.9149  -0.8360   1.0732   8.1995   8.2626

     occupation numbers 
     1.0000   1.0000   1.0000   1.0000   0.0000   0.0000   0.0000   0.0000

          k = 0.2500-0.8258 0.0000 (  2742 PWs)   bands (ev):

   -15.7630 -12.6015 -10.9138  -3.4599  -1.1763   0.9460   8.0495   9.4708

     occupation numbers 
     1.0000   1.0000   1.0000   1.0000   0.0000   0.0000   0.0000   0.0000

          k = 0.2500-0.7623 0.0000 (  2732 PWs)   bands (ev):

   -15.6483 -12.4703 -11.2479  -3.2707  -1.3217   0.9032   7.9455   9.9439

     occupation numbers 
     1.0000   1.0000   1.0000   1.0002   0.0000   0.0000   0.0000   0.0000

          k = 0.2500-0.6987 0.0000 (  2742 PWs)   bands (ev):

   -15.7636 -12.5979 -10.9171  -3.4611  -1.1746   0.9465   8.0488   9.4708

     occupation numbers 
     1.0000   1.0000   1.0000   1.0000   0.0000   0.0000   0.0000   0.0000

          k = 0.2500-0.6352 0.0000 (  2739 PWs)   bands (ev):

   -16.0863 -12.7229 -10.2099  -3.9165  -0.8334   1.0740   8.1985   8.2627

     occupation numbers 
     1.0000   1.0000   1.0000   1.0000   0.0000   0.0000   0.0000   0.0000

          k = 0.2500-0.5717 0.0000 (  2723 PWs)   bands (ev):

   -16.5499 -12.6788  -9.3742  -4.4866  -0.4083   1.2791   7.1199   7.7125

     occupation numbers 
     1.0000   1.0000   1.0000   1.0000   0.0000   0.0000   0.0000   0.0000

          k = 0.2500-0.5082 0.0000 (  2714 PWs)   bands (ev):

   -17.0745 -12.4721  -8.5097  -5.0897   0.0656   1.5475   6.0818   6.8043

     occupation numbers 
     1.0000   1.0000   1.0000   1.0000   0.0000   0.0000   0.0000   0.0000

          k = 0.2500-0.4447 0.0000 (  2712 PWs)   bands (ev):

   -17.6005 -12.1333  -7.6854  -5.6803   0.5823   1.8531   5.1586   5.9194

     occupation numbers 
     1.0000   1.0000   1.0000   1.0000   0.0000   0.0000   0.0000   0.0000

          k = 0.2500-0.3811 0.0000 (  2692 PWs)   bands (ev):

   -18.0918 -11.6860  -6.9698  -6.2293   1.1388   2.1556   4.3543   5.1329

     occupation numbers 
     1.0000   1.0000   1.0000   1.0000   0.0000   0.0000   0.0000   0.0000

          k = 0.2500-0.3176 0.0000 (  2700 PWs)   bands (ev):

   -18.5273 -11.1471  -6.7172  -6.4370   1.7241   2.4110   3.6718   4.4631

     occupation numbers 
     1.0000   1.0000   1.0000   1.0000   0.0000   0.0000   0.0000   0.0000

          k = 0.2500-0.2541 0.0000 (  2709 PWs)   bands (ev):

   -18.8948 -10.5312  -7.1306  -6.1578   2.3139   2.6078   3.1227   3.9216

     occupation numbers 
     1.0000   1.0000   1.0000   1.0000   0.0000   0.0000   0.0000   0.0000

          k = 0.2917-0.2223 0.0000 (  2705 PWs)   bands (ev):

   -18.8226 -10.7725  -7.0597  -6.3104   2.1268   3.0539   3.3652   4.0187

     occupation numbers 
     1.0000   1.0000   1.0000   1.0000   0.0000   0.0000   0.0000   0.0000

          k = 0.2917-0.1588 0.0000 (  2703 PWs)   bands (ev):

   -19.0687 -10.0687  -7.3336  -6.6028   2.6701   2.7846   3.4922   3.6543

     occupation numbers 
     1.0000   1.0000   1.0000   1.0000   0.0000   0.0000   0.0000   0.0000

          k = 0.2917-0.0953 0.0000 (  2703 PWs)   bands (ev):

   -19.2350  -9.3239  -7.5194  -7.1216   2.5484   3.0841   3.4447   3.5173

     occupation numbers 
     1.0000   1.0000   1.0000   1.0000   0.0000   0.0000   0.0000   0.0000

          k = 0.2917-0.0318 0.0000 (  2689 PWs)   bands (ev):

   -19.3188  -8.5807  -7.7690  -7.6131   2.4270   3.1846   3.4287   3.4854

     occupation numbers 
     1.0000   1.0000   1.0000   1.0000   0.0000   0.0000   0.0000   0.0000

          k = 0.2917 0.0318 0.0000 (  2689 PWs)   bands (ev):

   -19.3188  -8.5843  -7.7650  -7.6131   2.4269   3.1847   3.4286   3.4849

     occupation numbers 
     1.0000   1.0000   1.0000   1.0000   0.0000   0.0000   0.0000   0.0000

          k = 0.2917 0.0953 0.0000 (  2703 PWs)   bands (ev):

   -19.2350  -9.3277  -7.5192  -7.1170   2.5482   3.0837   3.4439   3.5162

     occupation numbers 
     1.0000   1.0000   1.0000   1.0000   0.0000   0.0000   0.0000   0.0000

          k = 0.2917 0.1588 0.0000 (  2703 PWs)   bands (ev):

   -19.0686 -10.0723  -7.3332  -6.5978   2.6690   2.7842   3.4891   3.6540

     occupation numbers 
     1.0000   1.0000   1.0000   1.0000   0.0000   0.0000   0.0000   0.0000

          k = 0.2917 0.2223 0.0000 (  2705 PWs)   bands (ev):

   -18.8225 -10.7760  -7.0591  -6.3052   2.1252   3.0512   3.3633   4.0183

     occupation numbers 
     1.0000   1.0000   1.0000   1.0000   0.0000   0.0000   0.0000   0.0000

          k = 0.2917 0.2859 0.0000 (  2711 PWs)   bands (ev):

   -18.5016 -11.4168  -6.7034  -6.3058   1.5440   3.0036   3.7345   4.5108

     occupation numbers 
     1.0000   1.0000   1.0000   1.0000   0.0000   0.0000   0.0000   0.0000

          k = 0.2917 0.3494 0.0000 (  2712 PWs)   bands (ev):

   -18.1138 -11.9769  -6.6109  -6.2760   0.9750   2.8674   4.3435   5.1258

     occupation numbers 
     1.0000   1.0000   1.0000   1.0000   0.0000   0.0000   0.0000   0.0000

          k = 0.2917 0.4129 0.0000 (  2713 PWs)   bands (ev):

   -17.6726 -12.4385  -7.1734  -5.7919   0.4489   2.6771   5.0850   5.8580

     occupation numbers 
     1.0000   1.0000   1.0000   1.0000   0.0000   0.0000   0.0000   0.0000

          k = 0.2917 0.4764 0.0000 (  2713 PWs)   bands (ev):

   -17.2006 -12.7788  -7.9168  -5.2728  -0.0143   2.4385   5.9474   6.6966

     occupation numbers 
     1.0000   1.0000   1.0000   1.0000   0.0000   0.0000   0.0000   0.0000

          k = 0.2917-0.9846 0.0000 (  2724 PWs)   bands (ev):

   -16.7353 -12.9654  -8.7635  -4.7507  -0.4018   2.1947   6.9254   7.5976

     occupation numbers 
     1.0000   1.0000   1.0000   1.0000   0.0000   0.0000   0.0000   0.0000

          k = 0.2917-0.9211 0.0000 (  2735 PWs)   bands (ev):

   -16.3324 -12.9552  -9.6455  -4.2703  -0.7051   1.9856   8.0095   8.2272

     occupation numbers 
     1.0000   1.0000   1.0000   1.0000   0.0000   0.0000   0.0000   0.0000

          k = 0.2917-0.8576 0.0000 (  2743 PWs)   bands (ev):

   -16.0496 -12.7193 -10.4958  -3.8906  -0.9166   1.8360   8.0327   9.0831

     occupation numbers 
     1.0000   1.0000   1.0000   1.0000   0.0000   0.0000   0.0000   0.0000

          k = 0.2917-0.7940 0.0000 (  2746 PWs)   bands (ev):

   -15.9119 -12.3339 -11.1904  -3.6771  -1.0265   1.7585   7.7967   9.0503

     occupation numbers 
     1.0000   1.0000   1.0000   1.0000   0.0000   0.0000   0.0000   0.0000

          k = 0.2917-0.7305 0.0000 (  2746 PWs)   bands (ev):

   -15.9122 -12.3312 -11.1930  -3.6777  -1.0256   1.7588   7.7964   9.0503

     occupation numbers 
     1.0000   1.0000   1.0000   1.0000   0.0000   0.0000   0.0000   0.0000

          k = 0.2917-0.6670 0.0000 (  2743 PWs)   bands (ev):

   -16.0503 -12.7152 -10.4996  -3.8920  -0.9143   1.8367   8.0318   9.0828

     occupation numbers 
     1.0000   1.0000   1.0000   1.0000   0.0000   0.0000   0.0000   0.0000

          k = 0.2917-0.6035 0.0000 (  2735 PWs)   bands (ev):

   -16.3332 -12.9510  -9.6495  -4.2720  -0.7022   1.9869   8.0096   8.2263

     occupation numbers 
     1.0000   1.0000   1.0000   1.0000   0.0000   0.0000   0.0000   0.0000

          k = 0.2917-0.5399 0.0000 (  2724 PWs)   bands (ev):

   -16.7361 -12.9614  -8.7677  -4.7523  -0.3987   2.1967   6.9255   7.9939

     occupation numbers 
     1.0000   1.0000   1.0000   1.0000   0.0000   0.0000   0.0000   0.0000

          k = 0.2917-0.4764 0.0000 (  2713 PWs)   bands (ev):

   -17.2012 -12.7750  -7.9212  -5.2742  -0.0113   2.4412   5.9475   6.6966

     occupation numbers 
     1.0000   1.0000   1.0000   1.0000   0.0000   0.0000   0.0000   0.0000

          k = 0.2917-0.4129 0.0000 (  2713 PWs)   bands (ev):

   -17.6730 -12.4349  -7.1782  -5.7931   0.4516   2.6806   5.0850   5.8581

     occupation numbers 
     1.0000   1.0000   1.0000   1.0000   0.0000   0.0000   0.0000   0.0000

          k = 0.2917-0.3494 0.0000 (  2712 PWs)   bands (ev):

   -18.1141 -11.9734  -6.6159  -6.2770   0.9774   2.8716   4.3435   5.1259

     occupation numbers 
     1.0000   1.0000   1.0000   1.0000   0.0000   0.0000   0.0000   0.0000

          k = 0.2917-0.2859 0.0000 (  2711 PWs)   bands (ev):

   -18.5017 -11.4133  -6.7042  -6.3110   1.5460   3.0080   3.7344   4.5108

     occupation numbers 
     1.0000   1.0000   1.0000   1.0000   0.0000   0.0000   0.0000   0.0000

          k = 0.3333-0.2541 0.0000 (  2708 PWs)   bands (ev):

   -18.4208 -11.6433  -6.6268  -6.4290   1.3520   3.4312   3.9286   4.6379

     occupation numbers 
     1.0000   1.0000   1.0000   1.0000   0.0000   0.0000   0.0000   0.0000

          k = 0.3333-0.1906 0.0000 (  2711 PWs)   bands (ev):

   -18.6945 -10.9756  -6.9237  -6.7087   1.9155   3.2962   3.8472   4.1964

     occupation numbers 
     1.0000   1.0000   1.0000   1.0000   0.0000   0.0000   0.0000   0.0000

          k = 0.3333-0.1270 0.0000 (  2711 PWs)   bands (ev):

   -18.8948 -10.2444  -7.2303  -7.1424   2.4317   3.0319   3.8713   3.9446

     occupation numbers 
     1.0000   1.0000   1.0000   1.0000   0.0000   0.0000   0.0000   0.0000

          k = 0.3333-0.0635 0.0000 (  2704 PWs)   bands (ev):

   -19.0167  -9.4736  -7.9065  -7.2760   2.8223   2.8565   3.6585   3.8513

     occupation numbers 
     1.0000   1.0000   1.0000   1.0000   0.0000   0.0000   0.0000   0.0000

          k = 0.3333-0.0000 0.0000 (  2706 PWs)   bands (ev):

   -19.0576  -8.7981  -8.5559  -7.3208   2.7969   2.9800   3.5743   3.8024

     occupation numbers 
     1.0000   1.0000   1.0000   1.0000   0.0000   0.0000   0.0000   0.0000

          k = 0.3333 0.0635 0.0000 (  2704 PWs)   bands (ev):

   -19.0167  -9.4773  -7.9023  -7.2758   2.8217   2.8564   3.6583   3.8508

     occupation numbers 
     1.0000   1.0000   1.0000   1.0000   0.0000   0.0000   0.0000   0.0000

          k = 0.3333 0.1270 0.0000 (  2711 PWs)   bands (ev):

   -18.8947 -10.2478  -7.2259  -7.1420   2.4305   3.0317   3.8711   3.9433

     occupation numbers 
     1.0000   1.0000   1.0000   1.0000   0.0000   0.0000   0.0000   0.0000

          k = 0.3333 0.1906 0.0000 (  2711 PWs)   bands (ev):

   -18.6944 -10.9790  -6.9232  -6.7040   1.9138   3.2952   3.8446   4.1962

     occupation numbers 
     1.0000   1.0000   1.0000   1.0000   0.0000   0.0000   0.0000   0.0000

          k = 0.3333 0.2541 0.0000 (  2708 PWs)   bands (ev):

   -18.4206 -11.6467  -6.6260  -6.4241   1.3499   3.4274   3.9282   4.6378

     occupation numbers 
     1.0000   1.0000   1.0000   1.0000   0.0000   0.0000   0.0000   0.0000

          k = 0.3333 0.3176 0.0000 (  2718 PWs)   bands (ev):

   -18.0823 -12.2309  -6.4496  -6.2614   0.7961   3.3666   4.4261   5.1979

     occupation numbers 
     1.0000   1.0000   1.0000   1.0000   0.0000   0.0000   0.0000   0.0000

          k = 0.3333 0.3811 0.0000 (  2712 PWs)   bands (ev):

   -17.6942 -12.7110  -6.7855  -5.8457   0.2938   3.3050   5.0954   5.8754

     occupation numbers 
     1.0000   1.0000   1.0000   1.0000   0.0000   0.0000   0.0000   0.0000

          k = 0.3333 0.4447 0.0000 (  2711 PWs)   bands (ev):

   -17.2813 -13.0593  -7.3772  -5.4036  -0.1263   3.1965   5.8943   6.6636

     occupation numbers 
     1.0000   1.0000   1.0000   1.0000   0.0000   0.0000   0.0000   0.0000

          k = 0.3333-1.0164 0.0000 (  2716 PWs)   bands (ev):

   -16.8842 -13.2371  -8.1431  -4.9692  -0.4408   3.0330   6.8114   7.5381

     occupation numbers 
     1.0000   1.0000   1.0000   1.0000   0.0000   0.0000   0.0000   0.0000

          k = 0.3333-0.9528 0.0000 (  2724 PWs)   bands (ev):

   -16.5566 -13.1965  -9.0045  -4.5852  -0.6356   2.8558   7.8334   8.2729

     occupation numbers 
     1.0000   1.0000   1.0000   1.0000   0.0000   0.0000   0.0000   0.0000

          k = 0.3333-0.8893 0.0000 (  2737 PWs)   bands (ev):

   -16.3399 -12.9091  -9.8951  -4.2930  -0.7177   2.7055   8.0367   8.3932

     occupation numbers 
     1.0000   1.0000   1.0000   1.0000   0.0000   0.0000   0.0000   0.0000

          k = 0.3333-0.8258 0.0000 (  2733 PWs)   bands (ev):

   -16.2313 -12.4088 -10.7484  -4.1169  -0.7259   2.6075   7.6883   8.2269

     occupation numbers 
     1.0000   1.0000   1.0000   1.0000   0.0000   0.0000   0.0000   0.0000

          k = 0.3333-0.7623 0.0000 (  2738 PWs)   bands (ev):

   -16.2005 -11.9587 -11.3130  -4.0595  -0.7185   2.5738   7.5543   8.1681

     occupation numbers 
     1.0000   1.0000   1.0000   1.0000   0.0000   0.0000   0.0000   0.0000

          k = 0.3333-0.6987 0.0000 (  2733 PWs)   bands (ev):

   -16.2317 -12.4051 -10.7519  -4.1177  -0.7245   2.6081   7.6879   8.2269

     occupation numbers 
     1.0000   1.0000   1.0000   1.0000   0.0000   0.0000   0.0000   0.0000

          k = 0.3333-0.6352 0.0000 (  2737 PWs)   bands (ev):

   -16.3407 -12.9050  -9.8989  -4.2945  -0.7151   2.7068   8.0360   8.3929

     occupation numbers 
     1.0000   1.0000   1.0000   1.0000   0.0000   0.0000   0.0000   0.0000

          k = 0.3333-0.5717 0.0000 (  2724 PWs)   bands (ev):

   -16.5576 -13.1925  -9.0085  -4.5870  -0.6325   2.8578   7.8334   8.2725

     occupation numbers 
     1.0000   1.0000   1.0000   1.0000   0.0000   0.0000   0.0000   0.0000

          k = 0.3333-0.5082 0.0000 (  2716 PWs)   bands (ev):

   -16.8851 -13.2332  -8.1473  -4.9709  -0.4375   3.0358   6.8114   7.5379

     occupation numbers 
     1.0000   1.0000   1.0000   1.0000   0.0000   0.0000   0.0000   0.0000

          k = 0.3333-0.4447 0.0000 (  2711 PWs)   bands (ev):

   -17.2820 -13.0557  -7.3817  -5.4051  -0.1231   3.2001   5.8943   6.9462

     occupation numbers 
     1.0000   1.0000   1.0000   1.0000   0.0000   0.0000   0.0000   0.0000

          k = 0.3333-0.3811 0.0000 (  2712 PWs)   bands (ev):

   -17.6946 -12.7075  -6.7903  -5.8470   0.2967   3.3093   5.0953   5.8758

     occupation numbers 
     1.0000   1.0000   1.0000   1.0000   0.0000   0.0000   0.0000   0.0000

          k = 0.3333-0.3176 0.0000 (  2718 PWs)   bands (ev):

   -18.0826 -12.2276  -6.4545  -6.2624   0.7986   3.3711   4.4260   5.1979

     occupation numbers 
     1.0000   1.0000   1.0000   1.0000   0.0000   0.0000   0.0000   0.0000

          k = 0.3750-0.2859 0.0000 (  2722 PWs)   bands (ev):

   -17.9986 -12.4383  -6.5250  -6.1859   0.6176   3.7022   4.6122   5.6186

     occupation numbers 
     1.0000   1.0000   1.0000   1.0000   0.0000   0.0000   0.0000   0.0000

          k = 0.3750-0.2223 0.0000 (  2705 PWs)   bands (ev):

   -18.2859 -11.8291  -6.7838  -6.4861   1.1510   3.7463   4.2738   4.8441

     occupation numbers 
     1.0000   1.0000   1.0000   1.0000   0.0000   0.0000   0.0000   0.0000

          k = 0.3750-0.1588 0.0000 (  2709 PWs)   bands (ev):

   -18.5119 -11.1342  -7.2993  -6.7243   1.6826   3.5622   4.3303   4.4554

     occupation numbers 
     1.0000   1.0000   1.0000   1.0000   0.0000   0.0000   0.0000   0.0000

          k = 0.3750-0.0953 0.0000 (  2712 PWs)   bands (ev):

   -18.6667 -10.3755  -7.9847  -6.8888   2.1365   3.3526   4.1834   4.3172

     occupation numbers 
     1.0000   1.0000   1.0000   1.0000   0.0000   0.0000   0.0000   0.0000

          k = 0.3750-0.0318 0.0000 (  2714 PWs)   bands (ev):

   -18.7453  -9.5804  -8.7576  -6.9726   2.4111   3.2391   4.0366   4.2398

     occupation numbers 
     1.0000   1.0000   1.0000   1.0000   0.0000   0.0000   0.0000   0.0000

          k = 0.3750 0.0318 0.0000 (  2714 PWs)   bands (ev):

   -18.7453  -9.5839  -8.7538  -6.9725   2.4107   3.2390   4.0366   4.2397

     occupation numbers 
     1.0000   1.0000   1.0000   1.0000   0.0000   0.0000   0.0000   0.0000

          k = 0.3750 0.0953 0.0000 (  2712 PWs)   bands (ev):

   -18.6666 -10.3789  -7.9807  -6.8884   2.1354   3.3524   4.1834   4.3166

     occupation numbers 
     1.0000   1.0000   1.0000   1.0000   0.0000   0.0000   0.0000   0.0000

          k = 0.3750 0.1588 0.0000 (  2709 PWs)   bands (ev):

   -18.5117 -11.1375  -7.2950  -6.7237   1.6810   3.5616   4.3284   4.4553

     occupation numbers 
     1.0000   1.0000   1.0000   1.0000   0.0000   0.0000   0.0000   0.0000

          k = 0.3750 0.2223 0.0000 (  2705 PWs)   bands (ev):

   -18.2857 -11.8324  -6.7792  -6.4852   1.1489   3.7438   4.2726   4.8440

     occupation numbers 
     1.0000   1.0000   1.0000   1.0000   0.0000   0.0000   0.0000   0.0000

          k = 0.3750 0.2859 0.0000 (  2722 PWs)   bands (ev):

   -17.9983 -12.4416  -6.5203  -6.1848   0.6150   3.6982   4.6122   5.3493

     occupation numbers 
     1.0000   1.0000   1.0000   1.0000   0.0000   0.0000   0.0000   0.0000

          k = 0.3750 0.3494 0.0000 (  2720 PWs)   bands (ev):

   -17.6661 -12.9410  -6.5771  -5.8409   0.1350   3.6654   5.1956   5.9713

     occupation numbers 
     1.0000   1.0000   1.0000   1.0000   0.0000   0.0000   0.0000   0.0000

          k = 0.3750 0.4129 0.0000 (  2719 PWs)   bands (ev):

   -17.3176 -13.2984  -6.9460  -5.4805  -0.2484   3.6842   5.9229   6.7067

     occupation numbers 
     1.0000   1.0000   1.0000   1.0000   0.0000   0.0000   0.0000   0.0000

          k = 0.3750-1.0481 0.0000 (  2714 PWs)   bands (ev):

   -16.9970 -13.4692  -7.5645  -5.1396  -0.5012   3.6681   6.7736   7.5423

     occupation numbers 
     1.0000   1.0000   1.0000   1.0000   0.0000   0.0000   0.0000   0.0000

          k = 0.3750-0.9846 0.0000 (  2726 PWs)   bands (ev):

   -16.7556 -13.4050  -8.3474  -4.8569  -0.6042   3.5883   7.7116   8.0384

     occupation numbers 
     1.0000   1.0000   1.0000   1.0000   0.0000   0.0000   0.0000   0.0000

          k = 0.3750-0.9211 0.0000 (  2728 PWs)   bands (ev):

   -16.6189 -13.0871  -9.2165  -4.6584  -0.5709   3.4808   7.7123   7.8800

     occupation numbers 
     1.0000   1.0000   1.0000   1.0000   0.0000   0.0000   0.0000   0.0000

          k = 0.3750-0.8576 0.0000 (  2737 PWs)   bands (ev):

   -16.5645 -12.5515 -10.1080  -4.5443  -0.4627   3.3880   7.4901   7.4904

     occupation numbers 
     1.0000   1.0000   1.0000   1.0000   0.0000   0.0000   0.0000   0.0000

          k = 0.3750-0.7940 0.0000 (  2738 PWs)   bands (ev):

   -16.5507 -11.8817 -10.9496  -4.4956  -0.3722   3.3360   7.2620   7.3743

     occupation numbers 
     1.0000   1.0000   1.0000   1.0000   0.0000   0.0000   0.0000   0.0000

          k = 0.3750-0.7305 0.0000 (  2738 PWs)   bands (ev):

   -16.5509 -11.8784 -10.9529  -4.4960  -0.3715   3.3364   7.2620   7.3744

     occupation numbers 
     1.0000   1.0000   1.0000   1.0000   0.0000   0.0000   0.0000   0.0000

          k = 0.3750-0.6670 0.0000 (  2737 PWs)   bands (ev):

   -16.5650 -12.5478 -10.1117  -4.5453  -0.4608   3.3891   7.4900   7.4903

     occupation numbers 
     1.0000   1.0000   1.0000   1.0000   0.0000   0.0000   0.0000   0.0000

          k = 0.3750-0.6035 0.0000 (  2728 PWs)   bands (ev):

   -16.6197 -13.0832  -9.2204  -4.6599  -0.5681   3.4828   7.7123   7.8797

     occupation numbers 
     1.0000   1.0000   1.0000   1.0000   0.0000   0.0000   0.0000   0.0000

          k = 0.3750-0.5399 0.0000 (  2726 PWs)   bands (ev):

   -16.7565 -13.4011  -8.3515  -4.8587  -0.6009   3.5912   7.7113   8.0386

     occupation numbers 
     1.0000   1.0000   1.0000   1.0000   0.0000   0.0000   0.0000   0.0000

          k = 0.3750-0.4764 0.0000 (  2714 PWs)   bands (ev):

   -16.9979 -13.4654  -7.5688  -5.1414  -0.4978   3.6718   6.7736   7.5423

     occupation numbers 
     1.0000   1.0000   1.0000   1.0000   0.0000   0.0000   0.0000   0.0000

          k = 0.3750-0.4129 0.0000 (  2719 PWs)   bands (ev):

   -17.3184 -13.2948  -6.9506  -5.4821  -0.2452   3.6884   5.9228   6.7068

     occupation numbers 
     1.0000   1.0000   1.0000   1.0000   0.0000   0.0000   0.0000   0.0000

          k = 0.3750-0.3494 0.0000 (  2720 PWs)   bands (ev):

   -17.6666 -12.9375  -6.5818  -5.8423   0.1379   3.6698   5.1955   5.9714

     occupation numbers 
     1.0000   1.0000   1.0000   1.0000   0.0000   0.0000   0.0000   0.0000

          k = 0.4167-0.3176 0.0000 (  2717 PWs)   bands (ev):

   -17.5910 -13.1159  -6.5957  -5.7796  -0.0110   3.8830   5.3885   6.1457

     occupation numbers 
     1.0000   1.0000   1.0000   1.0000   0.0000   0.0000   0.0000   0.0000

          k = 0.4167-0.2541 0.0000 (  2719 PWs)   bands (ev):

   -17.8640 -12.5986  -6.8275  -6.0488   0.4428   3.9922   4.9039   5.5788

     occupation numbers 
     1.0000   1.0000   1.0000   1.0000   0.0000   0.0000   0.0000   0.0000

          k = 0.4167-0.1906 0.0000 (  2706 PWs)   bands (ev):

   -18.0991 -11.9653  -7.3300  -6.2836   0.9458   4.0359   4.7104   5.1279

     occupation numbers 
     1.0000   1.0000   1.0000   1.0000   0.0000   0.0000   0.0000   0.0000

          k = 0.4167-0.1270 0.0000 (  2716 PWs)   bands (ev):

   -18.2772 -11.2438  -8.0171  -6.4640   1.4256   3.8795   4.7527   4.7940

     occupation numbers 
     1.0000   1.0000   1.0000   1.0000   0.0000   0.0000   0.0000   0.0000

          k = 0.4167-0.0635 0.0000 (  2710 PWs)   bands (ev):

   -18.3875 -10.4585  -8.8063  -6.5766   1.7869   3.7335   4.5816   4.7093

     occupation numbers 
     1.0000   1.0000   1.0000   1.0000   0.0000   0.0000   0.0000   0.0000

          k = 0.4167-0.0000 0.0000 (  2710 PWs)   bands (ev):

   -18.4247  -9.6782  -9.5920  -6.6148   1.9244   3.6806   4.5071   4.6750

     occupation numbers 
     1.0000   1.0000   1.0000   1.0000   0.0000   0.0000   0.0000   0.0000

          k = 0.4167 0.0635 0.0000 (  2710 PWs)   bands (ev):

   -18.3874 -10.4619  -8.8025  -6.5763   1.7861   3.7333   4.5816   4.7087

     occupation numbers 
     1.0000   1.0000   1.0000   1.0000   0.0000   0.0000   0.0000   0.0000

          k = 0.4167 0.1270 0.0000 (  2716 PWs)   bands (ev):

   -18.2770 -11.2471  -8.0131  -6.4634   1.4241   3.8789   4.7513   4.7937

     occupation numbers 
     1.0000   1.0000   1.0000   1.0000   0.0000   0.0000   0.0000   0.0000

          k = 0.4167 0.1906 0.0000 (  2706 PWs)   bands (ev):

   -18.0989 -11.9685  -7.3257  -6.2828   0.9437   4.0341   4.7090   5.1279

     occupation numbers 
     1.0000   1.0000   1.0000   1.0000   0.0000   0.0000   0.0000   0.0000

          k = 0.4167 0.2541 0.0000 (  2719 PWs)   bands (ev):

   -17.8636 -12.6019  -6.8230  -6.0477   0.4402   3.9888   4.9036   5.5788

     occupation numbers 
     1.0000   1.0000   1.0000   1.0000   0.0000   0.0000   0.0000   0.0000

          k = 0.4167 0.3176 0.0000 (  2717 PWs)   bands (ev):

   -17.5905 -13.1193  -6.5911  -5.7781  -0.0140   3.8790   5.3885   6.1456

     occupation numbers 
     1.0000   1.0000   1.0000   1.0000   0.0000   0.0000   0.0000   0.0000

          k = 0.4167 0.3811 0.0000 (  2715 PWs)   bands (ev):

   -17.3118 -13.4835  -6.6829  -5.5038  -0.3623   3.8866   6.0369   7.0793

     occupation numbers 
     1.0000   1.0000   1.0000   1.0000   0.0000   0.0000   0.0000   0.0000

          k = 0.4167-1.0799 0.0000 (  2718 PWs)   bands (ev):

   -17.0754 -13.6450  -7.0846  -5.2614  -0.5607   3.9804   6.8069   7.5744

     occupation numbers 
     1.0000   1.0000   1.0000   1.0000   0.0000   0.0000   0.0000   0.0000

          k = 0.4167-1.0164 0.0000 (  2726 PWs)   bands (ev):

   -16.9277 -13.5583  -7.7263  -5.0834  -0.5869   4.0532   7.3573   7.7688

     occupation numbers 
     1.0000   1.0000   1.0000   1.0000   0.0000   0.0000   0.0000   0.0000

          k = 0.4167-0.9528 0.0000 (  2728 PWs)   bands (ev):

   -16.8774 -13.2188  -8.5207  -4.9814  -0.4582   4.0547   7.0971   7.5185

     occupation numbers 
     1.0000   1.0000   1.0000   1.0000   0.0000   0.0000   0.0000   0.0000

          k = 0.4167-0.8893 0.0000 (  2724 PWs)   bands (ev):

   -16.8880 -12.6714  -9.3913  -4.9400  -0.2426   4.0121   6.8416   7.1243

     occupation numbers 
     1.0000   1.0000   1.0000   1.0000   0.0000   0.0000   0.0000   0.0000

          k = 0.4167-0.8258 0.0000 (  2737 PWs)   bands (ev):

   -16.9137 -11.9768 -10.2773  -4.9308  -0.0437   3.9684   6.6785   6.8551

     occupation numbers 
     1.0000   1.0000   1.0000   1.0000   0.0000   0.0000   0.0000   0.0000

          k = 0.4167-0.7623 0.0000 (  2740 PWs)   bands (ev):

   -16.9255 -11.3049 -11.0125  -4.9307   0.0377   3.9512   6.6232   6.7566

     occupation numbers 
     1.0000   1.0000   1.0000   1.0000   0.0000   0.0000   0.0000   0.0000

          k = 0.4167-0.6987 0.0000 (  2737 PWs)   bands (ev):

   -16.9140 -11.9733 -10.2808  -4.9314  -0.0425   3.9693   6.6786   6.8551

     occupation numbers 
     1.0000   1.0000   1.0000   1.0000   0.0000   0.0000   0.0000   0.0000

          k = 0.4167-0.6352 0.0000 (  2724 PWs)   bands (ev):

   -16.8885 -12.6678  -9.3950  -4.9411  -0.2404   4.0139   6.8418   7.1242

     occupation numbers 
     1.0000   1.0000   1.0000   1.0000   0.0000   0.0000   0.0000   0.0000

          k = 0.4167-0.5717 0.0000 (  2728 PWs)   bands (ev):

   -16.8782 -13.2151  -8.5245  -4.9830  -0.4552   4.0575   7.0972   7.5184

     occupation numbers 
     1.0000   1.0000   1.0000   1.0000   0.0000   0.0000   0.0000   0.0000

          k = 0.4167-0.5082 0.0000 (  2726 PWs)   bands (ev):

   -16.9287 -13.5544  -7.7304  -5.0853  -0.5834   4.0568   7.3566   7.7692

     occupation numbers 
     1.0000   1.0000   1.0000   1.0000   0.0000   0.0000   0.0000   0.0000

          k = 0.4167-0.4447 0.0000 (  2718 PWs)   bands (ev):

   -17.0763 -13.6412  -7.0890  -5.2633  -0.5572   3.9846   6.8066   7.5723

     occupation numbers 
     1.0000   1.0000   1.0000   1.0000   0.0000   0.0000   0.0000   0.0000

          k = 0.4167-0.3811 0.0000 (  2715 PWs)   bands (ev):

   -17.3126 -13.4799  -6.6874  -5.5056  -0.3589   3.8908   6.0368   7.0795

     occupation numbers 
     1.0000   1.0000   1.0000   1.0000   0.0000   0.0000   0.0000   0.0000

          k = 0.4583-0.3494 0.0000 (  2715 PWs)   bands (ev):

   -17.2676 -13.6027  -6.6387  -5.4764  -0.4521   3.9851   6.2357   7.0232

     occupation numbers 
     1.0000   1.0000   1.0000   1.0000   0.0000   0.0000   0.0000   0.0000

          k = 0.4583-0.2859 0.0000 (  2729 PWs)   bands (ev):

   -17.4706 -13.2362  -6.8390  -5.6603  -0.1427   4.0925   5.6755   6.3963

     occupation numbers 
     1.0000   1.0000   1.0000   1.0000   0.0000   0.0000   0.0000   0.0000

          k = 0.4583-0.2223 0.0000 (  2718 PWs)   bands (ev):

   -17.6815 -12.7037  -7.3228  -5.8528   0.2762   4.2646   5.2957   5.8834

     occupation numbers 
     1.0000   1.0000   1.0000   1.0000   0.0000   0.0000   0.0000   0.0000

          k = 0.4583-0.1588 0.0000 (  2706 PWs)   bands (ev):

   -17.8632 -12.0482  -8.0059  -6.0223   0.7332   4.3053   5.1596   5.4855

     occupation numbers 
     1.0000   1.0000   1.0000   1.0000   0.0000   0.0000   0.0000   0.0000

          k = 0.4583-0.0953 0.0000 (  2700 PWs)   bands (ev):

   -17.9939 -11.3018  -8.8036  -6.1465   1.1378   4.2098   5.1379   5.2066

     occupation numbers 
     1.0000   1.0000   1.0000   1.0000   0.0000   0.0000   0.0000   0.0000

          k = 0.4583-0.0318 0.0000 (  2714 PWs)   bands (ev):

   -18.0617 -10.4915  -9.6494  -6.2117   1.3826   4.1316   5.0587   5.1061

     occupation numbers 
     1.0000   1.0000   1.0000   1.0000   0.0000   0.0000   0.0000   0.0000

          k = 0.4583 0.0318 0.0000 (  2714 PWs)   bands (ev):

   -18.0617 -10.4949  -9.6458  -6.2116   1.3821   4.1315   5.0588   5.1059

     occupation numbers 
     1.0000   1.0000   1.0000   1.0000   0.0000   0.0000   0.0000   0.0000

          k = 0.4583 0.0953 0.0000 (  2700 PWs)   bands (ev):

   -17.9937 -11.3051  -8.7998  -6.1460   1.1365   4.2091   5.1370   5.2066

     occupation numbers 
     1.0000   1.0000   1.0000   1.0000   0.0000   0.0000   0.0000   0.0000

          k = 0.4583 0.1588 0.0000 (  2706 PWs)   bands (ev):

   -17.8630 -12.0515  -8.0019  -6.0215   0.7312   4.3036   5.1585   5.4855

     occupation numbers 
     1.0000   1.0000   1.0000   1.0000   0.0000   0.0000   0.0000   0.0000

          k = 0.4583 0.2223 0.0000 (  2718 PWs)   bands (ev):

   -17.6811 -12.7070  -7.3186  -5.8516   0.2737   4.2615   5.2953   5.8833

     occupation numbers 
     1.0000   1.0000   1.0000   1.0000   0.0000   0.0000   0.0000   0.0000

          k = 0.4583 0.2859 0.0000 (  2729 PWs)   bands (ev):

   -17.4700 -13.2397  -6.8346  -5.6588  -0.1458   4.0889   5.6755   6.3963

     occupation numbers 
     1.0000   1.0000   1.0000   1.0000   0.0000   0.0000   0.0000   0.0000

          k = 0.4583 0.3494 0.0000 (  2715 PWs)   bands (ev):

   -17.2667 -13.6064  -6.6343  -5.4745  -0.4555   3.9813   6.2359   7.0231

     occupation numbers 
     1.0000   1.0000   1.0000   1.0000   0.0000   0.0000   0.0000   0.0000

          k = 0.4583-1.1116 0.0000 (  2724 PWs)   bands (ev):

   -17.1214 -13.7543  -6.7628  -5.3346  -0.6030   4.0293   6.9036   7.4120

     occupation numbers 
     1.0000   1.0000   1.0000   1.0000   0.0000   0.0000   0.0000   0.0000

          k = 0.4583-1.0481 0.0000 (  2730 PWs)   bands (ev):

   -17.0718 -13.6452  -7.1957  -5.2630  -0.5642   4.1824   6.8901   7.7448

     occupation numbers 
     1.0000   1.0000   1.0000   1.0000   0.0000   0.0000   0.0000   0.0000

          k = 0.4583-0.9846 0.0000 (  2713 PWs)   bands (ev):

   -17.1090 -13.2905  -7.8559  -5.2579  -0.3598   4.3206   6.5425   7.1026

     occupation numbers 
     1.0000   1.0000   1.0000   1.0000   0.0000   0.0000   0.0000   0.0000

          k = 0.4583-0.9211 0.0000 (  2726 PWs)   bands (ev):

   -17.1876 -12.7416  -8.6564  -5.2939  -0.0562   4.3758   6.2726   6.6832

     occupation numbers 
     1.0000   1.0000   1.0000   1.0000   0.0000   0.0000   0.0000   0.0000

          k = 0.4583-0.8576 0.0000 (  2726 PWs)   bands (ev):

   -17.2627 -12.0527  -9.5233  -5.3386   0.2478   4.3703   6.0892   6.3790

     occupation numbers 
     1.0000   1.0000   1.0000   1.0000   0.0000   0.0000   0.0000   0.0000

          k = 0.4583-0.7940 0.0000 (  2722 PWs)   bands (ev):

   -17.3065 -11.2702 -10.3980  -5.3673   0.4411   4.3531   5.9961   6.2131

     occupation numbers 
     1.0000   1.0000   1.0000   1.0000   0.0000   0.0000   0.0000   0.0000

          k = 0.4583-0.7305 0.0000 (  2722 PWs)   bands (ev):

   -17.3066 -11.2668 -10.4014  -5.3676   0.4416   4.3535   5.9962   6.2131

     occupation numbers 
     1.0000   1.0000   1.0000   1.0000   0.0000   0.0000   0.0000   0.0000

          k = 0.4583-0.6670 0.0000 (  2726 PWs)   bands (ev):

   -17.2630 -12.0493  -9.5269  -5.3393   0.2494   4.3717   6.0895   6.3789

     occupation numbers 
     1.0000   1.0000   1.0000   1.0000   0.0000   0.0000   0.0000   0.0000

          k = 0.4583-0.6035 0.0000 (  2726 PWs)   bands (ev):

   -17.1881 -12.7381  -8.6602  -5.2950  -0.0538   4.3783   6.2729   6.6832

     occupation numbers 
     1.0000   1.0000   1.0000   1.0000   0.0000   0.0000   0.0000   0.0000

          k = 0.4583-0.5399 0.0000 (  2713 PWs)   bands (ev):

   -17.1098 -13.2869  -7.8599  -5.2595  -0.3567   4.3240   6.5425   7.1026

     occupation numbers 
     1.0000   1.0000   1.0000   1.0000   0.0000   0.0000   0.0000   0.0000

          k = 0.4583-0.4764 0.0000 (  2730 PWs)   bands (ev):

   -17.0727 -13.6414  -7.2000  -5.2649  -0.5607   4.1863   6.8896   7.7448

     occupation numbers 
     1.0000   1.0000   1.0000   1.0000   0.0000   0.0000   0.0000   0.0000

          k = 0.4583-0.4129 0.0000 (  2724 PWs)   bands (ev):

   -17.1224 -13.7505  -6.7673  -5.3365  -0.5994   4.0333   6.9031   7.4118

     occupation numbers 
     1.0000   1.0000   1.0000   1.0000   0.0000   0.0000   0.0000   0.0000

          k =-0.5000 0.3811 0.0000 (  2720 PWs)   bands (ev):

   -17.1375 -13.7875  -6.6534  -5.3608  -0.6145   4.0180   6.9855   7.2973

     occupation numbers 
     1.0000   1.0000   1.0000   1.0000   0.0000   0.0000   0.0000   0.0000

          k =-0.5000 0.4447 0.0000 (  2727 PWs)   bands (ev):

   -17.1866 -13.6576  -6.8185  -5.3957  -0.5192   4.1011   6.5182   7.2936

     occupation numbers 
     1.0000   1.0000   1.0000   1.0000   0.0000   0.0000   0.0000   0.0000

          k =-0.5000 0.5082 0.0000 (  2729 PWs)   bands (ev):

   -17.3088 -13.2940  -7.2789  -5.4862  -0.2563   4.2871   6.0614   6.7189

     occupation numbers 
     1.0000   1.0000   1.0000   1.0000   0.0000   0.0000   0.0000   0.0000

          k =-0.5000 0.5717 0.0000 (  2711 PWs)   bands (ev):

   -17.4546 -12.7506  -7.9528  -5.6004   0.1139   4.4360   5.7611   6.2564

     occupation numbers 
     1.0000   1.0000   1.0000   1.0000   0.0000   0.0000   0.0000   0.0000

          k =-0.5000 0.6352 0.0000 (  2724 PWs)   bands (ev):

   -17.5825 -12.0762  -8.7542  -5.7057   0.5048   4.4659   5.6007   5.9087

     occupation numbers 
     1.0000   1.0000   1.0000   1.0000   0.0000   0.0000   0.0000   0.0000

          k =-0.5000 0.6987 0.0000 (  2718 PWs)   bands (ev):

   -17.6675 -11.3077  -9.6125  -5.7780   0.8110   4.4310   5.5190   5.6855

     occupation numbers 
     1.0000   1.0000   1.0000   1.0000   0.0000   0.0000   0.0000   0.0000

          k =-0.5000 0.7623 0.0000 (  2706 PWs)   bands (ev):

   -17.6971 -10.5132 -10.4390  -5.8035   0.9285   4.4102   5.4911   5.6067

     occupation numbers 
     1.0000   1.0000   1.0000   1.0000   0.0000   0.0000   0.0000   0.0000

          k =-0.5000 0.8258 0.0000 (  2718 PWs)   bands (ev):

   -17.6674 -11.3110  -9.6090  -5.7776   0.8100   4.4303   5.5185   5.6854

     occupation numbers 
     1.0000   1.0000   1.0000   1.0000   0.0000   0.0000   0.0000   0.0000

          k =-0.5000 0.8893 0.0000 (  2724 PWs)   bands (ev):

   -17.5822 -12.0795  -8.7504  -5.7049   0.5029   4.4642   5.6000   5.9087

     occupation numbers 
     1.0000   1.0000   1.0000   1.0000   0.0000   0.0000   0.0000   0.0000

          k =-0.5000 0.9528 0.0000 (  2711 PWs)   bands (ev):

   -17.4541 -12.7540  -7.9489  -5.5992   0.1113   4.4331   5.7607   6.2565

     occupation numbers 
     1.0000   1.0000   1.0000   1.0000   0.0000   0.0000   0.0000   0.0000

          k =-0.5000 1.0164 0.0000 (  2729 PWs)   bands (ev):

   -17.3081 -13.2976  -7.2747  -5.4846  -0.2594   4.2835   6.0614   6.7189

     occupation numbers 
     1.0000   1.0000   1.0000   1.0000   0.0000   0.0000   0.0000   0.0000

          k =-0.5000 1.0799 0.0000 (  2727 PWs)   bands (ev):

   -17.1857 -13.6613  -6.8141  -5.3938  -0.5227   4.0973   6.5186   7.2937

     occupation numbers 
     1.0000   1.0000   1.0000   1.0000   0.0000   0.0000   0.0000   0.0000

          k =-0.5000-0.3811 0.0000 (  2720 PWs)   bands (ev):

   -17.1365 -13.7913  -6.6489  -5.3588  -0.6181   4.0142   6.9864   7.2967

     occupation numbers 
     1.0000   1.0000   1.0000   1.0000   0.0000   0.0000   0.0000   0.0000

          k =-0.5000-0.3176 0.0000 (  2727 PWs)   bands (ev):

   -17.1857 -13.6613  -6.8141  -5.3938  -0.5227   4.0973   6.5185   7.2935

     occupation numbers 
     1.0000   1.0000   1.0000   1.0000   0.0000   0.0000   0.0000   0.0000

          k =-0.5000-0.2541 0.0000 (  2729 PWs)   bands (ev):

   -17.3081 -13.2976  -7.2747  -5.4846  -0.2594   4.2835   6.0614   6.7190

     occupation numbers 
     1.0000   1.0000   1.0000   1.0000   0.0000   0.0000   0.0000   0.0000

          k =-0.5000-0.1906 0.0000 (  2711 PWs)   bands (ev):

   -17.4541 -12.7540  -7.9489  -5.5992   0.1113   4.4331   5.7607   6.2565

     occupation numbers 
     1.0000   1.0000   1.0000   1.0000   0.0000   0.0000   0.0000   0.0000

          k =-0.5000-0.1270 0.0000 (  2724 PWs)   bands (ev):

   -17.5822 -12.0795  -8.7504  -5.7049   0.5029   4.4642   5.6000   5.9086

     occupation numbers 
     1.0000   1.0000   1.0000   1.0000   0.0000   0.0000   0.0000   0.0000

          k =-0.5000-0.0635 0.0000 (  2718 PWs)   bands (ev):

   -17.6674 -11.3110  -9.6090  -5.7776   0.8100   4.4303   5.5186   5.6854

     occupation numbers 
     1.0000   1.0000   1.0000   1.0000   0.0000   0.0000   0.0000   0.0000

          k =-0.5000 0.0000 0.0000 (  2706 PWs)   bands (ev):

   -17.6971 -10.5132 -10.4390  -5.8035   0.9285   4.4102   5.4911   5.6067

     occupation numbers 
     1.0000   1.0000   1.0000   1.0000   0.0000   0.0000   0.0000   0.0000

          k =-0.5000 0.0635 0.0000 (  2718 PWs)   bands (ev):

   -17.6675 -11.3077  -9.6125  -5.7780   0.8110   4.4310   5.5190   5.6854

     occupation numbers 
     1.0000   1.0000   1.0000   1.0000   0.0000   0.0000   0.0000   0.0000

          k =-0.5000 0.1270 0.0000 (  2724 PWs)   bands (ev):

   -17.5825 -12.0762  -8.7542  -5.7057   0.5048   4.4659   5.6007   5.9087

     occupation numbers 
     1.0000   1.0000   1.0000   1.0000   0.0000   0.0000   0.0000   0.0000

          k =-0.5000 0.1906 0.0000 (  2711 PWs)   bands (ev):

   -17.4546 -12.7506  -7.9528  -5.6004   0.1139   4.4360   5.7611   6.2565

     occupation numbers 
     1.0000   1.0000   1.0000   1.0000   0.0000   0.0000   0.0000   0.0000

          k =-0.5000 0.2541 0.0000 (  2729 PWs)   bands (ev):

   -17.3088 -13.2940  -7.2789  -5.4862  -0.2563   4.2871   6.0614   6.7189

     occupation numbers 
     1.0000   1.0000   1.0000   1.0000   0.0000   0.0000   0.0000   0.0000

          k =-0.5000 0.3176 0.0000 (  2727 PWs)   bands (ev):

   -17.1866 -13.6576  -6.8185  -5.3957  -0.5192   4.1011   6.5183   7.2937

     occupation numbers 
     1.0000   1.0000   1.0000   1.0000   0.0000   0.0000   0.0000   0.0000

          k =-0.4583 0.3494 0.0000 (  2715 PWs)   bands (ev):

   -17.2676 -13.6027  -6.6387  -5.4764  -0.4521   3.9851   6.2357   7.0231

     occupation numbers 
     1.0000   1.0000   1.0000   1.0000   0.0000   0.0000   0.0000   0.0000

          k =-0.4583 0.4129 0.0000 (  2724 PWs)   bands (ev):

   -17.1224 -13.7505  -6.7673  -5.3365  -0.5994   4.0333   6.9031   7.4118

     occupation numbers 
     1.0000   1.0000   1.0000   1.0000   0.0000   0.0000   0.0000   0.0000

          k =-0.4583 0.4764 0.0000 (  2730 PWs)   bands (ev):

   -17.0727 -13.6414  -7.2000  -5.2649  -0.5607   4.1863   6.8896   7.7444

     occupation numbers 
     1.0000   1.0000   1.0000   1.0000   0.0000   0.0000   0.0000   0.0000

          k =-0.4583 0.5399 0.0000 (  2713 PWs)   bands (ev):

   -17.1098 -13.2869  -7.8599  -5.2595  -0.3567   4.3240   6.5425   7.1026

     occupation numbers 
     1.0000   1.0000   1.0000   1.0000   0.0000   0.0000   0.0000   0.0000

          k =-0.4583 0.6035 0.0000 (  2726 PWs)   bands (ev):

   -17.1881 -12.7381  -8.6602  -5.2950  -0.0538   4.3783   6.2728   6.6828

     occupation numbers 
     1.0000   1.0000   1.0000   1.0000   0.0000   0.0000   0.0000   0.0000

          k =-0.4583 0.6670 0.0000 (  2726 PWs)   bands (ev):

   -17.2630 -12.0493  -9.5269  -5.3393   0.2494   4.3717   6.0895   6.3791

     occupation numbers 
     1.0000   1.0000   1.0000   1.0000   0.0000   0.0000   0.0000   0.0000

          k =-0.4583 0.7305 0.0000 (  2722 PWs)   bands (ev):

   -17.3066 -11.2668 -10.4014  -5.3676   0.4416   4.3535   5.9963   6.2132

     occupation numbers 
     1.0000   1.0000   1.0000   1.0000   0.0000   0.0000   0.0000   0.0000

          k =-0.4583 0.7940 0.0000 (  2722 PWs)   bands (ev):

   -17.3065 -11.2702 -10.3980  -5.3673   0.4411   4.3531   5.9962   6.2131

     occupation numbers 
     1.0000   1.0000   1.0000   1.0000   0.0000   0.0000   0.0000   0.0000

          k =-0.4583 0.8576 0.0000 (  2726 PWs)   bands (ev):

   -17.2627 -12.0527  -9.5233  -5.3386   0.2478   4.3703   6.0892   6.3789

     occupation numbers 
     1.0000   1.0000   1.0000   1.0000   0.0000   0.0000   0.0000   0.0000

          k =-0.4583 0.9211 0.0000 (  2726 PWs)   bands (ev):

   -17.1876 -12.7416  -8.6564  -5.2939  -0.0562   4.3758   6.2726   6.6830

     occupation numbers 
     1.0000   1.0000   1.0000   1.0000   0.0000   0.0000   0.0000   0.0000

          k =-0.4583 0.9846 0.0000 (  2713 PWs)   bands (ev):

   -17.1090 -13.2905  -7.8559  -5.2579  -0.3598   4.3206   6.5425   7.1027

     occupation numbers 
     1.0000   1.0000   1.0000   1.0000   0.0000   0.0000   0.0000   0.0000

          k =-0.4583 1.0481 0.0000 (  2730 PWs)   bands (ev):

   -17.0718 -13.6452  -7.1957  -5.2630  -0.5642   4.1824   6.8901   7.7440

     occupation numbers 
     1.0000   1.0000   1.0000   1.0000   0.0000   0.0000   0.0000   0.0000

          k =-0.4583-0.4129 0.0000 (  2724 PWs)   bands (ev):

   -17.1214 -13.7543  -6.7628  -5.3346  -0.6030   4.0293   6.9036   7.4120

     occupation numbers 
     1.0000   1.0000   1.0000   1.0000   0.0000   0.0000   0.0000   0.0000

          k =-0.4583-0.3494 0.0000 (  2715 PWs)   bands (ev):

   -17.2667 -13.6064  -6.6343  -5.4745  -0.4555   3.9813   6.2359   7.0231

     occupation numbers 
     1.0000   1.0000   1.0000   1.0000   0.0000   0.0000   0.0000   0.0000

          k =-0.4583-0.2859 0.0000 (  2729 PWs)   bands (ev):

   -17.4700 -13.2397  -6.8346  -5.6588  -0.1458   4.0889   5.6755   6.3963

     occupation numbers 
     1.0000   1.0000   1.0000   1.0000   0.0000   0.0000   0.0000   0.0000

          k =-0.4583-0.2223 0.0000 (  2718 PWs)   bands (ev):

   -17.6811 -12.7070  -7.3186  -5.8516   0.2737   4.2615   5.2953   5.8833

     occupation numbers 
     1.0000   1.0000   1.0000   1.0000   0.0000   0.0000   0.0000   0.0000

          k =-0.4583-0.1588 0.0000 (  2706 PWs)   bands (ev):

   -17.8630 -12.0515  -8.0019  -6.0215   0.7312   4.3036   5.1585   5.4856

     occupation numbers 
     1.0000   1.0000   1.0000   1.0000   0.0000   0.0000   0.0000   0.0000

          k =-0.4583-0.0953 0.0000 (  2700 PWs)   bands (ev):

   -17.9937 -11.3051  -8.7998  -6.1460   1.1365   4.2091   5.1370   5.2066

     occupation numbers 
     1.0000   1.0000   1.0000   1.0000   0.0000   0.0000   0.0000   0.0000

          k =-0.4583-0.0318 0.0000 (  2714 PWs)   bands (ev):

   -18.0617 -10.4949  -9.6458  -6.2116   1.3821   4.1315   5.0587   5.1058

     occupation numbers 
     1.0000   1.0000   1.0000   1.0000   0.0000   0.0000   0.0000   0.0000

          k =-0.4583 0.0318 0.0000 (  2714 PWs)   bands (ev):

   -18.0617 -10.4915  -9.6494  -6.2117   1.3826   4.1316   5.0587   5.1061

     occupation numbers 
     1.0000   1.0000   1.0000   1.0000   0.0000   0.0000   0.0000   0.0000

          k =-0.4583 0.0953 0.0000 (  2700 PWs)   bands (ev):

   -17.9939 -11.3018  -8.8036  -6.1465   1.1378   4.2098   5.1379   5.2066

     occupation numbers 
     1.0000   1.0000   1.0000   1.0000   0.0000   0.0000   0.0000   0.0000

          k =-0.4583 0.1588 0.0000 (  2706 PWs)   bands (ev):

   -17.8632 -12.0482  -8.0059  -6.0223   0.7332   4.3053   5.1596   5.4856

     occupation numbers 
     1.0000   1.0000   1.0000   1.0000   0.0000   0.0000   0.0000   0.0000

          k =-0.4583 0.2223 0.0000 (  2718 PWs)   bands (ev):

   -17.6815 -12.7037  -7.3228  -5.8528   0.2762   4.2646   5.2957   5.8834

     occupation numbers 
     1.0000   1.0000   1.0000   1.0000   0.0000   0.0000   0.0000   0.0000

          k =-0.4583 0.2859 0.0000 (  2729 PWs)   bands (ev):

   -17.4706 -13.2362  -6.8390  -5.6603  -0.1427   4.0925   5.6755   6.3963

     occupation numbers 
     1.0000   1.0000   1.0000   1.0000   0.0000   0.0000   0.0000   0.0000

          k =-0.4167 0.3176 0.0000 (  2717 PWs)   bands (ev):

   -17.5910 -13.1159  -6.5957  -5.7796  -0.0109   3.8830   5.3885   6.4145

     occupation numbers 
     1.0000   1.0000   1.0000   1.0000   0.0000   0.0000   0.0000   0.0000

          k =-0.4167 0.3811 0.0000 (  2715 PWs)   bands (ev):

   -17.3126 -13.4799  -6.6874  -5.5056  -0.3589   3.8908   6.0367   6.8267

     occupation numbers 
     1.0000   1.0000   1.0000   1.0000   0.0000   0.0000   0.0000   0.0000

          k =-0.4167 0.4447 0.0000 (  2718 PWs)   bands (ev):

   -17.0763 -13.6412  -7.0890  -5.2633  -0.5572   3.9846   6.8066   7.5723

     occupation numbers 
     1.0000   1.0000   1.0000   1.0000   0.0000   0.0000   0.0000   0.0000

          k =-0.4167 0.5082 0.0000 (  2726 PWs)   bands (ev):

   -16.9287 -13.5544  -7.7304  -5.0853  -0.5834   4.0568   7.3565   7.7693

     occupation numbers 
     1.0000   1.0000   1.0000   1.0000   0.0000   0.0000   0.0000   0.0000

          k =-0.4167 0.5717 0.0000 (  2728 PWs)   bands (ev):

   -16.8782 -13.2151  -8.5245  -4.9830  -0.4552   4.0575   7.0972   7.5184

     occupation numbers 
     1.0000   1.0000   1.0000   1.0000   0.0000   0.0000   0.0000   0.0000

          k =-0.4167 0.6352 0.0000 (  2724 PWs)   bands (ev):

   -16.8885 -12.6678  -9.3950  -4.9411  -0.2404   4.0139   6.8418   7.1242

     occupation numbers 
     1.0000   1.0000   1.0000   1.0000   0.0000   0.0000   0.0000   0.0000

          k =-0.4167 0.6987 0.0000 (  2737 PWs)   bands (ev):

   -16.9140 -11.9733 -10.2808  -4.9314  -0.0425   3.9693   6.6787   6.8551

     occupation numbers 
     1.0000   1.0000   1.0000   1.0000   0.0000   0.0000   0.0000   0.0000

          k =-0.4167 0.7623 0.0000 (  2740 PWs)   bands (ev):

   -16.9255 -11.3049 -11.0125  -4.9307   0.0377   3.9512   6.6232   6.7566

     occupation numbers 
     1.0000   1.0000   1.0000   1.0000   0.0000   0.0000   0.0000   0.0000

          k =-0.4167 0.8258 0.0000 (  2737 PWs)   bands (ev):

   -16.9137 -11.9768 -10.2773  -4.9308  -0.0437   3.9684   6.6785   6.8552

     occupation numbers 
     1.0000   1.0000   1.0000   1.0000   0.0000   0.0000   0.0000   0.0000

          k =-0.4167 0.8893 0.0000 (  2724 PWs)   bands (ev):

   -16.8880 -12.6714  -9.3913  -4.9400  -0.2426   4.0121   6.8416   7.1243

     occupation numbers 
     1.0000   1.0000   1.0000   1.0000   0.0000   0.0000   0.0000   0.0000

          k =-0.4167 0.9528 0.0000 (  2728 PWs)   bands (ev):

   -16.8774 -13.2188  -8.5207  -4.9814  -0.4582   4.0547   7.0971   7.5184

     occupation numbers 
     1.0000   1.0000   1.0000   1.0000   0.0000   0.0000   0.0000   0.0000

          k =-0.4167 1.0164 0.0000 (  2726 PWs)   bands (ev):

   -16.9277 -13.5583  -7.7263  -5.0834  -0.5869   4.0532   7.3573   7.7688

     occupation numbers 
     1.0000   1.0000   1.0000   1.0000   0.0000   0.0000   0.0000   0.0000

          k =-0.4167-0.4447 0.0000 (  2718 PWs)   bands (ev):

   -17.0754 -13.6450  -7.0846  -5.2614  -0.5607   3.9804   6.8069   7.5744

     occupation numbers 
     1.0000   1.0000   1.0000   1.0000   0.0000   0.0000   0.0000   0.0000

          k =-0.4167-0.3811 0.0000 (  2715 PWs)   bands (ev):

   -17.3118 -13.4835  -6.6829  -5.5038  -0.3623   3.8866   6.0369   6.8267

     occupation numbers 
     1.0000   1.0000   1.0000   1.0000   0.0000   0.0000   0.0000   0.0000

          k =-0.4167-0.3176 0.0000 (  2717 PWs)   bands (ev):

   -17.5905 -13.1193  -6.5911  -5.7781  -0.0140   3.8790   5.3885   6.1456

     occupation numbers 
     1.0000   1.0000   1.0000   1.0000   0.0000   0.0000   0.0000   0.0000

          k =-0.4167-0.2541 0.0000 (  2719 PWs)   bands (ev):

   -17.8636 -12.6019  -6.8230  -6.0477   0.4402   3.9888   4.9037   5.5788

     occupation numbers 
     1.0000   1.0000   1.0000   1.0000   0.0000   0.0000   0.0000   0.0000

          k =-0.4167-0.1906 0.0000 (  2706 PWs)   bands (ev):

   -18.0989 -11.9685  -7.3257  -6.2828   0.9437   4.0341   4.7090   5.1279

     occupation numbers 
     1.0000   1.0000   1.0000   1.0000   0.0000   0.0000   0.0000   0.0000

          k =-0.4167-0.1270 0.0000 (  2716 PWs)   bands (ev):

   -18.2770 -11.2471  -8.0131  -6.4634   1.4241   3.8789   4.7514   4.7940

     occupation numbers 
     1.0000   1.0000   1.0000   1.0000   0.0000   0.0000   0.0000   0.0000

          k =-0.4167-0.0635 0.0000 (  2710 PWs)   bands (ev):

   -18.3874 -10.4619  -8.8025  -6.5763   1.7861   3.7333   4.5816   4.7088

     occupation numbers 
     1.0000   1.0000   1.0000   1.0000   0.0000   0.0000   0.0000   0.0000

          k =-0.4167 0.0000 0.0000 (  2710 PWs)   bands (ev):

   -18.4247  -9.6782  -9.5920  -6.6148   1.9244   3.6806   4.5071   4.6750

     occupation numbers 
     1.0000   1.0000   1.0000   1.0000   0.0000   0.0000   0.0000   0.0000

          k =-0.4167 0.0635 0.0000 (  2710 PWs)   bands (ev):

   -18.3875 -10.4585  -8.8063  -6.5766   1.7869   3.7335   4.5816   4.7091

     occupation numbers 
     1.0000   1.0000   1.0000   1.0000   0.0000   0.0000   0.0000   0.0000

          k =-0.4167 0.1270 0.0000 (  2716 PWs)   bands (ev):

   -18.2772 -11.2438  -8.0171  -6.4640   1.4256   3.8795   4.7526   4.7937

     occupation numbers 
     1.0000   1.0000   1.0000   1.0000   0.0000   0.0000   0.0000   0.0000

          k =-0.4167 0.1906 0.0000 (  2706 PWs)   bands (ev):

   -18.0991 -11.9653  -7.3300  -6.2836   0.9458   4.0359   4.7104   5.1279

     occupation numbers 
     1.0000   1.0000   1.0000   1.0000   0.0000   0.0000   0.0000   0.0000

          k =-0.4167 0.2541 0.0000 (  2719 PWs)   bands (ev):

   -17.8640 -12.5986  -6.8275  -6.0488   0.4428   3.9922   4.9039   5.5788

     occupation numbers 
     1.0000   1.0000   1.0000   1.0000   0.0000   0.0000   0.0000   0.0000

          k =-0.3750 0.2859 0.0000 (  2722 PWs)   bands (ev):

   -17.9986 -12.4383  -6.5250  -6.1859   0.6176   3.7022   4.6122   5.6197

     occupation numbers 
     1.0000   1.0000   1.0000   1.0000   0.0000   0.0000   0.0000   0.0000

          k =-0.3750 0.3494 0.0000 (  2720 PWs)   bands (ev):

   -17.6666 -12.9375  -6.5818  -5.8423   0.1379   3.6698   5.1955   5.9714

     occupation numbers 
     1.0000   1.0000   1.0000   1.0000   0.0000   0.0000   0.0000   0.0000

          k =-0.3750 0.4129 0.0000 (  2719 PWs)   bands (ev):

   -17.3184 -13.2948  -6.9506  -5.4821  -0.2452   3.6884   5.9228   6.7067

     occupation numbers 
     1.0000   1.0000   1.0000   1.0000   0.0000   0.0000   0.0000   0.0000

          k =-0.3750 0.4764 0.0000 (  2714 PWs)   bands (ev):

   -16.9979 -13.4654  -7.5688  -5.1414  -0.4978   3.6718   6.7736   7.5424

     occupation numbers 
     1.0000   1.0000   1.0000   1.0000   0.0000   0.0000   0.0000   0.0000

          k =-0.3750 0.5399 0.0000 (  2726 PWs)   bands (ev):

   -16.7565 -13.4011  -8.3515  -4.8587  -0.6009   3.5912   7.7113   8.0386

     occupation numbers 
     1.0000   1.0000   1.0000   1.0000   0.0000   0.0000   0.0000   0.0000

          k =-0.3750 0.6035 0.0000 (  2728 PWs)   bands (ev):

   -16.6197 -13.0832  -9.2204  -4.6599  -0.5681   3.4828   7.7123   7.8797

     occupation numbers 
     1.0000   1.0000   1.0000   1.0000   0.0000   0.0000   0.0000   0.0000

          k =-0.3750 0.6670 0.0000 (  2737 PWs)   bands (ev):

   -16.5650 -12.5478 -10.1117  -4.5453  -0.4608   3.3891   7.4899   7.4903

     occupation numbers 
     1.0000   1.0000   1.0000   1.0000   0.0000   0.0000   0.0000   0.0000

          k =-0.3750 0.7305 0.0000 (  2738 PWs)   bands (ev):

   -16.5509 -11.8784 -10.9529  -4.4960  -0.3715   3.3364   7.2620   7.3745

     occupation numbers 
     1.0000   1.0000   1.0000   1.0000   0.0000   0.0000   0.0000   0.0000

          k =-0.3750 0.7940 0.0000 (  2738 PWs)   bands (ev):

   -16.5507 -11.8817 -10.9496  -4.4956  -0.3722   3.3360   7.2620   7.3743

     occupation numbers 
     1.0000   1.0000   1.0000   1.0000   0.0000   0.0000   0.0000   0.0000

          k =-0.3750 0.8576 0.0000 (  2737 PWs)   bands (ev):

   -16.5645 -12.5515 -10.1080  -4.5443  -0.4627   3.3880   7.4901   7.4904

     occupation numbers 
     1.0000   1.0000   1.0000   1.0000   0.0000   0.0000   0.0000   0.0000

          k =-0.3750 0.9211 0.0000 (  2728 PWs)   bands (ev):

   -16.6189 -13.0871  -9.2165  -4.6584  -0.5709   3.4808   7.7122   7.8800

     occupation numbers 
     1.0000   1.0000   1.0000   1.0000   0.0000   0.0000   0.0000   0.0000

          k =-0.3750 0.9846 0.0000 (  2726 PWs)   bands (ev):

   -16.7556 -13.4050  -8.3474  -4.8569  -0.6042   3.5883   7.7116   8.0384

     occupation numbers 
     1.0000   1.0000   1.0000   1.0000   0.0000   0.0000   0.0000   0.0000

          k =-0.3750-0.4764 0.0000 (  2714 PWs)   bands (ev):

   -16.9970 -13.4692  -7.5645  -5.1396  -0.5012   3.6681   6.7736   7.5420

     occupation numbers 
     1.0000   1.0000   1.0000   1.0000   0.0000   0.0000   0.0000   0.0000

          k =-0.3750-0.4129 0.0000 (  2719 PWs)   bands (ev):

   -17.3176 -13.2984  -6.9460  -5.4805  -0.2484   3.6842   5.9229   6.7068

     occupation numbers 
     1.0000   1.0000   1.0000   1.0000   0.0000   0.0000   0.0000   0.0000

          k =-0.3750-0.3494 0.0000 (  2720 PWs)   bands (ev):

   -17.6661 -12.9410  -6.5771  -5.8409   0.1350   3.6654   5.1956   5.9713

     occupation numbers 
     1.0000   1.0000   1.0000   1.0000   0.0000   0.0000   0.0000   0.0000

          k =-0.3750-0.2859 0.0000 (  2722 PWs)   bands (ev):

   -17.9983 -12.4416  -6.5203  -6.1848   0.6150   3.6982   4.6122   5.3493

     occupation numbers 
     1.0000   1.0000   1.0000   1.0000   0.0000   0.0000   0.0000   0.0000

          k =-0.3750-0.2223 0.0000 (  2705 PWs)   bands (ev):

   -18.2857 -11.8324  -6.7792  -6.4852   1.1489   3.7438   4.2726   4.8442

     occupation numbers 
     1.0000   1.0000   1.0000   1.0000   0.0000   0.0000   0.0000   0.0000

          k =-0.3750-0.1588 0.0000 (  2709 PWs)   bands (ev):

   -18.5117 -11.1375  -7.2950  -6.7237   1.6810   3.5616   4.3284   4.4554

     occupation numbers 
     1.0000   1.0000   1.0000   1.0000   0.0000   0.0000   0.0000   0.0000

          k =-0.3750-0.0953 0.0000 (  2712 PWs)   bands (ev):

   -18.6666 -10.3789  -7.9807  -6.8884   2.1354   3.3524   4.1834   4.3167

     occupation numbers 
     1.0000   1.0000   1.0000   1.0000   0.0000   0.0000   0.0000   0.0000

          k =-0.3750-0.0318 0.0000 (  2714 PWs)   bands (ev):

   -18.7453  -9.5839  -8.7538  -6.9725   2.4107   3.2390   4.0366   4.2397

     occupation numbers 
     1.0000   1.0000   1.0000   1.0000   0.0000   0.0000   0.0000   0.0000

          k =-0.3750 0.0318 0.0000 (  2714 PWs)   bands (ev):

   -18.7453  -9.5804  -8.7576  -6.9726   2.4111   3.2391   4.0366   4.2399

     occupation numbers 
     1.0000   1.0000   1.0000   1.0000   0.0000   0.0000   0.0000   0.0000

          k =-0.3750 0.0953 0.0000 (  2712 PWs)   bands (ev):

   -18.6667 -10.3755  -7.9847  -6.8888   2.1365   3.3526   4.1834   4.3174

     occupation numbers 
     1.0000   1.0000   1.0000   1.0000   0.0000   0.0000   0.0000   0.0000

          k =-0.3750 0.1588 0.0000 (  2709 PWs)   bands (ev):

   -18.5119 -11.1342  -7.2993  -6.7243   1.6826   3.5622   4.3303   4.4555

     occupation numbers 
     1.0000   1.0000   1.0000   1.0000   0.0000   0.0000   0.0000   0.0000

          k =-0.3750 0.2223 0.0000 (  2705 PWs)   bands (ev):

   -18.2859 -11.8291  -6.7838  -6.4861   1.1510   3.7463   4.2737   4.8441

     occupation numbers 
     1.0000   1.0000   1.0000   1.0000   0.0000   0.0000   0.0000   0.0000

          k =-0.3333 0.2541 0.0000 (  2708 PWs)   bands (ev):

   -18.4208 -11.6433  -6.6268  -6.4290   1.3520   3.4312   3.9286   4.6379

     occupation numbers 
     1.0000   1.0000   1.0000   1.0000   0.0000   0.0000   0.0000   0.0000

          k =-0.3333 0.3176 0.0000 (  2718 PWs)   bands (ev):

   -18.0826 -12.2276  -6.4545  -6.2624   0.7986   3.3711   4.4260   5.1982

     occupation numbers 
     1.0000   1.0000   1.0000   1.0000   0.0000   0.0000   0.0000   0.0000

          k =-0.3333 0.3811 0.0000 (  2712 PWs)   bands (ev):

   -17.6946 -12.7075  -6.7903  -5.8470   0.2967   3.3093   5.0953   5.8754

     occupation numbers 
     1.0000   1.0000   1.0000   1.0000   0.0000   0.0000   0.0000   0.0000

          k =-0.3333 0.4447 0.0000 (  2711 PWs)   bands (ev):

   -17.2820 -13.0557  -7.3817  -5.4051  -0.1231   3.2001   5.8943   6.6636

     occupation numbers 
     1.0000   1.0000   1.0000   1.0000   0.0000   0.0000   0.0000   0.0000

          k =-0.3333 0.5082 0.0000 (  2716 PWs)   bands (ev):

   -16.8851 -13.2332  -8.1473  -4.9709  -0.4375   3.0358   6.8114   7.5379

     occupation numbers 
     1.0000   1.0000   1.0000   1.0000   0.0000   0.0000   0.0000   0.0000

          k =-0.3333 0.5717 0.0000 (  2724 PWs)   bands (ev):

   -16.5576 -13.1925  -9.0085  -4.5870  -0.6325   2.8578   7.8334   8.2725

     occupation numbers 
     1.0000   1.0000   1.0000   1.0000   0.0000   0.0000   0.0000   0.0000

          k =-0.3333 0.6352 0.0000 (  2737 PWs)   bands (ev):

   -16.3407 -12.9050  -9.8989  -4.2945  -0.7151   2.7068   8.0360   8.3931

     occupation numbers 
     1.0000   1.0000   1.0000   1.0000   0.0000   0.0000   0.0000   0.0000

          k =-0.3333 0.6987 0.0000 (  2733 PWs)   bands (ev):

   -16.2317 -12.4051 -10.7519  -4.1177  -0.7245   2.6081   7.6879   8.2269

     occupation numbers 
     1.0000   1.0000   1.0000   1.0000   0.0000   0.0000   0.0000   0.0000

          k =-0.3333 0.7623 0.0000 (  2738 PWs)   bands (ev):

   -16.2005 -11.9587 -11.3130  -4.0595  -0.7185   2.5738   7.5543   8.1681

     occupation numbers 
     1.0000   1.0000   1.0000   1.0000   0.0000   0.0000   0.0000   0.0000

          k =-0.3333 0.8258 0.0000 (  2733 PWs)   bands (ev):

   -16.2313 -12.4088 -10.7484  -4.1169  -0.7259   2.6075   7.6883   8.2269

     occupation numbers 
     1.0000   1.0000   1.0000   1.0000   0.0000   0.0000   0.0000   0.0000

          k =-0.3333 0.8893 0.0000 (  2737 PWs)   bands (ev):

   -16.3399 -12.9091  -9.8951  -4.2930  -0.7177   2.7055   8.0367   8.3931

     occupation numbers 
     1.0000   1.0000   1.0000   1.0000   0.0000   0.0000   0.0000   0.0000

          k =-0.3333 0.9528 0.0000 (  2724 PWs)   bands (ev):

   -16.5566 -13.1965  -9.0045  -4.5852  -0.6356   2.8558   7.8334   8.2729

     occupation numbers 
     1.0000   1.0000   1.0000   1.0000   0.0000   0.0000   0.0000   0.0000

          k =-0.3333-0.5082 0.0000 (  2716 PWs)   bands (ev):

   -16.8842 -13.2371  -8.1431  -4.9692  -0.4408   3.0330   6.8114   7.5380

     occupation numbers 
     1.0000   1.0000   1.0000   1.0000   0.0000   0.0000   0.0000   0.0000

          k =-0.3333-0.4447 0.0000 (  2711 PWs)   bands (ev):

   -17.2813 -13.0593  -7.3772  -5.4036  -0.1263   3.1965   5.8944   6.9445

     occupation numbers 
     1.0000   1.0000   1.0000   1.0000   0.0000   0.0000   0.0000   0.0000

          k =-0.3333-0.3811 0.0000 (  2712 PWs)   bands (ev):

   -17.6942 -12.7110  -6.7855  -5.8457   0.2938   3.3050   5.0954   5.8753

     occupation numbers 
     1.0000   1.0000   1.0000   1.0000   0.0000   0.0000   0.0000   0.0000

          k =-0.3333-0.3176 0.0000 (  2718 PWs)   bands (ev):

   -18.0823 -12.2309  -6.4496  -6.2614   0.7961   3.3666   4.4261   5.1981

     occupation numbers 
     1.0000   1.0000   1.0000   1.0000   0.0000   0.0000   0.0000   0.0000

          k =-0.3333-0.2541 0.0000 (  2708 PWs)   bands (ev):

   -18.4206 -11.6467  -6.6260  -6.4241   1.3499   3.4274   3.9282   4.6378

     occupation numbers 
     1.0000   1.0000   1.0000   1.0000   0.0000   0.0000   0.0000   0.0000

          k =-0.3333-0.1906 0.0000 (  2711 PWs)   bands (ev):

   -18.6944 -10.9790  -6.9232  -6.7040   1.9138   3.2952   3.8446   4.1963

     occupation numbers 
     1.0000   1.0000   1.0000   1.0000   0.0000   0.0000   0.0000   0.0000

          k =-0.3333-0.1270 0.0000 (  2711 PWs)   bands (ev):

   -18.8947 -10.2478  -7.2259  -7.1420   2.4305   3.0317   3.8711   3.9432

     occupation numbers 
     1.0000   1.0000   1.0000   1.0000   0.0000   0.0000   0.0000   0.0000

          k =-0.3333-0.0635 0.0000 (  2704 PWs)   bands (ev):

   -19.0167  -9.4773  -7.9023  -7.2758   2.8217   2.8564   3.6584   3.8509

     occupation numbers 
     1.0000   1.0000   1.0000   1.0000   0.0000   0.0000   0.0000   0.0000

          k =-0.3333 0.0000 0.0000 (  2706 PWs)   bands (ev):

   -19.0576  -8.7981  -8.5559  -7.3208   2.7969   2.9800   3.5743   3.8024

     occupation numbers 
     1.0000   1.0000   1.0000   1.0000   0.0000   0.0000   0.0000   0.0000

          k =-0.3333 0.0635 0.0000 (  2704 PWs)   bands (ev):

   -19.0167  -9.4736  -7.9065  -7.2760   2.8223   2.8565   3.6586   3.8511

     occupation numbers 
     1.0000   1.0000   1.0000   1.0000   0.0000   0.0000   0.0000   0.0000

          k =-0.3333 0.1270 0.0000 (  2711 PWs)   bands (ev):

   -18.8948 -10.2444  -7.2303  -7.1424   2.4317   3.0319   3.8713   3.9446

     occupation numbers 
     1.0000   1.0000   1.0000   1.0000   0.0000   0.0000   0.0000   0.0000

          k =-0.3333 0.1906 0.0000 (  2711 PWs)   bands (ev):

   -18.6945 -10.9756  -6.9237  -6.7087   1.9155   3.2962   3.8472   4.1963

     occupation numbers 
     1.0000   1.0000   1.0000   1.0000   0.0000   0.0000   0.0000   0.0000

          k =-0.2917 0.2223 0.0000 (  2705 PWs)   bands (ev):

   -18.8226 -10.7725  -7.0597  -6.3104   2.1268   3.0539   3.3652   4.0186

     occupation numbers 
     1.0000   1.0000   1.0000   1.0000   0.0000   0.0000   0.0000   0.0000

          k =-0.2917 0.2859 0.0000 (  2711 PWs)   bands (ev):

   -18.5017 -11.4133  -6.7042  -6.3110   1.5460   3.0080   3.7344   4.5108

     occupation numbers 
     1.0000   1.0000   1.0000   1.0000   0.0000   0.0000   0.0000   0.0000

          k =-0.2917 0.3494 0.0000 (  2712 PWs)   bands (ev):

   -18.1141 -11.9734  -6.6159  -6.2770   0.9774   2.8716   4.3435   5.1258

     occupation numbers 
     1.0000   1.0000   1.0000   1.0000   0.0000   0.0000   0.0000   0.0000

          k =-0.2917 0.4129 0.0000 (  2713 PWs)   bands (ev):

   -17.6730 -12.4349  -7.1782  -5.7931   0.4516   2.6806   5.0850   5.8581

     occupation numbers 
     1.0000   1.0000   1.0000   1.0000   0.0000   0.0000   0.0000   0.0000

          k =-0.2917 0.4764 0.0000 (  2713 PWs)   bands (ev):

   -17.2012 -12.7750  -7.9212  -5.2742  -0.0113   2.4412   5.9475   6.6965

     occupation numbers 
     1.0000   1.0000   1.0000   1.0000   0.0000   0.0000   0.0000   0.0000

          k =-0.2917 0.5399 0.0000 (  2724 PWs)   bands (ev):

   -16.7361 -12.9614  -8.7677  -4.7523  -0.3987   2.1967   6.9255   7.5974

     occupation numbers 
     1.0000   1.0000   1.0000   1.0000   0.0000   0.0000   0.0000   0.0000

          k =-0.2917 0.6035 0.0000 (  2735 PWs)   bands (ev):

   -16.3332 -12.9510  -9.6495  -4.2720  -0.7022   1.9869   8.0096   8.2264

     occupation numbers 
     1.0000   1.0000   1.0000   1.0000   0.0000   0.0000   0.0000   0.0000

          k =-0.2917 0.6670 0.0000 (  2743 PWs)   bands (ev):

   -16.0503 -12.7152 -10.4996  -3.8920  -0.9143   1.8367   8.0318   9.0830

     occupation numbers 
     1.0000   1.0000   1.0000   1.0000   0.0000   0.0000   0.0000   0.0000

          k =-0.2917 0.7305 0.0000 (  2746 PWs)   bands (ev):

   -15.9122 -12.3312 -11.1930  -3.6777  -1.0256   1.7588   7.7964   9.0503

     occupation numbers 
     1.0000   1.0000   1.0000   1.0000   0.0000   0.0000   0.0000   0.0000

          k =-0.2917 0.7940 0.0000 (  2746 PWs)   bands (ev):

   -15.9119 -12.3339 -11.1904  -3.6771  -1.0265   1.7585   7.7967   9.0505

     occupation numbers 
     1.0000   1.0000   1.0000   1.0000   0.0000   0.0000   0.0000   0.0000

          k =-0.2917 0.8576 0.0000 (  2743 PWs)   bands (ev):

   -16.0496 -12.7193 -10.4958  -3.8906  -0.9166   1.8360   8.0326   9.0831

     occupation numbers 
     1.0000   1.0000   1.0000   1.0000   0.0000   0.0000   0.0000   0.0000

          k =-0.2917 0.9211 0.0000 (  2735 PWs)   bands (ev):

   -16.3324 -12.9552  -9.6455  -4.2703  -0.7051   1.9856   8.0096   8.2272

     occupation numbers 
     1.0000   1.0000   1.0000   1.0000   0.0000   0.0000   0.0000   0.0000

          k =-0.2917-0.5399 0.0000 (  2724 PWs)   bands (ev):

   -16.7353 -12.9654  -8.7635  -4.7507  -0.4018   2.1947   6.9254   7.5976

     occupation numbers 
     1.0000   1.0000   1.0000   1.0000   0.0000   0.0000   0.0000   0.0000

          k =-0.2917-0.4764 0.0000 (  2713 PWs)   bands (ev):

   -17.2006 -12.7788  -7.9168  -5.2728  -0.0143   2.4385   5.9474   6.6967

     occupation numbers 
     1.0000   1.0000   1.0000   1.0000   0.0000   0.0000   0.0000   0.0000

          k =-0.2917-0.4129 0.0000 (  2713 PWs)   bands (ev):

   -17.6726 -12.4385  -7.1734  -5.7919   0.4489   2.6771   5.0850   6.1280

     occupation numbers 
     1.0000   1.0000   1.0000   1.0000   0.0000   0.0000   0.0000   0.0000

          k =-0.2917-0.3494 0.0000 (  2712 PWs)   bands (ev):

   -18.1138 -11.9769  -6.6109  -6.2760   0.9750   2.8674   4.3435   5.1256

     occupation numbers 
     1.0000   1.0000   1.0000   1.0000   0.0000   0.0000   0.0000   0.0000

          k =-0.2917-0.2859 0.0000 (  2711 PWs)   bands (ev):

   -18.5016 -11.4168  -6.7034  -6.3058   1.5440   3.0036   3.7345   4.5107

     occupation numbers 
     1.0000   1.0000   1.0000   1.0000   0.0000   0.0000   0.0000   0.0000

          k =-0.2917-0.2223 0.0000 (  2705 PWs)   bands (ev):

   -18.8225 -10.7760  -7.0591  -6.3052   2.1252   3.0512   3.3635   4.0183

     occupation numbers 
     1.0000   1.0000   1.0000   1.0000   0.0000   0.0000   0.0000   0.0000

          k =-0.2917-0.1588 0.0000 (  2703 PWs)   bands (ev):

   -19.0686 -10.0723  -7.3332  -6.5978   2.6690   2.7842   3.4891   3.6540

     occupation numbers 
     1.0000   1.0000   1.0000   1.0000   0.0000   0.0000   0.0000   0.0000

          k =-0.2917-0.0953 0.0000 (  2703 PWs)   bands (ev):

   -19.2350  -9.3277  -7.5192  -7.1170   2.5482   3.0837   3.4440   3.5161

     occupation numbers 
     1.0000   1.0000   1.0000   1.0000   0.0000   0.0000   0.0000   0.0000

          k =-0.2917-0.0318 0.0000 (  2689 PWs)   bands (ev):

   -19.3188  -8.5843  -7.7650  -7.6131   2.4269   3.1847   3.4286   3.4849

     occupation numbers 
     1.0000   1.0000   1.0000   1.0000   0.0000   0.0000   0.0000   0.0000

          k =-0.2917 0.0318 0.0000 (  2689 PWs)   bands (ev):

   -19.3188  -8.5807  -7.7690  -7.6131   2.4270   3.1846   3.4287   3.4854

     occupation numbers 
     1.0000   1.0000   1.0000   1.0000   0.0000   0.0000   0.0000   0.0000

          k =-0.2917 0.0953 0.0000 (  2703 PWs)   bands (ev):

   -19.2350  -9.3239  -7.5194  -7.1216   2.5484   3.0840   3.4446   3.5174

     occupation numbers 
     1.0000   1.0000   1.0000   1.0000   0.0000   0.0000   0.0000   0.0000

          k =-0.2917 0.1588 0.0000 (  2703 PWs)   bands (ev):

   -19.0687 -10.0687  -7.3336  -6.6028   2.6701   2.7846   3.4922   3.6544

     occupation numbers 
     1.0000   1.0000   1.0000   1.0000   0.0000   0.0000   0.0000   0.0000

          k =-0.2500 0.1906 0.0000 (  2704 PWs)   bands (ev):

   -19.1864  -9.8539  -7.4600  -6.1728   2.6016   2.8419   2.9117   3.5445

     occupation numbers 
     1.0000   1.0000   1.0000   1.0000   0.0000   0.0000   0.0000   0.0000

          k =-0.2500 0.2541 0.0000 (  2709 PWs)   bands (ev):

   -18.8948 -10.5312  -7.1306  -6.1578   2.3139   2.6078   3.1227   3.9217

     occupation numbers 
     1.0000   1.0000   1.0000   1.0000   0.0000   0.0000   0.0000   0.0000

          k =-0.2500 0.3176 0.0000 (  2700 PWs)   bands (ev):

   -18.5273 -11.1471  -6.7172  -6.4370   1.7241   2.4110   3.6719   4.4631

     occupation numbers 
     1.0000   1.0000   1.0000   1.0000   0.0000   0.0000   0.0000   0.0000

          k =-0.2500 0.3811 0.0000 (  2692 PWs)   bands (ev):

   -18.0918 -11.6860  -6.9698  -6.2293   1.1388   2.1556   4.3543   5.1329

     occupation numbers 
     1.0000   1.0000   1.0000   1.0000   0.0000   0.0000   0.0000   0.0000

          k =-0.2500 0.4447 0.0000 (  2712 PWs)   bands (ev):

   -17.6005 -12.1333  -7.6854  -5.6803   0.5823   1.8531   5.1586   5.9194

     occupation numbers 
     1.0000   1.0000   1.0000   1.0000   0.0000   0.0000   0.0000   0.0000

          k =-0.2500 0.5082 0.0000 (  2714 PWs)   bands (ev):

   -17.0745 -12.4721  -8.5097  -5.0897   0.0656   1.5475   6.0818   6.8043

     occupation numbers 
     1.0000   1.0000   1.0000   1.0000   0.0000   0.0000   0.0000   0.0000

          k =-0.2500 0.5717 0.0000 (  2723 PWs)   bands (ev):

   -16.5499 -12.6788  -9.3742  -4.4866  -0.4083   1.2791   7.1199   7.7124

     occupation numbers 
     1.0000   1.0000   1.0000   1.0000   0.0000   0.0000   0.0000   0.0000

          k =-0.2500 0.6352 0.0000 (  2739 PWs)   bands (ev):

   -16.0863 -12.7229 -10.2099  -3.9165  -0.8334   1.0740   8.1985   8.2626

     occupation numbers 
     1.0000   1.0000   1.0000   1.0000   0.0000   0.0000   0.0000   0.0000

          k =-0.2500 0.6987 0.0000 (  2742 PWs)   bands (ev):

   -15.7636 -12.5979 -10.9171  -3.4611  -1.1746   0.9465   8.0488   9.4708

     occupation numbers 
     1.0000   1.0000   1.0000   1.0000   0.0000   0.0000   0.0000   0.0000

          k =-0.2500 0.7623 0.0000 (  2732 PWs)   bands (ev):

   -15.6483 -12.4703 -11.2479  -3.2707  -1.3217   0.9032   7.9455   9.9440

     occupation numbers 
     1.0000   1.0000   1.0000   1.0002   0.0000   0.0000   0.0000   0.0000

          k =-0.2500 0.8258 0.0000 (  2742 PWs)   bands (ev):

   -15.7630 -12.6015 -10.9138  -3.4599  -1.1763   0.9460   8.0495   9.4707

     occupation numbers 
     1.0000   1.0000   1.0000   1.0000   0.0000   0.0000   0.0000   0.0000

          k =-0.2500 0.8893 0.0000 (  2739 PWs)   bands (ev):

   -16.0855 -12.7271 -10.2059  -3.9149  -0.8360   1.0732   8.1995   8.2626

     occupation numbers 
     1.0000   1.0000   1.0000   1.0000   0.0000   0.0000   0.0000   0.0000

          k =-0.2500-0.5717 0.0000 (  2723 PWs)   bands (ev):

   -16.5492 -12.6830  -9.3699  -4.4851  -0.4110   1.2778   7.1199   7.7128

     occupation numbers 
     1.0000   1.0000   1.0000   1.0000   0.0000   0.0000   0.0000   0.0000

          k =-0.2500-0.5082 0.0000 (  2714 PWs)   bands (ev):

   -17.0740 -12.4760  -8.5052  -5.0885   0.0629   1.5456   6.0818   6.8044

     occupation numbers 
     1.0000   1.0000   1.0000   1.0000   0.0000   0.0000   0.0000   0.0000

          k =-0.2500-0.4447 0.0000 (  2712 PWs)   bands (ev):

   -17.6002 -12.1370  -7.6807  -5.6793   0.5798   1.8506   5.1586   5.9196

     occupation numbers 
     1.0000   1.0000   1.0000   1.0000   0.0000   0.0000   0.0000   0.0000

          k =-0.2500-0.3811 0.0000 (  2692 PWs)   bands (ev):

   -18.0915 -11.6895  -6.9647  -6.2284   1.1366   2.1523   4.3543   5.1328

     occupation numbers 
     1.0000   1.0000   1.0000   1.0000   0.0000   0.0000   0.0000   0.0000

          k =-0.2500-0.3176 0.0000 (  2700 PWs)   bands (ev):

   -18.5272 -11.1507  -6.7166  -6.4317   1.7221   2.4070   3.6719   4.4631

     occupation numbers 
     1.0000   1.0000   1.0000   1.0000   0.0000   0.0000   0.0000   0.0000

          k =-0.2500-0.2541 0.0000 (  2709 PWs)   bands (ev):

   -18.8947 -10.5348  -7.1301  -6.1523   2.3123   2.6034   3.1227   3.9215

     occupation numbers 
     1.0000   1.0000   1.0000   1.0000   0.0000   0.0000   0.0000   0.0000

          k =-0.2500-0.1906 0.0000 (  2704 PWs)   bands (ev):

   -19.1864  -9.8576  -7.4596  -6.1674   2.6004   2.8410   2.9088   3.5443

     occupation numbers 
     1.0000   1.0000   1.0000   1.0000   0.0000   0.0000   0.0000   0.0000

          k =-0.2500-0.1270 0.0000 (  2695 PWs)   bands (ev):

   -19.3975  -9.1392  -7.6989  -6.4611   2.3204   3.0094   3.1253   3.4671

     occupation numbers 
     1.0000   1.0000   1.0000   1.0000   0.0000   0.0000   0.0000   0.0000

          k =-0.2500-0.0635 0.0000 (  2695 PWs)   bands (ev):

   -19.5253  -8.4131  -7.8441  -6.9624   2.1368   2.8906   3.1217   3.6883

     occupation numbers 
     1.0000   1.0000   1.0000   1.0000   0.0000   0.0000   0.0000   0.0000

          k =-0.2500 0.0000 0.0000 (  2692 PWs)   bands (ev):

   -19.5681  -7.8927  -7.8707  -7.4360   2.0750   2.8381   3.0754   3.9877

     occupation numbers 
     1.0000   1.0000   1.0000   1.0000   0.0000   0.0000   0.0000   0.0000

          k =-0.2500 0.0635 0.0000 (  2695 PWs)   bands (ev):

   -19.5253  -8.4091  -7.8442  -6.9671   2.1369   2.8904   3.1222   3.6913

     occupation numbers 
     1.0000   1.0000   1.0000   1.0000   0.0000   0.0000   0.0000   0.0000

          k =-0.2500 0.1270 0.0000 (  2695 PWs)   bands (ev):

   -19.3976  -9.1353  -7.6992  -6.4663   2.3206   3.0092   3.1284   3.4679

     occupation numbers 
     1.0000   1.0000   1.0000   1.0000   0.0000   0.0000   0.0000   0.0000

          k =-0.2083 0.1588 0.0000 (  2691 PWs)   bands (ev):

   -19.5028  -8.9144  -7.8131  -6.0189   2.1706   2.4996   2.8832   3.2368

     occupation numbers 
     1.0000   1.0000   1.0000   1.0000   0.0000   0.0000   0.0000   0.0000

          k =-0.2083 0.2223 0.0000 (  2701 PWs)   bands (ev):

   -19.2468  -9.6078  -7.5201  -6.0023   2.2032   2.5913   2.9456   3.5402

     occupation numbers 
     1.0000   1.0000   1.0000   1.0000   0.0000   0.0000   0.0000   0.0000

          k =-0.2083 0.2859 0.0000 (  2705 PWs)   bands (ev):

   -18.9099 -10.2613  -7.1356  -6.2655   1.9647   2.4693   3.0829   3.9030

     occupation numbers 
     1.0000   1.0000   1.0000   1.0000   0.0000   0.0000   0.0000   0.0000

          k =-0.2083 0.3494 0.0000 (  2701 PWs)   bands (ev):

   -18.4969 -10.8564  -6.7716  -6.6658   1.6650   1.8697   3.7051   4.4944

     occupation numbers 
     1.0000   1.0000   1.0000   1.0000   0.0000   0.0000   0.0000   0.0000

          k =-0.2083 0.4129 0.0000 (  2707 PWs)   bands (ev):

   -18.0152 -11.3805  -7.4565  -6.1197   1.2606   1.3130   4.4496   5.2195

     occupation numbers 
     1.0000   1.0000   1.0000   1.0000   0.0000   0.0000   0.0000   0.0000

          k =-0.2083 0.4764 0.0000 (  2702 PWs)   bands (ev):

   -17.4766 -11.8243  -8.2509  -5.5093   0.6629   0.9519   5.3149   6.0593

     occupation numbers 
     1.0000   1.0000   1.0000   1.0000   0.0000   0.0000   0.0000   0.0000

          k =-0.2083 0.5399 0.0000 (  2723 PWs)   bands (ev):

   -16.9018 -12.1800  -9.0882  -4.8527   0.0797   0.6252   6.2986   6.9857

     occupation numbers 
     1.0000   1.0000   1.0000   1.0000   0.0000   0.0000   0.0000   0.0000

          k =-0.2083 0.6035 0.0000 (  2737 PWs)   bands (ev):

   -16.3276 -12.4404  -9.8980  -4.1757  -0.4917   0.3626   7.3959   7.8787

     occupation numbers 
     1.0000   1.0000   1.0000   1.0000   0.0000   0.0000   0.0000   0.0000

          k =-0.2083 0.6670 0.0000 (  2736 PWs)   bands (ev):

   -15.8240 -12.5997 -10.5876  -3.5240  -1.0422   0.1809   8.2468   8.5943

     occupation numbers 
     1.0000   1.0000   1.0000   1.0000   0.0000   0.0000   0.0000   0.0000

          k =-0.2083 0.7305 0.0000 (  2736 PWs)   bands (ev):

   -15.5097 -12.6647 -11.0137  -3.0212  -1.4833   0.0883   8.1731   9.8482

     occupation numbers 
     1.0000   1.0000   1.0000   1.0119   0.0000   0.0000   0.0000   0.0000

          k =-0.2083 0.7940 0.0000 (  2736 PWs)   bands (ev):

   -15.5094 -12.6665 -11.0122  -3.0204  -1.4844   0.0881   8.1734   9.8480

     occupation numbers 
     1.0000   1.0000   1.0000   1.0120   0.0000   0.0000   0.0000   0.0000

          k =-0.2083 0.8576 0.0000 (  2736 PWs)   bands (ev):

   -15.8233 -12.6035 -10.5841  -3.5226  -1.0442   0.1804   8.2478   8.5943

     occupation numbers 
     1.0000   1.0000   1.0000   1.0000   0.0000   0.0000   0.0000   0.0000

          k =-0.2083-0.6035 0.0000 (  2737 PWs)   bands (ev):

   -16.3270 -12.4446  -9.8937  -4.1744  -0.4940   0.3617   7.3959   7.8795

     occupation numbers 
     1.0000   1.0000   1.0000   1.0000   0.0000   0.0000   0.0000   0.0000

          k =-0.2083-0.5399 0.0000 (  2723 PWs)   bands (ev):

   -16.9013 -12.1841  -9.0837  -4.8516   0.0773   0.6239   6.2986   6.9858

     occupation numbers 
     1.0000   1.0000   1.0000   1.0000   0.0000   0.0000   0.0000   0.0000

          k =-0.2083-0.4764 0.0000 (  2702 PWs)   bands (ev):

   -17.4763 -11.8282  -8.2462  -5.5084   0.6606   0.9501   5.3148   6.0594

     occupation numbers 
     1.0000   1.0000   1.0000   1.0000   0.0000   0.0000   0.0000   0.0000

          k =-0.2083-0.4129 0.0000 (  2707 PWs)   bands (ev):

   -18.0149 -11.3843  -7.4515  -6.1189   1.2585   1.3106   4.4497   5.2196

     occupation numbers 
     1.0000   1.0000   1.0000   1.0000   0.0000   0.0000   0.0000   0.0000

          k =-0.2083-0.3494 0.0000 (  2701 PWs)   bands (ev):

   -18.4967 -10.8601  -6.7662  -6.6652   1.6619   1.8678   3.7052   4.4943

     occupation numbers 
     1.0000   1.0000   1.0000   1.0000   0.0000   0.0000   0.0000   0.0000

          k =-0.2083-0.2859 0.0000 (  2705 PWs)   bands (ev):

   -18.9098 -10.2650  -7.1351  -6.2598   1.9608   2.4678   3.0830   3.9032

     occupation numbers 
     1.0000   1.0000   1.0000   1.0000   0.0000   0.0000   0.0000   0.0000

          k =-0.2083-0.2223 0.0000 (  2701 PWs)   bands (ev):

   -19.2467  -9.6117  -7.5197  -5.9964   2.1988   2.5914   2.9450   3.5397

     occupation numbers 
     1.0000   1.0000   1.0000   1.0000   0.0000   0.0000   0.0000   0.0000

          k =-0.2083-0.1588 0.0000 (  2691 PWs)   bands (ev):

   -19.5027  -8.9185  -7.8128  -6.0131   2.1700   2.4958   2.8829   3.2367

     occupation numbers 
     1.0000   1.0000   1.0000   1.0000   0.0000   0.0000   0.0000   0.0000

          k =-0.2083-0.0953 0.0000 (  2691 PWs)   bands (ev):

   -19.6749  -8.2154  -8.0104  -6.2907   1.9301   2.6761   2.7665   3.0428

     occupation numbers 
     1.0000   1.0000   1.0000   1.0000   0.0000   0.0000   0.0000   0.0000

          k =-0.2083-0.0318 0.0000 (  2696 PWs)   bands (ev):

   -19.7614  -8.1099  -7.5771  -6.7295   1.8053   2.5617   2.7944   3.3248

     occupation numbers 
     1.0000   1.0000   1.0000   1.0000   0.0000   0.0000   0.0000   0.0000

          k =-0.2083 0.0318 0.0000 (  2696 PWs)   bands (ev):

   -19.7614  -8.1099  -7.5735  -6.7335   1.8053   2.5616   2.7948   3.3282

     occupation numbers 
     1.0000   1.0000   1.0000   1.0000   0.0000   0.0000   0.0000   0.0000

          k =-0.2083 0.0953 0.0000 (  2691 PWs)   bands (ev):

   -19.6749  -8.2112  -8.0106  -6.2961   1.9302   2.6761   2.7698   3.0435

     occupation numbers 
     1.0000   1.0000   1.0000   1.0000   0.0000   0.0000   0.0000   0.0000

          k =-0.1667 0.1270 0.0000 (  2687 PWs)   bands (ev):

   -19.7663  -8.1102  -7.9913  -5.8479   1.8066   2.1073   2.5449   2.8469

     occupation numbers 
     1.0000   1.0000   1.0000   1.0000   0.0000   0.0000   0.0000   0.0000

          k =-0.1667 0.1906 0.0000 (  2694 PWs)   bands (ev):

   -19.5496  -8.6708  -7.8599  -5.8516   1.8232   2.1430   2.8219   3.1620

     occupation numbers 
     1.0000   1.0000   1.0000   1.0000   0.0000   0.0000   0.0000   0.0000

          k =-0.1667 0.2541 0.0000 (  2705 PWs)   bands (ev):

   -19.2489  -9.3417  -7.5132  -6.1138   1.5661   2.5779   3.0145   3.5976

     occupation numbers 
     1.0000   1.0000   1.0000   1.0000   0.0000   0.0000   0.0000   0.0000

          k =-0.1667 0.3176 0.0000 (  2707 PWs)   bands (ev):

   -18.8675  -9.9763  -7.0747  -6.6009   1.2445   2.5787   3.1394   3.9594

     occupation numbers 
     1.0000   1.0000   1.0000   1.0000   0.0000   0.0000   0.0000   0.0000

          k =-0.1667 0.3811 0.0000 (  2702 PWs)   bands (ev):

   -18.4102 -10.5588  -7.2548  -6.5503   0.8581   1.9597   3.8229   4.8555

     occupation numbers 
     1.0000   1.0000   1.0000   1.0000   0.0000   0.0000   0.0000   0.0000

          k =-0.1667 0.4447 0.0000 (  2702 PWs)   bands (ev):

   -17.8842 -11.0817  -8.0132  -5.9487   0.4489   1.3160   4.6283   5.3861

     occupation numbers 
     1.0000   1.0000   1.0000   1.0000   0.0000   0.0000   0.0000   0.0000

          k =-0.1667 0.5082 0.0000 (  2700 PWs)   bands (ev):

   -17.3017 -11.5456  -8.8132  -5.2816   0.0655   0.6650   5.5543   6.2780

     occupation numbers 
     1.0000   1.0000   1.0000   1.0000   0.0000   0.0000   0.0000   0.0000

          k =-0.1667 0.5717 0.0000 (  2712 PWs)   bands (ev):

   -16.6840 -11.9605  -9.5844  -4.5651  -0.2568   0.0057   6.5982   7.2407

     occupation numbers 
     1.0000   1.0000   1.0000   1.0000   0.0000   0.0000   0.0000   0.0000

          k =-0.1667 0.6352 0.0000 (  2731 PWs)   bands (ev):

   -16.0731 -12.3433 -10.2384  -3.8226  -0.6656  -0.4970   7.7533   8.1030

     occupation numbers 
     1.0000   1.0000   1.0000   1.0000   0.0000   0.0000   0.0000   0.0000

          k =-0.1667 0.6987 0.0000 (  2727 PWs)   bands (ev):

   -15.5630 -12.6800 -10.6753  -3.0999  -1.3311  -0.6444   8.4100   9.0030

     occupation numbers 
     1.0000   1.0000   1.0000   1.0042   0.0000   0.0000   0.0000   0.0000

          k =-0.1667 0.7623 0.0000 (  2726 PWs)   bands (ev):

   -15.3441 -12.8371 -10.8261  -2.6499  -1.7596  -0.6941   8.4093  10.1643

     occupation numbers 
     1.0000   1.0000   1.0000   1.0514   0.0001   0.0000   0.0000   0.0000

          k =-0.1667 0.8258 0.0000 (  2727 PWs)   bands (ev):

   -15.5625 -12.6824 -10.6732  -3.0987  -1.3327  -0.6447   8.4107   9.0029

     occupation numbers 
     1.0000   1.0000   1.0000   1.0043   0.0000   0.0000   0.0000   0.0000

          k =-0.1667-0.6352 0.0000 (  2731 PWs)   bands (ev):

   -16.0726 -12.3470 -10.2347  -3.8215  -0.6675  -0.4976   7.7533   8.1036

     occupation numbers 
     1.0000   1.0000   1.0000   1.0000   0.0000   0.0000   0.0000   0.0000

          k =-0.1667-0.5717 0.0000 (  2712 PWs)   bands (ev):

   -16.6836 -11.9646  -9.5800  -4.5641  -0.2577   0.0038   6.5981   7.2410

     occupation numbers 
     1.0000   1.0000   1.0000   1.0000   0.0000   0.0000   0.0000   0.0000

          k =-0.1667-0.5082 0.0000 (  2700 PWs)   bands (ev):

   -17.3014 -11.5497  -8.8084  -5.2808   0.0642   0.6631   5.5543   6.2781

     occupation numbers 
     1.0000   1.0000   1.0000   1.0000   0.0000   0.0000   0.0000   0.0000

          k =-0.1667-0.4447 0.0000 (  2702 PWs)   bands (ev):

   -17.8840 -11.0857  -8.0082  -5.9481   0.4471   1.3141   4.6283   5.3861

     occupation numbers 
     1.0000   1.0000   1.0000   1.0000   0.0000   0.0000   0.0000   0.0000

          k =-0.1667-0.3811 0.0000 (  2702 PWs)   bands (ev):

   -18.4100 -10.5627  -7.2494  -6.5498   0.8558   1.9581   3.8229   4.6043

     occupation numbers 
     1.0000   1.0000   1.0000   1.0000   0.0000   0.0000   0.0000   0.0000

          k =-0.1667-0.3176 0.0000 (  2707 PWs)   bands (ev):

   -18.8675  -9.9803  -7.0742  -6.5952   1.2415   2.5774   3.1394   3.9584

     occupation numbers 
     1.0000   1.0000   1.0000   1.0000   0.0000   0.0000   0.0000   0.0000

          k =-0.1667-0.2541 0.0000 (  2705 PWs)   bands (ev):

   -19.2489  -9.3459  -7.5129  -6.1077   1.5625   2.5780   3.0141   3.6034

     occupation numbers 
     1.0000   1.0000   1.0000   1.0000   0.0000   0.0000   0.0000   0.0000

          k =-0.1667-0.1906 0.0000 (  2694 PWs)   bands (ev):

   -19.5495  -8.6751  -7.8596  -5.8454   1.8189   2.1431   2.8220   3.1620

     occupation numbers 
     1.0000   1.0000   1.0000   1.0000   0.0000   0.0000   0.0000   0.0000

          k =-0.1667-0.1270 0.0000 (  2687 PWs)   bands (ev):

   -19.7662  -8.1101  -7.9958  -5.8419   1.8063   2.1034   2.5449   2.8470

     occupation numbers 
     1.0000   1.0000   1.0000   1.0000   0.0000   0.0000   0.0000   0.0000

          k =-0.1667-0.0635 0.0000 (  2692 PWs)   bands (ev):

   -19.8970  -8.2615  -7.3631  -6.0687   1.6206   2.3682   2.4176   2.6755

     occupation numbers 
     1.0000   1.0000   1.0000   1.0000   0.0000   0.0000   0.0000   0.0000

          k =-0.1667 0.0000 0.0000 (  2686 PWs)   bands (ev):

   -19.9407  -8.3121  -6.9973  -6.3017   1.5573   2.3084   2.5444   2.8134

     occupation numbers 
     1.0000   1.0000   1.0000   1.0000   0.0000   0.0000   0.0000   0.0000

          k =-0.1667 0.0635 0.0000 (  2692 PWs)   bands (ev):

   -19.8970  -8.2615  -7.3588  -6.0739   1.6207   2.3682   2.4215   2.6753

     occupation numbers 
     1.0000   1.0000   1.0000   1.0000   0.0000   0.0000   0.0000   0.0000

          k =-0.1250 0.0953 0.0000 (  2690 PWs)   bands (ev):

   -19.9737  -8.3458  -7.1499  -5.6461   1.5218   1.7389   2.2586   2.5423

     occupation numbers 
     1.0000   1.0000   1.0000   1.0000   0.0000   0.0000   0.0000   0.0000

          k =-0.1250 0.1588 0.0000 (  2685 PWs)   bands (ev):

   -19.7985  -8.1421  -7.7611  -5.7076   1.4892   1.7819   2.4974   2.8016

     occupation numbers 
     1.0000   1.0000   1.0000   1.0000   0.0000   0.0000   0.0000   0.0000

          k =-0.1250 0.2223 0.0000 (  2693 PWs)   bands (ev):

   -19.5375  -8.4182  -7.8389  -5.9930   1.2420   2.1583   2.8374   3.1819

     occupation numbers 
     1.0000   1.0000   1.0000   1.0000   0.0000   0.0000   0.0000   0.0000

          k =-0.1250 0.2859 0.0000 (  2708 PWs)   bands (ev):

   -19.1928  -9.0720  -7.4396  -6.4751   0.9230   2.6578   3.0806   3.6647

     occupation numbers 
     1.0000   1.0000   1.0000   1.0000   0.0000   0.0000   0.0000   0.0000

          k =-0.1250 0.3494 0.0000 (  2694 PWs)   bands (ev):

   -18.7678  -9.6970  -7.1027  -6.9483   0.5212   2.6192   3.2797   4.0870

     occupation numbers 
     1.0000   1.0000   1.0000   1.0000   0.0000   0.0000   0.0000   0.0000

          k =-0.1250 0.4129 0.0000 (  2710 PWs)   bands (ev):

   -18.2675 -10.2828  -7.8224  -6.3718   0.0753   1.9661   4.0240   4.7944

     occupation numbers 
     1.0000   1.0000   1.0000   1.0000   0.0000   0.0000   0.0000   0.0000

          k =-0.1250 0.4764 0.0000 (  2695 PWs)   bands (ev):

   -17.6997 -10.8328  -8.5766  -5.7184  -0.3603   1.2774   4.8905   5.6336

     occupation numbers 
     1.0000   1.0000   1.0000   1.0000   0.0000   0.0000   0.0000   0.0000

          k =-0.1250 0.5399 0.0000 (  2704 PWs)   bands (ev):

   -17.0774 -11.3669  -9.2970  -4.9996  -0.7429   0.5657   5.8772   6.5762

     occupation numbers 
     1.0000   1.0000   1.0000   1.0000   0.0000   0.0000   0.0000   0.0000

          k =-0.1250 0.6035 0.0000 (  2709 PWs)   bands (ev):

   -16.4249 -11.9146  -9.9009  -4.2305  -1.0450  -0.1707   6.9801   7.5701

     occupation numbers 
     1.0000   1.0000   1.0000   1.0000   0.0000   0.0000   0.0000   0.0000

          k =-0.1250 0.6670 0.0000 (  2728 PWs)   bands (ev):

   -15.7969 -12.4707 -10.3176  -3.4321  -1.2520  -0.9322   8.1909   8.3982

     occupation numbers 
     1.0000   1.0000   1.0000   1.0000   0.0000   0.0000   0.0000   0.0000

          k =-0.1250 0.7305 0.0000 (  2726 PWs)   bands (ev):

   -15.3411 -12.8974 -10.5226  -2.6539  -1.6869  -1.3569   8.6816   9.4828

     occupation numbers 
     1.0000   1.0000   1.0000   1.0546   0.0000   0.0000   0.0000   0.0000

          k =-0.1250 0.7940 0.0000 (  2726 PWs)   bands (ev):

   -15.3409 -12.8983 -10.5218  -2.6529  -1.6880  -1.3571   8.6820   9.4827

     occupation numbers 
     1.0000   1.0000   1.0000   1.0539   0.0000   0.0000   0.0000   0.0000

          k =-0.1250-0.6670 0.0000 (  2728 PWs)   bands (ev):

   -15.7965 -12.4731 -10.3153  -3.4312  -1.2524  -0.9336   8.1909   8.3989

     occupation numbers 
     1.0000   1.0000   1.0000   1.0000   0.0000   0.0000   0.0000   0.0000

          k =-0.1250-0.6035 0.0000 (  2709 PWs)   bands (ev):

   -16.4245 -11.9180  -9.8973  -4.2298  -1.0456  -0.1722   6.9801   7.5704

     occupation numbers 
     1.0000   1.0000   1.0000   1.0000   0.0000   0.0000   0.0000   0.0000

          k =-0.1250-0.5399 0.0000 (  2704 PWs)   bands (ev):

   -17.0772 -11.3709  -9.2925  -4.9990  -0.7438   0.5642   5.8772   6.5764

     occupation numbers 
     1.0000   1.0000   1.0000   1.0000   0.0000   0.0000   0.0000   0.0000

          k =-0.1250-0.4764 0.0000 (  2695 PWs)   bands (ev):

   -17.6996 -10.8369  -8.5717  -5.7179  -0.3615   1.2760   4.8905   5.6335

     occupation numbers 
     1.0000   1.0000   1.0000   1.0000   0.0000   0.0000   0.0000   0.0000

          k =-0.1250-0.4129 0.0000 (  2710 PWs)   bands (ev):

   -18.2674 -10.2870  -7.8171  -6.3714   0.0737   1.9648   4.0241   4.7946

     occupation numbers 
     1.0000   1.0000   1.0000   1.0000   0.0000   0.0000   0.0000   0.0000

          k =-0.1250-0.3494 0.0000 (  2694 PWs)   bands (ev):

   -18.7677  -9.7012  -7.0971  -6.9480   0.5191   2.6181   3.2797   4.0870

     occupation numbers 
     1.0000   1.0000   1.0000   1.0000   0.0000   0.0000   0.0000   0.0000

          k =-0.1250-0.2859 0.0000 (  2708 PWs)   bands (ev):

   -19.1928  -9.0763  -7.4393  -6.4691   0.9203   2.6578   3.0804   3.6672

     occupation numbers 
     1.0000   1.0000   1.0000   1.0000   0.0000   0.0000   0.0000   0.0000

          k =-0.1250-0.2223 0.0000 (  2693 PWs)   bands (ev):

   -19.5375  -8.4227  -7.8387  -5.9866   1.2387   2.1583   2.8375   3.1819

     occupation numbers 
     1.0000   1.0000   1.0000   1.0000   0.0000   0.0000   0.0000   0.0000

          k =-0.1250-0.1588 0.0000 (  2685 PWs)   bands (ev):

   -19.7985  -8.1419  -7.7658  -5.7011   1.4853   1.7820   2.4974   2.8015

     occupation numbers 
     1.0000   1.0000   1.0000   1.0000   0.0000   0.0000   0.0000   0.0000

          k =-0.1250-0.0953 0.0000 (  2690 PWs)   bands (ev):

   -19.9736  -8.3457  -7.1546  -5.6402   1.5215   1.7352   2.2586   2.5425

     occupation numbers 
     1.0000   1.0000   1.0000   1.0000   0.0000   0.0000   0.0000   0.0000

          k =-0.1250-0.0318 0.0000 (  2690 PWs)   bands (ev):

   -20.0615  -8.4481  -6.7037  -5.7435   1.3950   2.0162   2.1376   2.3902

     occupation numbers 
     1.0000   1.0000   1.0000   1.0000   0.0000   0.0000   0.0000   0.0000

          k =-0.1250 0.0318 0.0000 (  2690 PWs)   bands (ev):

   -20.0615  -8.4481  -6.7010  -5.7468   1.3950   2.0191   2.1376   2.3899

     occupation numbers 
     1.0000   1.0000   1.0000   1.0000   0.0000   0.0000   0.0000   0.0000

          k =-0.0833 0.0635 0.0000 (  2681 PWs)   bands (ev):

   -20.1229  -8.5161  -6.5093  -5.3739   1.3191   1.3957   2.0505   2.3217

     occupation numbers 
     1.0000   1.0000   1.0000   1.0000   0.0000   0.0000   0.0000   0.0000

          k =-0.0833 0.1270 0.0000 (  2685 PWs)   bands (ev):

   -19.9907  -8.3616  -6.9540  -5.5535   1.2160   1.5104   2.2330   2.5274

     occupation numbers 
     1.0000   1.0000   1.0000   1.0000   0.0000   0.0000   0.0000   0.0000

          k =-0.0833 0.1906 0.0000 (  2686 PWs)   bands (ev):

   -19.7714  -8.1057  -7.5379  -5.9037   1.0105   1.8246   2.5328   2.8458

     occupation numbers 
     1.0000   1.0000   1.0000   1.0000   0.0000   0.0000   0.0000   0.0000

          k =-0.0833 0.2541 0.0000 (  2698 PWs)   bands (ev):

   -19.4665  -8.1766  -7.7505  -6.4054   0.7208   2.2610   2.9287   3.2856

     occupation numbers 
     1.0000   1.0000   1.0000   1.0000   0.0000   0.0000   0.0000   0.0000

          k =-0.0833 0.3176 0.0000 (  2702 PWs)   bands (ev):

   -19.0785  -8.8229  -7.2997  -7.0194   0.3273   2.8205   3.1167   3.7460

     occupation numbers 
     1.0000   1.0000   1.0000   1.0000   0.0000   0.0000   0.0000   0.0000

          k =-0.0833 0.3811 0.0000 (  2712 PWs)   bands (ev):

   -18.6112  -9.4563  -7.7034  -6.7581  -0.1369   2.5610   3.5033   4.2929

     occupation numbers 
     1.0000   1.0000   1.0000   1.0000   0.0000   0.0000   0.0000   0.0000

          k =-0.0833 0.4447 0.0000 (  2701 PWs)   bands (ev):

   -18.0701 -10.0785  -8.4073  -6.1325  -0.6142   1.8638   4.3090   5.0662

     occupation numbers 
     1.0000   1.0000   1.0000   1.0000   0.0000   0.0000   0.0000   0.0000

          k =-0.0833 0.5082 0.0000 (  2700 PWs)   bands (ev):

   -17.4638 -10.7138  -9.0665  -5.4318  -1.0529   1.1256   5.2364   5.9622

     occupation numbers 
     1.0000   1.0000   1.0000   1.0000   0.0000   0.0000   0.0000   0.0000

          k =-0.0833 0.5717 0.0000 (  2705 PWs)   bands (ev):

   -16.8073 -11.3920  -9.6093  -4.6674  -1.4175   0.3548   6.2830   6.9534

     occupation numbers 
     1.0000   1.0000   1.0000   1.0000   0.0000   0.0000   0.0000   0.0000

          k =-0.0833 0.6352 0.0000 (  2729 PWs)   bands (ev):

   -16.1319 -12.1035  -9.9930  -3.8542  -1.6874  -0.4483   7.4436   7.9714

     occupation numbers 
     1.0000   1.0000   1.0000   1.0000   0.0000   0.0000   0.0000   0.0000

          k =-0.0833 0.6987 0.0000 (  2730 PWs)   bands (ev):

   -15.5218 -12.7500 -10.2151  -3.0112  -1.8522  -1.2788   8.7060   8.7578

     occupation numbers 
     1.0000   1.0000   1.0000   1.0134   0.0008   0.0000   0.0000   0.0000

          k =-0.0833 0.7623 0.0000 (  2730 PWs)   bands (ev):

   -15.2293 -13.0576 -10.2871  -2.2596  -2.0251  -1.9075   8.9853   9.9154

     occupation numbers 
     1.0000   1.0000   1.0000   0.2026   0.0139   0.0021   0.0000   0.0000

          k =-0.0833-0.6987 0.0000 (  2730 PWs)   bands (ev):

   -15.5216 -12.7510 -10.2142  -3.0105  -1.8523  -1.2797   8.7060   8.7583

     occupation numbers 
     1.0000   1.0000   1.0000   1.0135   0.0008   0.0000   0.0000   0.0000

          k =-0.0833-0.6352 0.0000 (  2729 PWs)   bands (ev):

   -16.1317 -12.1055  -9.9910  -3.8536  -1.6877  -0.4493   7.4436   7.9717

     occupation numbers 
     1.0000   1.0000   1.0000   1.0000   0.0000   0.0000   0.0000   0.0000

          k =-0.0833-0.5717 0.0000 (  2705 PWs)   bands (ev):

   -16.8071 -11.3950  -9.6061  -4.6669  -1.4180   0.3538   6.2830   6.9535

     occupation numbers 
     1.0000   1.0000   1.0000   1.0000   0.0000   0.0000   0.0000   0.0000

          k =-0.0833-0.5082 0.0000 (  2700 PWs)   bands (ev):

   -17.4636 -10.7176  -9.0622  -5.4314  -1.0537   1.1246   5.2364   6.2819

     occupation numbers 
     1.0000   1.0000   1.0000   1.0000   0.0000   0.0000   0.0000   0.0000

          k =-0.0833-0.4447 0.0000 (  2701 PWs)   bands (ev):

   -18.0700 -10.0828  -8.4024  -6.1322  -0.6152   1.8628   4.3090   5.0656

     occupation numbers 
     1.0000   1.0000   1.0000   1.0000   0.0000   0.0000   0.0000   0.0000

          k =-0.0833-0.3811 0.0000 (  2712 PWs)   bands (ev):

   -18.6112  -9.4607  -7.6980  -6.7579  -0.1382   2.5602   3.5033   4.2934

     occupation numbers 
     1.0000   1.0000   1.0000   1.0000   0.0000   0.0000   0.0000   0.0000

          k =-0.0833-0.3176 0.0000 (  2702 PWs)   bands (ev):

   -19.0785  -8.8275  -7.2995  -7.0137   0.3256   2.8205   3.1162   3.7469

     occupation numbers 
     1.0000   1.0000   1.0000   1.0000   0.0000   0.0000   0.0000   0.0000

          k =-0.0833-0.2541 0.0000 (  2698 PWs)   bands (ev):

   -19.4664  -8.1813  -7.7504  -6.3993   0.7186   2.2610   2.9287   3.2856

     occupation numbers 
     1.0000   1.0000   1.0000   1.0000   0.0000   0.0000   0.0000   0.0000

          k =-0.0833-0.1906 0.0000 (  2686 PWs)   bands (ev):

   -19.7714  -8.1056  -7.5427  -5.8973   1.0078   1.8246   2.5329   2.8459

     occupation numbers 
     1.0000   1.0000   1.0000   1.0000   0.0000   0.0000   0.0000   0.0000

          k =-0.0833-0.1270 0.0000 (  2685 PWs)   bands (ev):

   -19.9907  -8.3616  -6.9587  -5.5475   1.2130   1.5104   2.2330   2.5275

     occupation numbers 
     1.0000   1.0000   1.0000   1.0000   0.0000   0.0000   0.0000   0.0000

          k =-0.0833-0.0635 0.0000 (  2681 PWs)   bands (ev):

   -20.1229  -8.5160  -6.5128  -5.3696   1.3190   1.3930   2.0505   2.3209

     occupation numbers 
     1.0000   1.0000   1.0000   1.0000   0.0000   0.0000   0.0000   0.0000

          k =-0.0833 0.0000 0.0000 (  2689 PWs)   bands (ev):

   -20.1671  -8.5677  -6.3342  -5.3280   1.2546   1.5111   1.9894   2.2045

     occupation numbers 
     1.0000   1.0000   1.0000   1.0000   0.0000   0.0000   0.0000   0.0000

          k =-0.0417 0.0318 0.0000 (  2683 PWs)   bands (ev):

   -20.2130  -8.6190  -6.1717  -5.0540   1.1010   1.1989   1.9249   2.1485

     occupation numbers 
     1.0000   1.0000   1.0000   1.0000   0.0000   0.0000   0.0000   0.0000

          k =-0.0417 0.0953 0.0000 (  2681 PWs)   bands (ev):

   -20.1245  -8.5154  -6.3899  -5.3370   1.0207   1.3264   2.0474   2.3409

     occupation numbers 
     1.0000   1.0000   1.0000   1.0000   0.0000   0.0000   0.0000   0.0000

          k =-0.0417 0.1588 0.0000 (  2683 PWs)   bands (ev):

   -19.9481  -8.3090  -6.8012  -5.8072   0.8827   1.5766   2.2909   2.5959

     occupation numbers 
     1.0000   1.0000   1.0000   1.0000   0.0000   0.0000   0.0000   0.0000

          k =-0.0417 0.2223 0.0000 (  2694 PWs)   bands (ev):

   -19.6849  -8.0015  -7.3518  -6.3773   0.6469   1.9494   2.6495   2.9719

     occupation numbers 
     1.0000   1.0000   1.0000   1.0000   0.0000   0.0000   0.0000   0.0000

          k =-0.0417 0.2859 0.0000 (  2694 PWs)   bands (ev):

   -19.3369  -7.9780  -7.5957  -7.0055   0.2887   2.4459   3.0827   3.4717

     occupation numbers 
     1.0000   1.0000   1.0000   1.0000   0.0000   0.0000   0.0000   0.0000

          k =-0.0417 0.3494 0.0000 (  2726 PWs)   bands (ev):

   -18.9070  -8.6370  -7.6660  -7.0955  -0.1683   3.0337   3.0666   3.9087

     occupation numbers 
     1.0000   1.0000   1.0000   1.0000   0.0000   0.0000   0.0000   0.0000

          k =-0.0417 0.4129 0.0000 (  2714 PWs)   bands (ev):

   -18.3992  -9.3206  -8.3194  -6.5064  -0.6677   2.3789   3.8108   4.5827

     occupation numbers 
     1.0000   1.0000   1.0000   1.0000   0.0000   0.0000   0.0000   0.0000

          k =-0.0417 0.4764 0.0000 (  2702 PWs)   bands (ev):

   -17.8201 -10.0494  -8.9090  -5.8357  -1.1505   1.6389   4.6778   5.7174

     occupation numbers 
     1.0000   1.0000   1.0000   1.0000   0.0000   0.0000   0.0000   0.0000

          k =-0.0417 0.5399 0.0000 (  2700 PWs)   bands (ev):

   -17.1798 -10.8362  -9.3872  -5.0931  -1.5716   0.8573   5.6657   6.7161

     occupation numbers 
     1.0000   1.0000   1.0000   1.0000   0.0000   0.0000   0.0000   0.0000

          k =-0.0417 0.6035 0.0000 (  2718 PWs)   bands (ev):

   -16.4977 -11.6549  -9.7400  -4.2906  -1.9029   0.0396   6.7711   7.4052

     occupation numbers 
     1.0000   1.0000   1.0000   1.0000   0.0020   0.0000   0.0000   0.0000

          k =-0.0417 0.6670 0.0000 (  2727 PWs)   bands (ev):

   -15.8203 -12.4379  -9.9711  -3.4434  -2.1293  -0.8103   7.9867   8.4269

     occupation numbers 
     1.0000   1.0000   1.0000   1.0000   0.0544   0.0000   0.0000   0.0000

          k =-0.0417 0.7305 0.0000 (  2731 PWs)   bands (ev):

   -15.2969 -13.0185 -10.0853  -2.5696  -2.2437  -1.6832   9.1148   9.2916

     occupation numbers 
     1.0000   1.0000   1.0000   0.9474   0.1766   0.0000   0.0000   0.0000

          k =-0.0417-0.7305 0.0000 (  2731 PWs)   bands (ev):

   -15.2968 -13.0188 -10.0851  -2.5692  -2.2438  -1.6836   9.1149   9.2915

     occupation numbers 
     1.0000   1.0000   1.0000   0.9468   0.1767   0.0000   0.0000   0.0000

          k =-0.0417-0.6670 0.0000 (  2727 PWs)   bands (ev):

   -15.8202 -12.4386  -9.9704  -3.4431  -2.1294  -0.8108   7.9867   8.4271

     occupation numbers 
     1.0000   1.0000   1.0000   1.0000   0.0544   0.0000   0.0000   0.0000

          k =-0.0417-0.6035 0.0000 (  2718 PWs)   bands (ev):

   -16.4976 -11.6562  -9.7386  -4.2904  -1.9032   0.0391   6.7710   7.4052

     occupation numbers 
     1.0000   1.0000   1.0000   1.0000   0.0020   0.0000   0.0000   0.0000

          k =-0.0417-0.5399 0.0000 (  2700 PWs)   bands (ev):

   -17.1797 -10.8382  -9.3849  -5.0929  -1.5720   0.8568   5.6657   6.3719

     occupation numbers 
     1.0000   1.0000   1.0000   1.0000   0.0000   0.0000   0.0000   0.0000

          k =-0.0417-0.4764 0.0000 (  2702 PWs)   bands (ev):

   -17.8200 -10.0524  -8.9056  -5.8356  -1.1510   1.6383   4.6778   5.4201

     occupation numbers 
     1.0000   1.0000   1.0000   1.0000   0.0000   0.0000   0.0000   0.0000

          k =-0.0417-0.4129 0.0000 (  2714 PWs)   bands (ev):

   -18.3992  -9.3245  -8.3150  -6.5062  -0.6683   2.3784   3.8108   4.5830

     occupation numbers 
     1.0000   1.0000   1.0000   1.0000   0.0000   0.0000   0.0000   0.0000

          k =-0.0417-0.3494 0.0000 (  2726 PWs)   bands (ev):

   -18.9070  -8.6415  -7.6609  -7.0954  -0.1691   3.0334   3.0667   3.9087

     occupation numbers 
     1.0000   1.0000   1.0000   1.0000   0.0000   0.0000   0.0000   0.0000

          k =-0.0417-0.2859 0.0000 (  2694 PWs)   bands (ev):

   -19.3369  -7.9827  -7.5956  -7.0001   0.2877   2.4459   3.0827   3.4717

     occupation numbers 
     1.0000   1.0000   1.0000   1.0000   0.0000   0.0000   0.0000   0.0000

          k =-0.0417-0.2223 0.0000 (  2694 PWs)   bands (ev):

   -19.6849  -8.0015  -7.3565  -6.3718   0.6456   1.9494   2.6495   2.9719

     occupation numbers 
     1.0000   1.0000   1.0000   1.0000   0.0000   0.0000   0.0000   0.0000

          k =-0.0417-0.1588 0.0000 (  2683 PWs)   bands (ev):

   -19.9481  -8.3090  -6.8054  -5.8022   0.8812   1.5766   2.2909   2.5960

     occupation numbers 
     1.0000   1.0000   1.0000   1.0000   0.0000   0.0000   0.0000   0.0000

          k =-0.0417-0.0953 0.0000 (  2681 PWs)   bands (ev):

   -20.1245  -8.5154  -6.3928  -5.3334   1.0190   1.3263   2.0474   2.3410

     occupation numbers 
     1.0000   1.0000   1.0000   1.0000   0.0000   0.0000   0.0000   0.0000

          k =-0.0417-0.0318 0.0000 (  2683 PWs)   bands (ev):

   -20.2130  -8.6190  -6.1728  -5.0527   1.1001   1.1989   1.9249   2.1486

     occupation numbers 
     1.0000   1.0000   1.0000   1.0000   0.0000   0.0000   0.0000   0.0000

     the Fermi energy is    -2.3520 ev

!    total energy              =     -36.72558542 Ry
     total all-electron energy =      -152.253780 Ry
     estimated scf accuracy    <          5.8E-09 Ry
     smearing contrib. (-TS)   =      -0.00003513 Ry
     internal energy E=F+TS    =     -36.72555028 Ry

     The total energy is F=E-TS. E is the sum of the following terms:
     one-electron contribution =    -131.46582221 Ry
     hartree contribution      =      67.18970598 Ry
     xc contribution           =      -8.94143284 Ry
     ewald contribution        =      48.82074910 Ry
     one-center paw contrib.   =     -12.32875031 Ry
      -> PAW hartree energy AE =       7.76872870 Ry
      -> PAW hartree energy PS =      -7.76070930 Ry
      -> PAW xc energy AE      =     -10.24919890 Ry
      -> PAW xc energy PS      =       4.07680238 Ry
      -> total E_H with PAW    =      67.19772538 Ry
      -> total E_XC with PAW   =     -15.11382936 Ry

     convergence has been achieved in   7 iterations

     negative rho (up, down):  1.970E-03 0.000E+00

     Forces acting on atoms (cartesian axes, Ry/au):

     atom    1 type  1   force =    -0.00001976   -0.00021409    0.00000004
     atom    2 type  1   force =     0.00001976    0.00021409   -0.00000004
     The non-local contrib.  to forces
     atom    1 type  1   force =    -0.00029307    0.28446109   -0.00002041
     atom    2 type  1   force =    -0.00019453   -0.28447924   -0.00002066
     The ionic contribution  to forces
     atom    1 type  1   force =    -0.00086613    2.04273696   -0.00000000
     atom    2 type  1   force =     0.00086613   -2.04273696    0.00000000
     The local contribution  to forces
     atom    1 type  1   force =     0.00105128   -2.31636095    0.00013063
     atom    2 type  1   force =    -0.00053345    2.31640122    0.00013089
     The core correction contribution to forces
     atom    1 type  1   force =    -0.00032459   -0.01128741    0.00000078
     atom    2 type  1   force =    -0.00053139    0.01070563    0.00000080
     The Hubbard contrib.    to forces
     atom    1 type  1   force =     0.00000000    0.00000000    0.00000000
     atom    2 type  1   force =     0.00000000    0.00000000    0.00000000
     The SCF correction term to forces
     atom    1 type  1   force =    -0.00000005   -0.00003035   -0.00000000
     atom    2 type  1   force =     0.00000019    0.00005686   -0.00000000

     Total force =     0.000304     Total SCF correction =     0.000064
     SCF correction compared to forces is large: reduce conv_thr to get better values

     BFGS Geometry Optimization
     Energy error            =      0.0E+00 Ry
     Gradient error          =      2.1E-04 Ry/Bohr

     number of scf cycles    =   1
     number of bfgs steps    =   0

     energy             new  =     -36.7255854163 Ry

     new trust radius        =       0.0002150040 bohr
     new conv_thr            =       0.0000000100 Ry


ATOMIC_POSITIONS (crystal)
C                0.0001365505       -0.0001968654        0.0000000000    1   1   0
C                0.3331964495        0.3335298654        0.0000000000    1   1   0



     Writing config-only to output data dir ./tmp/graphene26.3.save/ :
     XML data file
     NEW-OLD atomic charge density approx. for the potential

     Check: negative core charge=   -0.000013

     negative rho (up, down):  1.970E-03 0.000E+00

     total cpu time spent up to now is       12.2 secs

     per-process dynamical memory:    44.0 Mb

     Self-consistent Calculation

     iteration #  1     ecut=    40.00 Ry     beta= 0.70
     Davidson diagonalization with overlap

---- Real-time Memory Report at c_bands before calling an iterative solver
            86 MiB given to the printing process from OS
            42 MiB allocation reported by mallinfo(arena+hblkhd)
         26955 MiB available memory on the node where the printing process lives
------------------
     ethr =  1.00E-06,  avg # of iterations =  2.0

     Threshold (ethr) on eigenvalues was too large:
     Diagonalizing with lowered threshold

     Davidson diagonalization with overlap

---- Real-time Memory Report at c_bands before calling an iterative solver
            86 MiB given to the printing process from OS
            42 MiB allocation reported by mallinfo(arena+hblkhd)
         26962 MiB available memory on the node where the printing process lives
------------------
     ethr =  5.47E-10,  avg # of iterations =  2.2

     negative rho (up, down):  1.970E-03 0.000E+00

     total cpu time spent up to now is       14.3 secs

     total energy              =     -36.72558541 Ry
     estimated scf accuracy    <       0.00000005 Ry

     iteration #  2     ecut=    40.00 Ry     beta= 0.70
     Davidson diagonalization with overlap

---- Real-time Memory Report at c_bands before calling an iterative solver
            86 MiB given to the printing process from OS
            49 MiB allocation reported by mallinfo(arena+hblkhd)
         26971 MiB available memory on the node where the printing process lives
------------------
     ethr =  6.09E-10,  avg # of iterations =  2.1

     negative rho (up, down):  1.970E-03 0.000E+00

     total cpu time spent up to now is       15.4 secs

     total energy              =     -36.72558542 Ry
     estimated scf accuracy    <       0.00000002 Ry

     iteration #  3     ecut=    40.00 Ry     beta= 0.70
     Davidson diagonalization with overlap

---- Real-time Memory Report at c_bands before calling an iterative solver
            86 MiB given to the printing process from OS
            50 MiB allocation reported by mallinfo(arena+hblkhd)
         26982 MiB available memory on the node where the printing process lives
------------------
     ethr =  2.66E-10,  avg # of iterations =  2.0

     negative rho (up, down):  1.970E-03 0.000E+00

     total cpu time spent up to now is       16.4 secs

     End of self-consistent calculation

          k = 0.0000 0.0000 0.0000 (  2683 PWs)   bands (ev):

   -20.2435  -8.6538  -6.0806  -4.8984   0.9717   1.1591   1.8830   2.0297

     occupation numbers 
     1.0000   1.0000   1.0000   1.0000   0.0000   0.0000   0.0000   0.0000

          k = 0.0000 0.0635 0.0000 (  2681 PWs)   bands (ev):

   -20.1992  -8.6019  -6.1672  -5.0882   0.9497   1.2238   1.9442   2.2419

     occupation numbers 
     1.0000   1.0000   1.0000   1.0000   0.0000   0.0000   0.0000   0.0000

          k = 0.0000 0.1270 0.0000 (  2681 PWs)   bands (ev):

   -20.0665  -8.4465  -6.4199  -5.5792   0.8721   1.4119   2.1278   2.4301

     occupation numbers 
     1.0000   1.0000   1.0000   1.0000   0.0000   0.0000   0.0000   0.0000

          k = 0.0000 0.1906 0.0000 (  2683 PWs)   bands (ev):

   -19.8464  -8.1888  -6.8201  -6.2259   0.7002   1.7220   2.4309   2.7427

     occupation numbers 
     1.0000   1.0000   1.0000   1.0000   0.0000   0.0000   0.0000   0.0000

          k = 0.0000 0.2541 0.0000 (  2696 PWs)   bands (ev):

   -19.5403  -7.8311  -7.3466  -6.9176   0.4010   2.1558   2.8418   3.1797

     occupation numbers 
     1.0000   1.0000   1.0000   1.0000   0.0000   0.0000   0.0000   0.0000

          k = 0.0000 0.3176 0.0000 (  2722 PWs)   bands (ev):

   -19.1505  -7.9790  -7.5902  -7.3766  -0.0189   2.7140   3.2181   3.7415

     occupation numbers 
     1.0000   1.0000   1.0000   1.0000   0.0000   0.0000   0.0000   0.0000

          k = 0.0000 0.3811 0.0000 (  2700 PWs)   bands (ev):

   -18.6803  -8.6994  -8.2074  -6.8298  -0.5122   2.7814   3.3965   4.1918

     occupation numbers 
     1.0000   1.0000   1.0000   1.0000   0.0000   0.0000   0.0000   0.0000

          k = 0.0000 0.4447 0.0000 (  2712 PWs)   bands (ev):

   -18.1350  -9.4909  -8.7492  -6.1973  -1.0173   2.0666   4.2023   4.9586

     occupation numbers 
     1.0000   1.0000   1.0000   1.0000   0.0000   0.0000   0.0000   0.0000

          k = 0.0000 0.5082 0.0000 (  2692 PWs)   bands (ev):

   -17.5221 -10.3327  -9.2032  -5.4869  -1.4801   1.2961   5.1302   5.8570

     occupation numbers 
     1.0000   1.0000   1.0000   1.0000   0.0000   0.0000   0.0000   0.0000

          k = 0.0000 0.5717 0.0000 (  2710 PWs)   bands (ev):

   -16.8551 -11.1979  -9.5623  -4.7096  -1.8641   0.4860   6.1776   6.8576

     occupation numbers 
     1.0000   1.0000   1.0000   1.0000   0.0010   0.0000   0.0000   0.0000

          k = 0.0000 0.6352 0.0000 (  2736 PWs)   bands (ev):

   -16.1623 -12.0445  -9.8216  -3.8785  -2.1480  -0.3591   7.3397   7.9148

     occupation numbers 
     1.0000   1.0000   1.0000   1.0000   0.0677   0.0000   0.0000   0.0000

          k = 0.0000 0.6987 0.0000 (  2726 PWs)   bands (ev):

   -15.5235 -12.7805  -9.9780  -3.0096  -2.3212  -1.2321   8.6057   8.8719

     occupation numbers 
     1.0000   1.0000   1.0000   1.0136   0.3270   0.0000   0.0000   0.0000

          k = 0.0000-0.7623 0.0000 (  2734 PWs)   bands (ev):

   -15.2069 -13.1305 -10.0304  -2.3793  -2.1298  -2.1126   9.2870   9.8277

     occupation numbers 
     1.0000   1.0000   1.0000   0.4720   0.0549   0.0447   0.0000   0.0000

          k = 0.0000-0.6987 0.0000 (  2726 PWs)   bands (ev):

   -15.5235 -12.7805  -9.9780  -3.0096  -2.3212  -1.2321   8.6057   8.8718

     occupation numbers 
     1.0000   1.0000   1.0000   1.0136   0.3270   0.0000   0.0000   0.0000

          k = 0.0000-0.6352 0.0000 (  2736 PWs)   bands (ev):

   -16.1623 -12.0445  -9.8216  -3.8785  -2.1480  -0.3591   7.3397   7.9148

     occupation numbers 
     1.0000   1.0000   1.0000   1.0000   0.0677   0.0000   0.0000   0.0000

          k = 0.0000-0.5717 0.0000 (  2710 PWs)   bands (ev):

   -16.8551 -11.1979  -9.5623  -4.7096  -1.8641   0.4860   6.1776   6.8577

     occupation numbers 
     1.0000   1.0000   1.0000   1.0000   0.0010   0.0000   0.0000   0.0000

          k = 0.0000-0.5082 0.0000 (  2692 PWs)   bands (ev):

   -17.5221 -10.3327  -9.2032  -5.4869  -1.4801   1.2961   5.1302   5.8570

     occupation numbers 
     1.0000   1.0000   1.0000   1.0000   0.0000   0.0000   0.0000   0.0000

          k = 0.0000-0.4447 0.0000 (  2712 PWs)   bands (ev):

   -18.1350  -9.4909  -8.7492  -6.1973  -1.0173   2.0666   4.2023   4.9586

     occupation numbers 
     1.0000   1.0000   1.0000   1.0000   0.0000   0.0000   0.0000   0.0000

          k = 0.0000-0.3811 0.0000 (  2700 PWs)   bands (ev):

   -18.6803  -8.6994  -8.2074  -6.8298  -0.5122   2.7814   3.3965   4.1918

     occupation numbers 
     1.0000   1.0000   1.0000   1.0000   0.0000   0.0000   0.0000   0.0000

          k = 0.0000-0.3176 0.0000 (  2722 PWs)   bands (ev):

   -19.1505  -7.9790  -7.5902  -7.3766  -0.0189   2.7140   3.2182   3.7426

     occupation numbers 
     1.0000   1.0000   1.0000   1.0000   0.0000   0.0000   0.0000   0.0000

          k = 0.0000-0.2541 0.0000 (  2696 PWs)   bands (ev):

   -19.5403  -7.8311  -7.3466  -6.9176   0.4010   2.1558   2.8419   3.1797

     occupation numbers 
     1.0000   1.0000   1.0000   1.0000   0.0000   0.0000   0.0000   0.0000

          k = 0.0000-0.1906 0.0000 (  2683 PWs)   bands (ev):

   -19.8464  -8.1888  -6.8201  -6.2259   0.7002   1.7220   2.4309   2.7427

     occupation numbers 
     1.0000   1.0000   1.0000   1.0000   0.0000   0.0000   0.0000   0.0000

          k = 0.0000-0.1270 0.0000 (  2681 PWs)   bands (ev):

   -20.0665  -8.4465  -6.4199  -5.5792   0.8721   1.4119   2.1278   2.4301

     occupation numbers 
     1.0000   1.0000   1.0000   1.0000   0.0000   0.0000   0.0000   0.0000

          k = 0.0000-0.0635 0.0000 (  2681 PWs)   bands (ev):

   -20.1992  -8.6019  -6.1672  -5.0882   0.9497   1.2238   1.9442   2.2419

     occupation numbers 
     1.0000   1.0000   1.0000   1.0000   0.0000   0.0000   0.0000   0.0000

          k = 0.0417-0.0318 0.0000 (  2683 PWs)   bands (ev):

   -20.2134  -8.6194  -6.1741  -5.0517   1.1010   1.1989   1.9248   2.1470

     occupation numbers 
     1.0000   1.0000   1.0000   1.0000   0.0000   0.0000   0.0000   0.0000

          k = 0.0417 0.0318 0.0000 (  2683 PWs)   bands (ev):

   -20.2134  -8.6194  -6.1750  -5.0505   1.1001   1.1988   1.9249   2.1486

     occupation numbers 
     1.0000   1.0000   1.0000   1.0000   0.0000   0.0000   0.0000   0.0000

          k = 0.0417 0.0953 0.0000 (  2681 PWs)   bands (ev):

   -20.1250  -8.5157  -6.3947  -5.3318   1.0190   1.3263   2.0473   2.3409

     occupation numbers 
     1.0000   1.0000   1.0000   1.0000   0.0000   0.0000   0.0000   0.0000

          k = 0.0417 0.1588 0.0000 (  2683 PWs)   bands (ev):

   -19.9486  -8.3093  -6.8068  -5.8014   0.8813   1.5765   2.2908   2.5958

     occupation numbers 
     1.0000   1.0000   1.0000   1.0000   0.0000   0.0000   0.0000   0.0000

          k = 0.0417 0.2223 0.0000 (  2694 PWs)   bands (ev):

   -19.6854  -8.0018  -7.3575  -6.3717   0.6459   1.9494   2.6494   2.9718

     occupation numbers 
     1.0000   1.0000   1.0000   1.0000   0.0000   0.0000   0.0000   0.0000

          k = 0.0417 0.2859 0.0000 (  2694 PWs)   bands (ev):

   -19.3375  -7.9835  -7.5959  -7.0002   0.2882   2.4458   3.0824   3.4716

     occupation numbers 
     1.0000   1.0000   1.0000   1.0000   0.0000   0.0000   0.0000   0.0000

          k = 0.0417 0.3494 0.0000 (  2726 PWs)   bands (ev):

   -18.9076  -8.6422  -7.6611  -7.0958  -0.1683   3.0335   3.0664   3.9091

     occupation numbers 
     1.0000   1.0000   1.0000   1.0000   0.0000   0.0000   0.0000   0.0000

          k = 0.0417 0.4129 0.0000 (  2714 PWs)   bands (ev):

   -18.4000  -9.3253  -8.3150  -6.5066  -0.6673   2.3786   3.8107   4.5822

     occupation numbers 
     1.0000   1.0000   1.0000   1.0000   0.0000   0.0000   0.0000   0.0000

          k = 0.0417 0.4764 0.0000 (  2702 PWs)   bands (ev):

   -17.8209 -10.0533  -8.9054  -5.8359  -1.1498   1.6384   4.6777   5.4201

     occupation numbers 
     1.0000   1.0000   1.0000   1.0000   0.0000   0.0000   0.0000   0.0000

          k = 0.0417 0.5399 0.0000 (  2700 PWs)   bands (ev):

   -17.1808 -10.8390  -9.3846  -5.0933  -1.5707   0.8568   5.6656   6.3719

     occupation numbers 
     1.0000   1.0000   1.0000   1.0000   0.0000   0.0000   0.0000   0.0000

          k = 0.0417 0.6035 0.0000 (  2718 PWs)   bands (ev):

   -16.4989 -11.6567  -9.7383  -4.2908  -1.9019   0.0390   6.7709   7.4052

     occupation numbers 
     1.0000   1.0000   1.0000   1.0000   0.0019   0.0000   0.0000   0.0000

          k = 0.0417 0.6670 0.0000 (  2727 PWs)   bands (ev):

   -15.8219 -12.4386  -9.9700  -3.4436  -2.1281  -0.8110   7.9866   8.4274

     occupation numbers 
     1.0000   1.0000   1.0000   1.0000   0.0538   0.0000   0.0000   0.0000

          k = 0.0417-0.7940 0.0000 (  2731 PWs)   bands (ev):

   -15.2992 -13.0182 -10.0848  -2.5697  -2.2424  -1.6837   9.1156   9.2913

     occupation numbers 
     1.0000   1.0000   1.0000   0.9482   0.1751   0.0000   0.0000   0.0000

          k = 0.0417-0.7305 0.0000 (  2731 PWs)   bands (ev):

   -15.2992 -13.0179 -10.0850  -2.5700  -2.2424  -1.6834   9.1155   9.2914

     occupation numbers 
     1.0000   1.0000   1.0000   0.9487   0.1750   0.0000   0.0000   0.0000

          k = 0.0417-0.6670 0.0000 (  2727 PWs)   bands (ev):

   -15.8220 -12.4380  -9.9707  -3.4438  -2.1280  -0.8105   7.9866   8.4272

     occupation numbers 
     1.0000   1.0000   1.0000   1.0000   0.0537   0.0000   0.0000   0.0000

          k = 0.0417-0.6035 0.0000 (  2718 PWs)   bands (ev):

   -16.4990 -11.6555  -9.7395  -4.2910  -1.9017   0.0394   6.7710   7.4052

     occupation numbers 
     1.0000   1.0000   1.0000   1.0000   0.0019   0.0000   0.0000   0.0000

          k = 0.0417-0.5399 0.0000 (  2700 PWs)   bands (ev):

   -17.1808 -10.8371  -9.3867  -5.0935  -1.5704   0.8572   5.6656   6.3718

     occupation numbers 
     1.0000   1.0000   1.0000   1.0000   0.0000   0.0000   0.0000   0.0000

          k = 0.0417-0.4764 0.0000 (  2702 PWs)   bands (ev):

   -17.8209 -10.0504  -8.9086  -5.8361  -1.1494   1.6389   4.6777   5.7182

     occupation numbers 
     1.0000   1.0000   1.0000   1.0000   0.0000   0.0000   0.0000   0.0000

          k = 0.0417-0.4129 0.0000 (  2714 PWs)   bands (ev):

   -18.4000  -9.3217  -8.3191  -6.5067  -0.6667   2.3790   3.8107   4.5822

     occupation numbers 
     1.0000   1.0000   1.0000   1.0000   0.0000   0.0000   0.0000   0.0000

          k = 0.0417-0.3494 0.0000 (  2726 PWs)   bands (ev):

   -18.9077  -8.6380  -7.6658  -7.0959  -0.1676   3.0339   3.0665   3.9087

     occupation numbers 
     1.0000   1.0000   1.0000   1.0000   0.0000   0.0000   0.0000   0.0000

          k = 0.0417-0.2859 0.0000 (  2694 PWs)   bands (ev):

   -19.3375  -7.9791  -7.5960  -7.0053   0.2892   2.4458   3.0824   3.4716

     occupation numbers 
     1.0000   1.0000   1.0000   1.0000   0.0000   0.0000   0.0000   0.0000

          k = 0.0417-0.2223 0.0000 (  2694 PWs)   bands (ev):

   -19.6855  -8.0019  -7.3531  -6.3768   0.6471   1.9494   2.6493   2.9718

     occupation numbers 
     1.0000   1.0000   1.0000   1.0000   0.0000   0.0000   0.0000   0.0000

          k = 0.0417-0.1588 0.0000 (  2683 PWs)   bands (ev):

   -19.9486  -8.3093  -6.8029  -5.8061   0.8827   1.5765   2.2908   2.5958

     occupation numbers 
     1.0000   1.0000   1.0000   1.0000   0.0000   0.0000   0.0000   0.0000

          k = 0.0417-0.0953 0.0000 (  2681 PWs)   bands (ev):

   -20.1250  -8.5158  -6.3920  -5.3351   1.0206   1.3263   2.0472   2.3408

     occupation numbers 
     1.0000   1.0000   1.0000   1.0000   0.0000   0.0000   0.0000   0.0000

          k = 0.0833-0.0635 0.0000 (  2681 PWs)   bands (ev):

   -20.1234  -8.5164  -6.5113  -5.3721   1.3190   1.3955   2.0504   2.3202

     occupation numbers 
     1.0000   1.0000   1.0000   1.0000   0.0000   0.0000   0.0000   0.0000

          k = 0.0833-0.0000 0.0000 (  2689 PWs)   bands (ev):

   -20.1676  -8.5680  -6.3365  -5.3258   1.2545   1.5113   1.9893   2.2033

     occupation numbers 
     1.0000   1.0000   1.0000   1.0000   0.0000   0.0000   0.0000   0.0000

          k = 0.0833 0.0635 0.0000 (  2681 PWs)   bands (ev):

   -20.1234  -8.5164  -6.5145  -5.3682   1.3189   1.3929   2.0504   2.3205

     occupation numbers 
     1.0000   1.0000   1.0000   1.0000   0.0000   0.0000   0.0000   0.0000

          k = 0.0833 0.1270 0.0000 (  2685 PWs)   bands (ev):

   -19.9912  -8.3619  -6.9597  -5.5469   1.2129   1.5103   2.2329   2.5274

     occupation numbers 
     1.0000   1.0000   1.0000   1.0000   0.0000   0.0000   0.0000   0.0000

          k = 0.0833 0.1906 0.0000 (  2686 PWs)   bands (ev):

   -19.7719  -8.1059  -7.5434  -5.8974   1.0079   1.8245   2.5327   2.8458

     occupation numbers 
     1.0000   1.0000   1.0000   1.0000   0.0000   0.0000   0.0000   0.0000

          k = 0.0833 0.2541 0.0000 (  2698 PWs)   bands (ev):

   -19.4670  -8.1817  -7.7507  -6.3998   0.7190   2.2610   2.9284   3.2855

     occupation numbers 
     1.0000   1.0000   1.0000   1.0000   0.0000   0.0000   0.0000   0.0000

          k = 0.0833 0.3176 0.0000 (  2702 PWs)   bands (ev):

   -19.0791  -8.8279  -7.2999  -7.0142   0.3262   2.8204   3.1163   3.7458

     occupation numbers 
     1.0000   1.0000   1.0000   1.0000   0.0000   0.0000   0.0000   0.0000

          k = 0.0833 0.3811 0.0000 (  2712 PWs)   bands (ev):

   -18.6119  -9.4611  -7.6985  -6.7583  -0.1373   2.5605   3.5032   4.2928

     occupation numbers 
     1.0000   1.0000   1.0000   1.0000   0.0000   0.0000   0.0000   0.0000

          k = 0.0833 0.4447 0.0000 (  2701 PWs)   bands (ev):

   -18.0708 -10.0832  -8.4027  -6.1326  -0.6141   1.8630   4.3089   5.0655

     occupation numbers 
     1.0000   1.0000   1.0000   1.0000   0.0000   0.0000   0.0000   0.0000

          k = 0.0833 0.5082 0.0000 (  2700 PWs)   bands (ev):

   -17.4646 -10.7180  -9.0623  -5.4318  -1.0525   1.1248   5.2363   5.9626

     occupation numbers 
     1.0000   1.0000   1.0000   1.0000   0.0000   0.0000   0.0000   0.0000

          k = 0.0833 0.5717 0.0000 (  2705 PWs)   bands (ev):

   -16.8083 -11.3954  -9.6059  -4.6673  -1.4168   0.3538   6.2829   6.9535

     occupation numbers 
     1.0000   1.0000   1.0000   1.0000   0.0000   0.0000   0.0000   0.0000

          k = 0.0833 0.6352 0.0000 (  2729 PWs)   bands (ev):

   -16.1332 -12.1057  -9.9907  -3.8541  -1.6865  -0.4493   7.4435   7.9718

     occupation numbers 
     1.0000   1.0000   1.0000   1.0000   0.0000   0.0000   0.0000   0.0000

          k = 0.0833-0.8258 0.0000 (  2730 PWs)   bands (ev):

   -15.5236 -12.7507 -10.2138  -3.0111  -1.8511  -1.2796   8.7058   8.7588

     occupation numbers 
     1.0000   1.0000   1.0000   1.0134   0.0008   0.0000   0.0000   0.0000

          k = 0.0833-0.7623 0.0000 (  2730 PWs)   bands (ev):

   -15.2318 -13.0569 -10.2867  -2.2616  -2.0236  -1.9062   8.9861   9.9148

     occupation numbers 
     1.0000   1.0000   1.0000   0.2066   0.0137   0.0021   0.0000   0.0000

          k = 0.0833-0.6987 0.0000 (  2730 PWs)   bands (ev):

   -15.5239 -12.7497 -10.2147  -3.0117  -1.8509  -1.2788   8.7059   8.7584

     occupation numbers 
     1.0000   1.0000   1.0000   1.0133   0.0008   0.0000   0.0000   0.0000

          k = 0.0833-0.6352 0.0000 (  2729 PWs)   bands (ev):

   -16.1334 -12.1038  -9.9926  -3.8546  -1.6861  -0.4484   7.4435   7.9716

     occupation numbers 
     1.0000   1.0000   1.0000   1.0000   0.0000   0.0000   0.0000   0.0000

          k = 0.0833-0.5717 0.0000 (  2705 PWs)   bands (ev):

   -16.8085 -11.3927  -9.6089  -4.6678  -1.4163   0.3547   6.2829   6.9535

     occupation numbers 
     1.0000   1.0000   1.0000   1.0000   0.0000   0.0000   0.0000   0.0000

          k = 0.0833-0.5082 0.0000 (  2700 PWs)   bands (ev):

   -17.4648 -10.7145  -9.0662  -5.4321  -1.0518   1.1257   5.2363   5.9621

     occupation numbers 
     1.0000   1.0000   1.0000   1.0000   0.0000   0.0000   0.0000   0.0000

          k = 0.0833-0.4447 0.0000 (  2701 PWs)   bands (ev):

   -18.0709 -10.0793  -8.4073  -6.1329  -0.6132   1.8639   4.3089   5.0655

     occupation numbers 
     1.0000   1.0000   1.0000   1.0000   0.0000   0.0000   0.0000   0.0000

          k = 0.0833-0.3811 0.0000 (  2712 PWs)   bands (ev):

   -18.6120  -9.4570  -7.7035  -6.7585  -0.1361   2.5613   3.5031   4.2926

     occupation numbers 
     1.0000   1.0000   1.0000   1.0000   0.0000   0.0000   0.0000   0.0000

          k = 0.0833-0.3176 0.0000 (  2702 PWs)   bands (ev):

   -19.0792  -8.8236  -7.3001  -7.0195   0.3277   2.8204   3.1167   3.7461

     occupation numbers 
     1.0000   1.0000   1.0000   1.0000   0.0000   0.0000   0.0000   0.0000

          k = 0.0833-0.2541 0.0000 (  2698 PWs)   bands (ev):

   -19.4670  -8.1773  -7.7509  -6.4054   0.7210   2.2610   2.9284   3.2855

     occupation numbers 
     1.0000   1.0000   1.0000   1.0000   0.0000   0.0000   0.0000   0.0000

          k = 0.0833-0.1906 0.0000 (  2686 PWs)   bands (ev):

   -19.7719  -8.1060  -7.5389  -5.9033   1.0104   1.8245   2.5327   2.8458

     occupation numbers 
     1.0000   1.0000   1.0000   1.0000   0.0000   0.0000   0.0000   0.0000

          k = 0.0833-0.1270 0.0000 (  2685 PWs)   bands (ev):

   -19.9912  -8.3620  -6.9554  -5.5525   1.2157   1.5103   2.2329   2.5273

     occupation numbers 
     1.0000   1.0000   1.0000   1.0000   0.0000   0.0000   0.0000   0.0000

          k = 0.1250-0.0953 0.0000 (  2690 PWs)   bands (ev):

   -19.9742  -8.3461  -7.1512  -5.6452   1.5216   1.7382   2.2585   2.5421

     occupation numbers 
     1.0000   1.0000   1.0000   1.0000   0.0000   0.0000   0.0000   0.0000

          k = 0.1250-0.0318 0.0000 (  2690 PWs)   bands (ev):

   -20.0620  -8.4484  -6.7031  -5.7449   1.3949   2.0189   2.1375   2.3892

     occupation numbers 
     1.0000   1.0000   1.0000   1.0000   0.0000   0.0000   0.0000   0.0000

          k = 0.1250 0.0318 0.0000 (  2690 PWs)   bands (ev):

   -20.0620  -8.4484  -6.7056  -5.7420   1.3949   2.0162   2.1375   2.3899

     occupation numbers 
     1.0000   1.0000   1.0000   1.0000   0.0000   0.0000   0.0000   0.0000

          k = 0.1250 0.0953 0.0000 (  2690 PWs)   bands (ev):

   -19.9742  -8.3460  -7.1555  -5.6397   1.5214   1.7348   2.2585   2.5423

     occupation numbers 
     1.0000   1.0000   1.0000   1.0000   0.0000   0.0000   0.0000   0.0000

          k = 0.1250 0.1588 0.0000 (  2685 PWs)   bands (ev):

   -19.7990  -8.1423  -7.7663  -5.7012   1.4850   1.7820   2.4973   2.8014

     occupation numbers 
     1.0000   1.0000   1.0000   1.0000   0.0000   0.0000   0.0000   0.0000

          k = 0.1250 0.2223 0.0000 (  2693 PWs)   bands (ev):

   -19.5380  -8.4231  -7.8391  -5.9871   1.2387   2.1583   2.8372   3.1818

     occupation numbers 
     1.0000   1.0000   1.0000   1.0000   0.0000   0.0000   0.0000   0.0000

          k = 0.1250 0.2859 0.0000 (  2708 PWs)   bands (ev):

   -19.1934  -9.0766  -7.4397  -6.4698   0.9206   2.6577   3.0804   3.6715

     occupation numbers 
     1.0000   1.0000   1.0000   1.0000   0.0000   0.0000   0.0000   0.0000

          k = 0.1250 0.3494 0.0000 (  2694 PWs)   bands (ev):

   -18.7684  -9.7014  -7.0978  -6.9484   0.5197   2.6185   3.2795   4.0873

     occupation numbers 
     1.0000   1.0000   1.0000   1.0000   0.0000   0.0000   0.0000   0.0000

          k = 0.1250 0.4129 0.0000 (  2710 PWs)   bands (ev):

   -18.2682 -10.2871  -7.8177  -6.3718   0.0746   1.9652   4.0240   4.7940

     occupation numbers 
     1.0000   1.0000   1.0000   1.0000   0.0000   0.0000   0.0000   0.0000

          k = 0.1250 0.4764 0.0000 (  2695 PWs)   bands (ev):

   -17.7005 -10.8371  -8.5721  -5.7183  -0.3605   1.2763   4.8904   5.6336

     occupation numbers 
     1.0000   1.0000   1.0000   1.0000   0.0000   0.0000   0.0000   0.0000

          k = 0.1250 0.5399 0.0000 (  2704 PWs)   bands (ev):

   -17.0783 -11.3710  -9.2927  -4.9995  -0.7427   0.5644   5.8771   6.5762

     occupation numbers 
     1.0000   1.0000   1.0000   1.0000   0.0000   0.0000   0.0000   0.0000

          k = 0.1250 0.6035 0.0000 (  2709 PWs)   bands (ev):

   -16.4259 -11.9181  -9.8972  -4.2303  -1.0445  -0.1720   6.9800   7.5705

     occupation numbers 
     1.0000   1.0000   1.0000   1.0000   0.0000   0.0000   0.0000   0.0000

          k = 0.1250-0.8576 0.0000 (  2728 PWs)   bands (ev):

   -15.7983 -12.4728 -10.3151  -3.4319  -1.2512  -0.9333   8.1907   8.3992

     occupation numbers 
     1.0000   1.0000   1.0000   1.0000   0.0000   0.0000   0.0000   0.0000

          k = 0.1250-0.7940 0.0000 (  2726 PWs)   bands (ev):

   -15.3433 -12.8976 -10.5215  -2.6541  -1.6872  -1.3559   8.6826   9.4825

     occupation numbers 
     1.0000   1.0000   1.0000   1.0550   0.0000   0.0000   0.0000   0.0000

          k = 0.1250-0.7305 0.0000 (  2726 PWs)   bands (ev):

   -15.3435 -12.8968 -10.5222  -2.6550  -1.6862  -1.3558   8.6823   9.4825

     occupation numbers 
     1.0000   1.0000   1.0000   1.0556   0.0000   0.0000   0.0000   0.0000

          k = 0.1250-0.6670 0.0000 (  2728 PWs)   bands (ev):

   -15.7987 -12.4707 -10.3172  -3.4327  -1.2509  -0.9321   8.1908   8.3986

     occupation numbers 
     1.0000   1.0000   1.0000   1.0000   0.0000   0.0000   0.0000   0.0000

          k = 0.1250-0.6035 0.0000 (  2709 PWs)   bands (ev):

   -16.4262 -11.9150  -9.9005  -4.2310  -1.0439  -0.1706   6.9800   7.5703

     occupation numbers 
     1.0000   1.0000   1.0000   1.0000   0.0000   0.0000   0.0000   0.0000

          k = 0.1250-0.5399 0.0000 (  2704 PWs)   bands (ev):

   -17.0786 -11.3673  -9.2968  -5.0001  -0.7419   0.5658   5.8771   6.5761

     occupation numbers 
     1.0000   1.0000   1.0000   1.0000   0.0000   0.0000   0.0000   0.0000

          k = 0.1250-0.4764 0.0000 (  2695 PWs)   bands (ev):

   -17.7007 -10.8332  -8.5767  -5.7188  -0.3594   1.2776   4.8904   5.6337

     occupation numbers 
     1.0000   1.0000   1.0000   1.0000   0.0000   0.0000   0.0000   0.0000

          k = 0.1250-0.4129 0.0000 (  2710 PWs)   bands (ev):

   -18.2683 -10.2832  -7.8226  -6.3722   0.0760   1.9664   4.0240   4.7943

     occupation numbers 
     1.0000   1.0000   1.0000   1.0000   0.0000   0.0000   0.0000   0.0000

          k = 0.1250-0.3494 0.0000 (  2694 PWs)   bands (ev):

   -18.7685  -9.6974  -7.1030  -6.9487   0.5216   2.6195   3.2796   4.0869

     occupation numbers 
     1.0000   1.0000   1.0000   1.0000   0.0000   0.0000   0.0000   0.0000

          k = 0.1250-0.2859 0.0000 (  2708 PWs)   bands (ev):

   -19.1934  -9.0725  -7.4399  -6.4753   0.9231   2.6577   3.0806   3.6843

     occupation numbers 
     1.0000   1.0000   1.0000   1.0000   0.0000   0.0000   0.0000   0.0000

          k = 0.1250-0.2223 0.0000 (  2693 PWs)   bands (ev):

   -19.5380  -8.4189  -7.8393  -5.9930   1.2417   2.1583   2.8372   3.1818

     occupation numbers 
     1.0000   1.0000   1.0000   1.0000   0.0000   0.0000   0.0000   0.0000

          k = 0.1250-0.1588 0.0000 (  2685 PWs)   bands (ev):

   -19.7990  -8.1424  -7.7619  -5.7072   1.4886   1.7819   2.4973   2.8013

     occupation numbers 
     1.0000   1.0000   1.0000   1.0000   0.0000   0.0000   0.0000   0.0000

          k = 0.1667-0.1270 0.0000 (  2687 PWs)   bands (ev):

   -19.7668  -8.1106  -7.9921  -5.8476   1.8065   2.1063   2.5448   2.8468

     occupation numbers 
     1.0000   1.0000   1.0000   1.0000   0.0000   0.0000   0.0000   0.0000

          k = 0.1667-0.0635 0.0000 (  2692 PWs)   bands (ev):

   -19.8975  -8.2619  -7.3601  -6.0729   1.6205   2.3680   2.4202   2.6753

     occupation numbers 
     1.0000   1.0000   1.0000   1.0000   0.0000   0.0000   0.0000   0.0000

          k = 0.1667-0.0000 0.0000 (  2686 PWs)   bands (ev):

   -19.9412  -8.3125  -6.9995  -6.2999   1.5572   2.3083   2.5436   2.8139

     occupation numbers 
     1.0000   1.0000   1.0000   1.0000   0.0000   0.0000   0.0000   0.0000

          k = 0.1667 0.0635 0.0000 (  2692 PWs)   bands (ev):

   -19.8975  -8.2618  -7.3641  -6.0681   1.6205   2.3680   2.4167   2.6752

     occupation numbers 
     1.0000   1.0000   1.0000   1.0000   0.0000   0.0000   0.0000   0.0000

          k = 0.1667 0.1270 0.0000 (  2687 PWs)   bands (ev):

   -19.7668  -8.1105  -7.9962  -5.8420   1.8061   2.1027   2.5448   2.8469

     occupation numbers 
     1.0000   1.0000   1.0000   1.0000   0.0000   0.0000   0.0000   0.0000

          k = 0.1667 0.1906 0.0000 (  2694 PWs)   bands (ev):

   -19.5501  -8.6753  -7.8600  -5.8459   1.8184   2.1430   2.8217   3.1619

     occupation numbers 
     1.0000   1.0000   1.0000   1.0000   0.0000   0.0000   0.0000   0.0000

          k = 0.1667 0.2541 0.0000 (  2705 PWs)   bands (ev):

   -19.2495  -9.3460  -7.5133  -6.1084   1.5624   2.5779   3.0142   3.5963

     occupation numbers 
     1.0000   1.0000   1.0000   1.0000   0.0000   0.0000   0.0000   0.0000

          k = 0.1667 0.3176 0.0000 (  2707 PWs)   bands (ev):

   -18.8681  -9.9804  -7.0747  -6.5959   1.2418   2.5779   3.1393   3.9584

     occupation numbers 
     1.0000   1.0000   1.0000   1.0000   0.0000   0.0000   0.0000   0.0000

          k = 0.1667 0.3811 0.0000 (  2702 PWs)   bands (ev):

   -18.4108 -10.5628  -7.2501  -6.5503   0.8563   1.9586   3.8228   4.6043

     occupation numbers 
     1.0000   1.0000   1.0000   1.0000   0.0000   0.0000   0.0000   0.0000

          k = 0.1667 0.4447 0.0000 (  2702 PWs)   bands (ev):

   -17.8849 -11.0857  -8.0088  -5.9486   0.4479   1.3146   4.6282   5.3864

     occupation numbers 
     1.0000   1.0000   1.0000   1.0000   0.0000   0.0000   0.0000   0.0000

          k = 0.1667 0.5082 0.0000 (  2700 PWs)   bands (ev):

   -17.3025 -11.5496  -8.8088  -5.2813   0.0651   0.6635   5.5542   6.2780

     occupation numbers 
     1.0000   1.0000   1.0000   1.0000   0.0000   0.0000   0.0000   0.0000

          k = 0.1667 0.5717 0.0000 (  2712 PWs)   bands (ev):

   -16.6849 -11.9645  -9.5802  -4.5647  -0.2567   0.0042   6.5980   7.2410

     occupation numbers 
     1.0000   1.0000   1.0000   1.0000   0.0000   0.0000   0.0000   0.0000

          k = 0.1667-0.8893 0.0000 (  2731 PWs)   bands (ev):

   -16.0743 -12.3467 -10.2347  -3.8222  -0.6670  -0.4966   7.7532   8.1038

     occupation numbers 
     1.0000   1.0000   1.0000   1.0000   0.0000   0.0000   0.0000   0.0000

          k = 0.1667-0.8258 0.0000 (  2727 PWs)   bands (ev):

   -15.5646 -12.6817 -10.6729  -3.0998  -1.3319  -0.6437   8.4111   9.0027

     occupation numbers 
     1.0000   1.0000   1.0000   1.0042   0.0000   0.0000   0.0000   0.0000

          k = 0.1667-0.7623 0.0000 (  2726 PWs)   bands (ev):

   -15.3464 -12.8363 -10.8257  -2.6517  -1.7581  -0.6931   8.4098  10.1643

     occupation numbers 
     1.0000   1.0000   1.0000   1.0531   0.0001   0.0000   0.0000   0.0000

          k = 0.1667-0.6987 0.0000 (  2727 PWs)   bands (ev):

   -15.5651 -12.6796 -10.6749  -3.1009  -1.3305  -0.6434   8.4105   9.0028

     occupation numbers 
     1.0000   1.0000   1.0000   1.0042   0.0000   0.0000   0.0000   0.0000

          k = 0.1667-0.6352 0.0000 (  2731 PWs)   bands (ev):

   -16.0748 -12.3433 -10.2381  -3.8233  -0.6653  -0.4961   7.7532   8.1033

     occupation numbers 
     1.0000   1.0000   1.0000   1.0000   0.0000   0.0000   0.0000   0.0000

          k = 0.1667-0.5717 0.0000 (  2712 PWs)   bands (ev):

   -16.6853 -11.9607  -9.5842  -4.5656  -0.2558   0.0060   6.5981   7.2408

     occupation numbers 
     1.0000   1.0000   1.0000   1.0000   0.0000   0.0000   0.0000   0.0000

          k = 0.1667-0.5082 0.0000 (  2700 PWs)   bands (ev):

   -17.3028 -11.5458  -8.8132  -5.2821   0.0663   0.6653   5.5543   6.2780

     occupation numbers 
     1.0000   1.0000   1.0000   1.0000   0.0000   0.0000   0.0000   0.0000

          k = 0.1667-0.4447 0.0000 (  2702 PWs)   bands (ev):

   -17.8851 -11.0820  -8.0135  -5.9492   0.4496   1.3163   4.6282   5.3860

     occupation numbers 
     1.0000   1.0000   1.0000   1.0000   0.0000   0.0000   0.0000   0.0000

          k = 0.1667-0.3811 0.0000 (  2702 PWs)   bands (ev):

   -18.4109 -10.5591  -7.2551  -6.5507   0.8585   1.9601   3.8228   4.6044

     occupation numbers 
     1.0000   1.0000   1.0000   1.0000   0.0000   0.0000   0.0000   0.0000

          k = 0.1667-0.3176 0.0000 (  2707 PWs)   bands (ev):

   -18.8682  -9.9767  -7.0750  -6.6013   1.2445   2.5791   3.1393   3.9589

     occupation numbers 
     1.0000   1.0000   1.0000   1.0000   0.0000   0.0000   0.0000   0.0000

          k = 0.1667-0.2541 0.0000 (  2705 PWs)   bands (ev):

   -19.2496  -9.3422  -7.5136  -6.1140   1.5657   2.5779   3.0146   3.5983

     occupation numbers 
     1.0000   1.0000   1.0000   1.0000   0.0000   0.0000   0.0000   0.0000

          k = 0.1667-0.1906 0.0000 (  2694 PWs)   bands (ev):

   -19.5501  -8.6714  -7.8602  -5.8517   1.8223   2.1430   2.8216   3.1618

     occupation numbers 
     1.0000   1.0000   1.0000   1.0000   0.0000   0.0000   0.0000   0.0000

          k = 0.2083-0.1588 0.0000 (  2691 PWs)   bands (ev):

   -19.5033  -8.9149  -7.8135  -6.0189   2.1703   2.4983   2.8828   3.2366

     occupation numbers 
     1.0000   1.0000   1.0000   1.0000   0.0000   0.0000   0.0000   0.0000

          k = 0.2083-0.0953 0.0000 (  2691 PWs)   bands (ev):

   -19.6754  -8.2119  -8.0109  -6.2957   1.9301   2.6757   2.7682   3.0432

     occupation numbers 
     1.0000   1.0000   1.0000   1.0000   0.0000   0.0000   0.0000   0.0000

          k = 0.2083-0.0318 0.0000 (  2696 PWs)   bands (ev):

   -19.7619  -8.1103  -7.5750  -6.7324   1.8052   2.5615   2.7942   3.3264

     occupation numbers 
     1.0000   1.0000   1.0000   1.0000   0.0000   0.0000   0.0000   0.0000

          k = 0.2083 0.0318 0.0000 (  2696 PWs)   bands (ev):

   -19.7619  -8.1103  -7.5783  -6.7287   1.8051   2.5615   2.7939   3.3234

     occupation numbers 
     1.0000   1.0000   1.0000   1.0000   0.0000   0.0000   0.0000   0.0000

          k = 0.2083 0.0953 0.0000 (  2691 PWs)   bands (ev):

   -19.6754  -8.2158  -8.0108  -6.2907   1.9299   2.6758   2.7652   3.0426

     occupation numbers 
     1.0000   1.0000   1.0000   1.0000   0.0000   0.0000   0.0000   0.0000

          k = 0.2083 0.1588 0.0000 (  2691 PWs)   bands (ev):

   -19.5033  -8.9187  -7.8132  -6.0135   2.1697   2.4949   2.8828   3.2367

     occupation numbers 
     1.0000   1.0000   1.0000   1.0000   0.0000   0.0000   0.0000   0.0000

          k = 0.2083 0.2223 0.0000 (  2701 PWs)   bands (ev):

   -19.2473  -9.6117  -7.5202  -5.9971   2.1981   2.5912   2.9454   3.5414

     occupation numbers 
     1.0000   1.0000   1.0000   1.0000   0.0000   0.0000   0.0000   0.0000

          k = 0.2083 0.2859 0.0000 (  2705 PWs)   bands (ev):

   -18.9105 -10.2650  -7.1355  -6.2605   1.9605   2.4685   3.0828   3.9030

     occupation numbers 
     1.0000   1.0000   1.0000   1.0000   0.0000   0.0000   0.0000   0.0000

          k = 0.2083 0.3494 0.0000 (  2701 PWs)   bands (ev):

   -18.4975 -10.8600  -6.7671  -6.6657   1.6620   1.8685   3.7051   4.4942

     occupation numbers 
     1.0000   1.0000   1.0000   1.0000   0.0000   0.0000   0.0000   0.0000

          k = 0.2083 0.4129 0.0000 (  2707 PWs)   bands (ev):

   -18.0158 -11.3841  -7.4522  -6.1194   1.2591   1.3110   4.4496   5.2195

     occupation numbers 
     1.0000   1.0000   1.0000   1.0000   0.0000   0.0000   0.0000   0.0000

          k = 0.2083 0.4764 0.0000 (  2702 PWs)   bands (ev):

   -17.4773 -11.8280  -8.2468  -5.5090   0.6612   0.9507   5.3148   6.0593

     occupation numbers 
     1.0000   1.0000   1.0000   1.0000   0.0000   0.0000   0.0000   0.0000

          k = 0.2083 0.5399 0.0000 (  2723 PWs)   bands (ev):

   -16.9025 -12.1838  -9.0841  -4.8523   0.0779   0.6246   6.2985   6.9858

     occupation numbers 
     1.0000   1.0000   1.0000   1.0000   0.0000   0.0000   0.0000   0.0000

          k = 0.2083-0.9211 0.0000 (  2737 PWs)   bands (ev):

   -16.3285 -12.4441  -9.8940  -4.1752  -0.4933   0.3626   7.3958   7.8793

     occupation numbers 
     1.0000   1.0000   1.0000   1.0000   0.0000   0.0000   0.0000   0.0000

          k = 0.2083-0.8576 0.0000 (  2736 PWs)   bands (ev):

   -15.8252 -12.6028 -10.5841  -3.5237  -1.0433   0.1813   8.2480   8.5940

     occupation numbers 
     1.0000   1.0000   1.0000   1.0000   0.0000   0.0000   0.0000   0.0000

          k = 0.2083-0.7940 0.0000 (  2736 PWs)   bands (ev):

   -15.5116 -12.6656 -11.0120  -3.0220  -1.4830   0.0890   8.1738   9.8476

     occupation numbers 
     1.0000   1.0000   1.0000   1.0118   0.0000   0.0000   0.0000   0.0000

          k = 0.2083-0.7305 0.0000 (  2736 PWs)   bands (ev):

   -15.5119 -12.6640 -11.0134  -3.0228  -1.4820   0.0891   8.1734   9.8478

     occupation numbers 
     1.0000   1.0000   1.0000   1.0117   0.0000   0.0000   0.0000   0.0000

          k = 0.2083-0.6670 0.0000 (  2736 PWs)   bands (ev):

   -15.8258 -12.5993 -10.5873  -3.5250  -1.0414   0.1818   8.2472   8.5941

     occupation numbers 
     1.0000   1.0000   1.0000   1.0000   0.0000   0.0000   0.0000   0.0000

          k = 0.2083-0.6035 0.0000 (  2737 PWs)   bands (ev):

   -16.3291 -12.4402  -9.8979  -4.1765  -0.4912   0.3634   7.3958   7.8788

     occupation numbers 
     1.0000   1.0000   1.0000   1.0000   0.0000   0.0000   0.0000   0.0000

          k = 0.2083-0.5399 0.0000 (  2723 PWs)   bands (ev):

   -16.9030 -12.1800  -9.0883  -4.8533   0.0801   0.6259   6.2985   6.9857

     occupation numbers 
     1.0000   1.0000   1.0000   1.0000   0.0000   0.0000   0.0000   0.0000

          k = 0.2083-0.4764 0.0000 (  2702 PWs)   bands (ev):

   -17.4776 -11.8244  -8.2512  -5.5099   0.6633   0.9524   5.3148   6.0593

     occupation numbers 
     1.0000   1.0000   1.0000   1.0000   0.0000   0.0000   0.0000   0.0000

          k = 0.2083-0.4129 0.0000 (  2707 PWs)   bands (ev):

   -18.0160 -11.3807  -7.4569  -6.1201   1.2610   1.3133   4.4496   5.2195

     occupation numbers 
     1.0000   1.0000   1.0000   1.0000   0.0000   0.0000   0.0000   0.0000

          k = 0.2083-0.3494 0.0000 (  2701 PWs)   bands (ev):

   -18.4976 -10.8566  -6.7721  -6.6663   1.6649   1.8702   3.7051   4.4943

     occupation numbers 
     1.0000   1.0000   1.0000   1.0000   0.0000   0.0000   0.0000   0.0000

          k = 0.2083-0.2859 0.0000 (  2705 PWs)   bands (ev):

   -18.9105 -10.2615  -7.1360  -6.2658   1.9640   2.4698   3.0828   3.9030

     occupation numbers 
     1.0000   1.0000   1.0000   1.0000   0.0000   0.0000   0.0000   0.0000

          k = 0.2083-0.2223 0.0000 (  2701 PWs)   bands (ev):

   -19.2474  -9.6081  -7.5205  -6.0025   2.2021   2.5912   2.9459   3.5408

     occupation numbers 
     1.0000   1.0000   1.0000   1.0000   0.0000   0.0000   0.0000   0.0000

          k = 0.2500-0.1906 0.0000 (  2704 PWs)   bands (ev):

   -19.1870  -9.8542  -7.4604  -6.1730   2.6011   2.8425   2.9104   3.5448

     occupation numbers 
     1.0000   1.0000   1.0000   1.0000   0.0000   0.0000   0.0000   0.0000

          k = 0.2500-0.1270 0.0000 (  2695 PWs)   bands (ev):

   -19.3982  -9.1358  -7.6996  -6.4662   2.3204   3.0093   3.1266   3.4675

     occupation numbers 
     1.0000   1.0000   1.0000   1.0000   0.0000   0.0000   0.0000   0.0000

          k = 0.2500-0.0635 0.0000 (  2695 PWs)   bands (ev):

   -19.5259  -8.4099  -7.8446  -6.9667   2.1367   2.8899   3.1216   3.6890

     occupation numbers 
     1.0000   1.0000   1.0000   1.0000   0.0000   0.0000   0.0000   0.0000

          k = 0.2500-0.0000 0.0000 (  2692 PWs)   bands (ev):

   -19.5686  -7.8932  -7.8727  -7.4344   2.0748   2.8379   3.0751   4.0243

     occupation numbers 
     1.0000   1.0000   1.0000   1.0000   0.0000   0.0000   0.0000   0.0000

          k = 0.2500 0.0635 0.0000 (  2695 PWs)   bands (ev):

   -19.5258  -8.4136  -7.8445  -6.9623   2.1366   2.8900   3.1212   3.6863

     occupation numbers 
     1.0000   1.0000   1.0000   1.0000   0.0000   0.0000   0.0000   0.0000

          k = 0.2500 0.1270 0.0000 (  2695 PWs)   bands (ev):

   -19.3981  -9.1394  -7.6994  -6.4614   2.3202   3.0092   3.1238   3.4670

     occupation numbers 
     1.0000   1.0000   1.0000   1.0000   0.0000   0.0000   0.0000   0.0000

          k = 0.2500 0.1906 0.0000 (  2704 PWs)   bands (ev):

   -19.1870  -9.8577  -7.4600  -6.1679   2.5999   2.8417   2.9076   3.5446

     occupation numbers 
     1.0000   1.0000   1.0000   1.0000   0.0000   0.0000   0.0000   0.0000

          k = 0.2500 0.2541 0.0000 (  2709 PWs)   bands (ev):

   -18.8954 -10.5348  -7.1306  -6.1531   2.3131   2.6023   3.1226   3.9214

     occupation numbers 
     1.0000   1.0000   1.0000   1.0000   0.0000   0.0000   0.0000   0.0000

          k = 0.2500 0.3176 0.0000 (  2700 PWs)   bands (ev):

   -18.5279 -11.1505  -6.7171  -6.4325   1.7229   2.4064   3.6718   4.4630

     occupation numbers 
     1.0000   1.0000   1.0000   1.0000   0.0000   0.0000   0.0000   0.0000

          k = 0.2500 0.3811 0.0000 (  2692 PWs)   bands (ev):

   -18.0924 -11.6893  -6.9655  -6.2290   1.1374   2.1522   4.3542   5.1331

     occupation numbers 
     1.0000   1.0000   1.0000   1.0000   0.0000   0.0000   0.0000   0.0000

          k = 0.2500 0.4447 0.0000 (  2712 PWs)   bands (ev):

   -17.6012 -12.1367  -7.6814  -5.6799   0.5806   1.8508   5.1585   5.9201

     occupation numbers 
     1.0000   1.0000   1.0000   1.0000   0.0000   0.0000   0.0000   0.0000

          k = 0.2500 0.5082 0.0000 (  2714 PWs)   bands (ev):

   -17.0752 -12.4756  -8.5058  -5.0892   0.0638   1.5461   6.0817   7.1369

     occupation numbers 
     1.0000   1.0000   1.0000   1.0000   0.0000   0.0000   0.0000   0.0000

          k = 0.2500-0.9528 0.0000 (  2723 PWs)   bands (ev):

   -16.5507 -12.6824  -9.3703  -4.4860  -0.4101   1.2784   7.1198   7.7128

     occupation numbers 
     1.0000   1.0000   1.0000   1.0000   0.0000   0.0000   0.0000   0.0000

          k = 0.2500-0.8893 0.0000 (  2739 PWs)   bands (ev):

   -16.0873 -12.7263 -10.2061  -3.9160  -0.8349   1.0738   8.1996   8.2624

     occupation numbers 
     1.0000   1.0000   1.0000   1.0000   0.0000   0.0000   0.0000   0.0000

          k = 0.2500-0.8258 0.0000 (  2742 PWs)   bands (ev):

   -15.7651 -12.6006 -10.9139  -3.4613  -1.1750   0.9467   8.0496   9.4705

     occupation numbers 
     1.0000   1.0000   1.0000   1.0000   0.0000   0.0000   0.0000   0.0000

          k = 0.2500-0.7623 0.0000 (  2732 PWs)   bands (ev):

   -15.6504 -12.4695 -11.2478  -3.2722  -1.3202   0.9039   7.9456   9.9438

     occupation numbers 
     1.0000   1.0000   1.0000   1.0002   0.0000   0.0000   0.0000   0.0000

          k = 0.2500-0.6987 0.0000 (  2742 PWs)   bands (ev):

   -15.7656 -12.5973 -10.9169  -3.4625  -1.1734   0.9471   8.0490   9.4706

     occupation numbers 
     1.0000   1.0000   1.0000   1.0000   0.0000   0.0000   0.0000   0.0000

          k = 0.2500-0.6352 0.0000 (  2739 PWs)   bands (ev):

   -16.0881 -12.7224 -10.2098  -3.9175  -0.8325   1.0746   8.1987   8.2625

     occupation numbers 
     1.0000   1.0000   1.0000   1.0000   0.0000   0.0000   0.0000   0.0000

          k = 0.2500-0.5717 0.0000 (  2723 PWs)   bands (ev):

   -16.5513 -12.6786  -9.3743  -4.4874  -0.4076   1.2796   7.1198   7.7125

     occupation numbers 
     1.0000   1.0000   1.0000   1.0000   0.0000   0.0000   0.0000   0.0000

          k = 0.2500-0.5082 0.0000 (  2714 PWs)   bands (ev):

   -17.0757 -12.4719  -8.5099  -5.0904   0.0663   1.5478   6.0818   6.8043

     occupation numbers 
     1.0000   1.0000   1.0000   1.0000   0.0000   0.0000   0.0000   0.0000

          k = 0.2500-0.4447 0.0000 (  2712 PWs)   bands (ev):

   -17.6015 -12.1332  -7.6858  -5.6809   0.5829   1.8532   5.1585   5.9193

     occupation numbers 
     1.0000   1.0000   1.0000   1.0000   0.0000   0.0000   0.0000   0.0000

          k = 0.2500-0.3811 0.0000 (  2692 PWs)   bands (ev):

   -18.0926 -11.6860  -6.9702  -6.2298   1.1394   2.1552   4.3542   5.1328

     occupation numbers 
     1.0000   1.0000   1.0000   1.0000   0.0000   0.0000   0.0000   0.0000

          k = 0.2500-0.3176 0.0000 (  2700 PWs)   bands (ev):

   -18.5281 -11.1472  -6.7177  -6.4375   1.7247   2.4101   3.6718   4.4631

     occupation numbers 
     1.0000   1.0000   1.0000   1.0000   0.0000   0.0000   0.0000   0.0000

          k = 0.2500-0.2541 0.0000 (  2709 PWs)   bands (ev):

   -18.8954 -10.5314  -7.1310  -6.1582   2.3146   2.6064   3.1225   3.9216

     occupation numbers 
     1.0000   1.0000   1.0000   1.0000   0.0000   0.0000   0.0000   0.0000

          k = 0.2917-0.2223 0.0000 (  2705 PWs)   bands (ev):

   -18.8233 -10.7727  -7.0602  -6.3107   2.1276   3.0526   3.3641   4.0186

     occupation numbers 
     1.0000   1.0000   1.0000   1.0000   0.0000   0.0000   0.0000   0.0000

          k = 0.2917-0.1588 0.0000 (  2703 PWs)   bands (ev):

   -19.0693 -10.0690  -7.3340  -6.6029   2.6710   2.7843   3.4901   3.6543

     occupation numbers 
     1.0000   1.0000   1.0000   1.0000   0.0000   0.0000   0.0000   0.0000

          k = 0.2917-0.0953 0.0000 (  2703 PWs)   bands (ev):

   -19.2356  -9.3244  -7.5199  -7.1216   2.5481   3.0847   3.4449   3.5162

     occupation numbers 
     1.0000   1.0000   1.0000   1.0000   0.0000   0.0000   0.0000   0.0000

          k = 0.2917-0.0318 0.0000 (  2689 PWs)   bands (ev):

   -19.3194  -8.5816  -7.7684  -7.6136   2.4268   3.1845   3.4283   3.4866

     occupation numbers 
     1.0000   1.0000   1.0000   1.0000   0.0000   0.0000   0.0000   0.0000

          k = 0.2917 0.0318 0.0000 (  2689 PWs)   bands (ev):

   -19.3194  -8.5850  -7.7647  -7.6135   2.4268   3.1846   3.4282   3.4862

     occupation numbers 
     1.0000   1.0000   1.0000   1.0000   0.0000   0.0000   0.0000   0.0000

          k = 0.2917 0.0953 0.0000 (  2703 PWs)   bands (ev):

   -19.2356  -9.3278  -7.5197  -7.1173   2.5480   3.0844   3.4443   3.5153

     occupation numbers 
     1.0000   1.0000   1.0000   1.0000   0.0000   0.0000   0.0000   0.0000

          k = 0.2917 0.1588 0.0000 (  2703 PWs)   bands (ev):

   -19.0693 -10.0723  -7.3337  -6.5983   2.6700   2.7839   3.4873   3.6541

     occupation numbers 
     1.0000   1.0000   1.0000   1.0000   0.0000   0.0000   0.0000   0.0000

          k = 0.2917 0.2223 0.0000 (  2705 PWs)   bands (ev):

   -18.8232 -10.7759  -7.0597  -6.3059   2.1261   3.0501   3.3625   4.0183

     occupation numbers 
     1.0000   1.0000   1.0000   1.0000   0.0000   0.0000   0.0000   0.0000

          k = 0.2917 0.2859 0.0000 (  2711 PWs)   bands (ev):

   -18.5023 -11.4166  -6.7040  -6.3067   1.5449   3.0022   3.7345   4.5107

     occupation numbers 
     1.0000   1.0000   1.0000   1.0000   0.0000   0.0000   0.0000   0.0000

          k = 0.2917 0.3494 0.0000 (  2712 PWs)   bands (ev):

   -18.1147 -11.9766  -6.6117  -6.2767   0.9759   2.8665   4.3435   5.1256

     occupation numbers 
     1.0000   1.0000   1.0000   1.0000   0.0000   0.0000   0.0000   0.0000

          k = 0.2917 0.4129 0.0000 (  2713 PWs)   bands (ev):

   -17.6736 -12.4381  -7.1742  -5.7926   0.4498   2.6767   5.0850   5.8580

     occupation numbers 
     1.0000   1.0000   1.0000   1.0000   0.0000   0.0000   0.0000   0.0000

          k = 0.2917 0.4764 0.0000 (  2713 PWs)   bands (ev):

   -17.2018 -12.7783  -7.9175  -5.2736  -0.0132   2.4385   5.9474   6.6965

     occupation numbers 
     1.0000   1.0000   1.0000   1.0000   0.0000   0.0000   0.0000   0.0000

          k = 0.2917-0.9846 0.0000 (  2724 PWs)   bands (ev):

   -16.7367 -12.9647  -8.7641  -4.7517  -0.4007   2.1949   6.9253   7.5976

     occupation numbers 
     1.0000   1.0000   1.0000   1.0000   0.0000   0.0000   0.0000   0.0000

          k = 0.2917-0.9211 0.0000 (  2735 PWs)   bands (ev):

   -16.3340 -12.9544  -9.6459  -4.2714  -0.7039   1.9860   8.0094   8.2272

     occupation numbers 
     1.0000   1.0000   1.0000   1.0000   0.0000   0.0000   0.0000   0.0000

          k = 0.2917-0.8576 0.0000 (  2743 PWs)   bands (ev):

   -16.0514 -12.7184 -10.4961  -3.8919  -0.9152   1.8364   8.0326   9.0829

     occupation numbers 
     1.0000   1.0000   1.0000   1.0000   0.0000   0.0000   0.0000   0.0000

          k = 0.2917-0.7940 0.0000 (  2746 PWs)   bands (ev):

   -15.9138 -12.3330 -11.1906  -3.6786  -1.0250   1.7589   7.7966   9.0503

     occupation numbers 
     1.0000   1.0000   1.0000   1.0000   0.0000   0.0000   0.0000   0.0000

          k = 0.2917-0.7305 0.0000 (  2746 PWs)   bands (ev):

   -15.9140 -12.3305 -11.1929  -3.6791  -1.0242   1.7592   7.7963   9.0503

     occupation numbers 
     1.0000   1.0000   1.0000   1.0000   0.0000   0.0000   0.0000   0.0000

          k = 0.2917-0.6670 0.0000 (  2743 PWs)   bands (ev):

   -16.0521 -12.7146 -10.4996  -3.8932  -0.9131   1.8371   8.0318   9.0827

     occupation numbers 
     1.0000   1.0000   1.0000   1.0000   0.0000   0.0000   0.0000   0.0000

          k = 0.2917-0.6035 0.0000 (  2735 PWs)   bands (ev):

   -16.3348 -12.9505  -9.6496  -4.2730  -0.7012   1.9872   8.0095   8.2265

     occupation numbers 
     1.0000   1.0000   1.0000   1.0000   0.0000   0.0000   0.0000   0.0000

          k = 0.2917-0.5399 0.0000 (  2724 PWs)   bands (ev):

   -16.7375 -12.9610  -8.7680  -4.7532  -0.3979   2.1967   6.9254   7.9935

     occupation numbers 
     1.0000   1.0000   1.0000   1.0000   0.0000   0.0000   0.0000   0.0000

          k = 0.2917-0.4764 0.0000 (  2713 PWs)   bands (ev):

   -17.2023 -12.7748  -7.9216  -5.2749  -0.0105   2.4409   5.9474   6.6965

     occupation numbers 
     1.0000   1.0000   1.0000   1.0000   0.0000   0.0000   0.0000   0.0000

          k = 0.2917-0.4129 0.0000 (  2713 PWs)   bands (ev):

   -17.6740 -12.4348  -7.1786  -5.7937   0.4523   2.6799   5.0850   5.8580

     occupation numbers 
     1.0000   1.0000   1.0000   1.0000   0.0000   0.0000   0.0000   0.0000

          k = 0.2917-0.3494 0.0000 (  2712 PWs)   bands (ev):

   -18.1149 -11.9734  -6.6164  -6.2775   0.9781   2.8703   4.3434   5.1258

     occupation numbers 
     1.0000   1.0000   1.0000   1.0000   0.0000   0.0000   0.0000   0.0000

          k = 0.2917-0.2859 0.0000 (  2711 PWs)   bands (ev):

   -18.5025 -11.4134  -6.7047  -6.3115   1.5468   3.0063   3.7344   4.5107

     occupation numbers 
     1.0000   1.0000   1.0000   1.0000   0.0000   0.0000   0.0000   0.0000

          k = 0.3333-0.2541 0.0000 (  2708 PWs)   bands (ev):

   -18.4216 -11.6433  -6.6273  -6.4295   1.3529   3.4291   3.9283   4.6378

     occupation numbers 
     1.0000   1.0000   1.0000   1.0000   0.0000   0.0000   0.0000   0.0000

          k = 0.3333-0.1906 0.0000 (  2711 PWs)   bands (ev):

   -18.6952 -10.9758  -6.9243  -6.7090   1.9164   3.2955   3.8453   4.1963

     occupation numbers 
     1.0000   1.0000   1.0000   1.0000   0.0000   0.0000   0.0000   0.0000

          k = 0.3333-0.1270 0.0000 (  2711 PWs)   bands (ev):

   -18.8955 -10.2446  -7.2305  -7.1429   2.4328   3.0316   3.8712   3.9432

     occupation numbers 
     1.0000   1.0000   1.0000   1.0000   0.0000   0.0000   0.0000   0.0000

          k = 0.3333-0.0635 0.0000 (  2704 PWs)   bands (ev):

   -19.0174  -9.4741  -7.9064  -7.2765   2.8235   2.8563   3.6584   3.8506

     occupation numbers 
     1.0000   1.0000   1.0000   1.0000   0.0000   0.0000   0.0000   0.0000

          k = 0.3333-0.0000 0.0000 (  2706 PWs)   bands (ev):

   -19.0583  -8.7998  -8.5546  -7.3213   2.7967   2.9813   3.5742   3.8020

     occupation numbers 
     1.0000   1.0000   1.0000   1.0000   0.0000   0.0000   0.0000   0.0000

          k = 0.3333 0.0635 0.0000 (  2704 PWs)   bands (ev):

   -19.0173  -9.4775  -7.9025  -7.2763   2.8229   2.8562   3.6583   3.8503

     occupation numbers 
     1.0000   1.0000   1.0000   1.0000   0.0000   0.0000   0.0000   0.0000

          k = 0.3333 0.1270 0.0000 (  2711 PWs)   bands (ev):

   -18.8954 -10.2478  -7.2263  -7.1426   2.4317   3.0314   3.8711   3.9420

     occupation numbers 
     1.0000   1.0000   1.0000   1.0000   0.0000   0.0000   0.0000   0.0000

          k = 0.3333 0.1906 0.0000 (  2711 PWs)   bands (ev):

   -18.6951 -10.9789  -6.9238  -6.7046   1.9149   3.2946   3.8429   4.1961

     occupation numbers 
     1.0000   1.0000   1.0000   1.0000   0.0000   0.0000   0.0000   0.0000

          k = 0.3333 0.2541 0.0000 (  2708 PWs)   bands (ev):

   -18.4214 -11.6464  -6.6266  -6.4249   1.3509   3.4256   3.9279   4.6377

     occupation numbers 
     1.0000   1.0000   1.0000   1.0000   0.0000   0.0000   0.0000   0.0000

          k = 0.3333 0.3176 0.0000 (  2718 PWs)   bands (ev):

   -18.0832 -12.2306  -6.4505  -6.2620   0.7972   3.3649   4.4260   5.1978

     occupation numbers 
     1.0000   1.0000   1.0000   1.0000   0.0000   0.0000   0.0000   0.0000

          k = 0.3333 0.3811 0.0000 (  2712 PWs)   bands (ev):

   -17.6952 -12.7105  -6.7864  -5.8465   0.2949   3.3037   5.0954   5.8753

     occupation numbers 
     1.0000   1.0000   1.0000   1.0000   0.0000   0.0000   0.0000   0.0000

          k = 0.3333 0.4447 0.0000 (  2711 PWs)   bands (ev):

   -17.2825 -13.0587  -7.3780  -5.4045  -0.1251   3.1957   5.8943   6.6635

     occupation numbers 
     1.0000   1.0000   1.0000   1.0000   0.0000   0.0000   0.0000   0.0000

          k = 0.3333-1.0164 0.0000 (  2716 PWs)   bands (ev):

   -16.8857 -13.2364  -8.1437  -4.9702  -0.4395   3.0327   6.8113   7.5380

     occupation numbers 
     1.0000   1.0000   1.0000   1.0000   0.0000   0.0000   0.0000   0.0000

          k = 0.3333-0.9528 0.0000 (  2724 PWs)   bands (ev):

   -16.5582 -13.1957  -9.0050  -4.5863  -0.6343   2.8557   7.8333   8.2729

     occupation numbers 
     1.0000   1.0000   1.0000   1.0000   0.0000   0.0000   0.0000   0.0000

          k = 0.3333-0.8893 0.0000 (  2737 PWs)   bands (ev):

   -16.3416 -12.9082  -9.8954  -4.2943  -0.7162   2.7056   8.0364   8.3930

     occupation numbers 
     1.0000   1.0000   1.0000   1.0000   0.0000   0.0000   0.0000   0.0000

          k = 0.3333-0.8258 0.0000 (  2733 PWs)   bands (ev):

   -16.2330 -12.4080 -10.7487  -4.1181  -0.7244   2.6076   7.6880   8.2268

     occupation numbers 
     1.0000   1.0000   1.0000   1.0000   0.0000   0.0000   0.0000   0.0000

          k = 0.3333-0.7623 0.0000 (  2738 PWs)   bands (ev):

   -16.2022 -11.9578 -11.3134  -4.0607  -0.7171   2.5739   7.5540   8.1681

     occupation numbers 
     1.0000   1.0000   1.0000   1.0000   0.0000   0.0000   0.0000   0.0000

          k = 0.3333-0.6987 0.0000 (  2733 PWs)   bands (ev):

   -16.2334 -12.4046 -10.7520  -4.1189  -0.7231   2.6082   7.6876   8.2268

     occupation numbers 
     1.0000   1.0000   1.0000   1.0000   0.0000   0.0000   0.0000   0.0000

          k = 0.3333-0.6352 0.0000 (  2737 PWs)   bands (ev):

   -16.3423 -12.9044  -9.8990  -4.2957  -0.7139   2.7067   8.0358   8.3929

     occupation numbers 
     1.0000   1.0000   1.0000   1.0000   0.0000   0.0000   0.0000   0.0000

          k = 0.3333-0.5717 0.0000 (  2724 PWs)   bands (ev):

   -16.5591 -13.1919  -9.0087  -4.5880  -0.6313   2.8575   7.8334   8.2725

     occupation numbers 
     1.0000   1.0000   1.0000   1.0000   0.0000   0.0000   0.0000   0.0000

          k = 0.3333-0.5082 0.0000 (  2716 PWs)   bands (ev):

   -16.8864 -13.2327  -8.1477  -4.9718  -0.4365   3.0352   6.8114   7.5379

     occupation numbers 
     1.0000   1.0000   1.0000   1.0000   0.0000   0.0000   0.0000   0.0000

          k = 0.3333-0.4447 0.0000 (  2711 PWs)   bands (ev):

   -17.2831 -13.0553  -7.3822  -5.4059  -0.1222   3.1990   5.8943   6.9461

     occupation numbers 
     1.0000   1.0000   1.0000   1.0000   0.0000   0.0000   0.0000   0.0000

          k = 0.3333-0.3811 0.0000 (  2712 PWs)   bands (ev):

   -17.6956 -12.7073  -6.7908  -5.8477   0.2975   3.3076   5.0953   5.8755

     occupation numbers 
     1.0000   1.0000   1.0000   1.0000   0.0000   0.0000   0.0000   0.0000

          k = 0.3333-0.3176 0.0000 (  2718 PWs)   bands (ev):

   -18.0835 -12.2275  -6.4551  -6.2630   0.7995   3.3690   4.4259   5.1979

     occupation numbers 
     1.0000   1.0000   1.0000   1.0000   0.0000   0.0000   0.0000   0.0000

          k = 0.3750-0.2859 0.0000 (  2722 PWs)   bands (ev):

   -17.9995 -12.4381  -6.5255  -6.1866   0.6185   3.6997   4.6121   5.3493

     occupation numbers 
     1.0000   1.0000   1.0000   1.0000   0.0000   0.0000   0.0000   0.0000

          k = 0.3750-0.2223 0.0000 (  2705 PWs)   bands (ev):

   -18.2867 -11.8291  -6.7842  -6.4867   1.1520   3.7445   4.2728   4.8440

     occupation numbers 
     1.0000   1.0000   1.0000   1.0000   0.0000   0.0000   0.0000   0.0000

          k = 0.3750-0.1588 0.0000 (  2709 PWs)   bands (ev):

   -18.5126 -11.1343  -7.2996  -6.7249   1.6837   3.5616   4.3284   4.4553

     occupation numbers 
     1.0000   1.0000   1.0000   1.0000   0.0000   0.0000   0.0000   0.0000

          k = 0.3750-0.0953 0.0000 (  2712 PWs)   bands (ev):

   -18.6674 -10.3757  -7.9848  -6.8893   2.1377   3.3523   4.1833   4.3163

     occupation numbers 
     1.0000   1.0000   1.0000   1.0000   0.0000   0.0000   0.0000   0.0000

          k = 0.3750-0.0318 0.0000 (  2714 PWs)   bands (ev):

   -18.7460  -9.5809  -8.7574  -6.9731   2.4124   3.2388   4.0365   4.2393

     occupation numbers 
     1.0000   1.0000   1.0000   1.0000   0.0000   0.0000   0.0000   0.0000

          k = 0.3750 0.0318 0.0000 (  2714 PWs)   bands (ev):

   -18.7460  -9.5842  -8.7539  -6.9730   2.4120   3.2388   4.0364   4.2392

     occupation numbers 
     1.0000   1.0000   1.0000   1.0000   0.0000   0.0000   0.0000   0.0000

          k = 0.3750 0.0953 0.0000 (  2712 PWs)   bands (ev):

   -18.6673 -10.3789  -7.9811  -6.8890   2.1367   3.3521   4.1833   4.3158

     occupation numbers 
     1.0000   1.0000   1.0000   1.0000   0.0000   0.0000   0.0000   0.0000

          k = 0.3750 0.1588 0.0000 (  2709 PWs)   bands (ev):

   -18.5125 -11.1374  -7.2956  -6.7244   1.6822   3.5610   4.3266   4.4553

     occupation numbers 
     1.0000   1.0000   1.0000   1.0000   0.0000   0.0000   0.0000   0.0000

          k = 0.3750 0.2223 0.0000 (  2705 PWs)   bands (ev):

   -18.2865 -11.8321  -6.7799  -6.4859   1.1501   3.7422   4.2717   4.8439

     occupation numbers 
     1.0000   1.0000   1.0000   1.0000   0.0000   0.0000   0.0000   0.0000

          k = 0.3750 0.2859 0.0000 (  2722 PWs)   bands (ev):

   -17.9992 -12.4412  -6.5211  -6.1856   0.6162   3.6961   4.6120   5.3493

     occupation numbers 
     1.0000   1.0000   1.0000   1.0000   0.0000   0.0000   0.0000   0.0000

          k = 0.3750 0.3494 0.0000 (  2720 PWs)   bands (ev):

   -17.6672 -12.9404  -6.5779  -5.8417   0.1362   3.6635   5.1955   5.9713

     occupation numbers 
     1.0000   1.0000   1.0000   1.0000   0.0000   0.0000   0.0000   0.0000

          k = 0.3750 0.4129 0.0000 (  2719 PWs)   bands (ev):

   -17.3189 -13.2977  -6.9469  -5.4814  -0.2472   3.6825   5.9229   6.7066

     occupation numbers 
     1.0000   1.0000   1.0000   1.0000   0.0000   0.0000   0.0000   0.0000

          k = 0.3750-1.0481 0.0000 (  2714 PWs)   bands (ev):

   -16.9984 -13.4684  -7.5653  -5.1406  -0.4999   3.6669   6.7736   7.5421

     occupation numbers 
     1.0000   1.0000   1.0000   1.0000   0.0000   0.0000   0.0000   0.0000

          k = 0.3750-0.9846 0.0000 (  2726 PWs)   bands (ev):

   -16.7571 -13.4042  -8.3481  -4.8580  -0.6028   3.5875   7.7115   8.0382

     occupation numbers 
     1.0000   1.0000   1.0000   1.0000   0.0000   0.0000   0.0000   0.0000

          k = 0.3750-0.9211 0.0000 (  2728 PWs)   bands (ev):

   -16.6204 -13.0863  -9.2170  -4.6596  -0.5694   3.4803   7.7121   7.8797

     occupation numbers 
     1.0000   1.0000   1.0000   1.0000   0.0000   0.0000   0.0000   0.0000

          k = 0.3750-0.8576 0.0000 (  2737 PWs)   bands (ev):

   -16.5660 -12.5508 -10.1084  -4.5455  -0.4612   3.3876   7.4899   7.4901

     occupation numbers 
     1.0000   1.0000   1.0000   1.0000   0.0000   0.0000   0.0000   0.0000

          k = 0.3750-0.7940 0.0000 (  2738 PWs)   bands (ev):

   -16.5521 -11.8809 -10.9500  -4.4968  -0.3708   3.3357   7.2616   7.3742

     occupation numbers 
     1.0000   1.0000   1.0000   1.0000   0.0000   0.0000   0.0000   0.0000

          k = 0.3750-0.7305 0.0000 (  2738 PWs)   bands (ev):

   -16.5523 -11.8779 -10.9530  -4.4971  -0.3701   3.3360   7.2615   7.3743

     occupation numbers 
     1.0000   1.0000   1.0000   1.0000   0.0000   0.0000   0.0000   0.0000

          k = 0.3750-0.6670 0.0000 (  2737 PWs)   bands (ev):

   -16.5665 -12.5473 -10.1118  -4.5464  -0.4595   3.3887   7.4897   7.4902

     occupation numbers 
     1.0000   1.0000   1.0000   1.0000   0.0000   0.0000   0.0000   0.0000

          k = 0.3750-0.6035 0.0000 (  2728 PWs)   bands (ev):

   -16.6212 -13.0827  -9.2206  -4.6610  -0.5668   3.4821   7.7122   7.8795

     occupation numbers 
     1.0000   1.0000   1.0000   1.0000   0.0000   0.0000   0.0000   0.0000

          k = 0.3750-0.5399 0.0000 (  2726 PWs)   bands (ev):

   -16.7580 -13.4005  -8.3518  -4.8597  -0.5997   3.5901   7.7113   8.0384

     occupation numbers 
     1.0000   1.0000   1.0000   1.0000   0.0000   0.0000   0.0000   0.0000

          k = 0.3750-0.4764 0.0000 (  2714 PWs)   bands (ev):

   -16.9992 -13.4649  -7.5693  -5.1423  -0.4967   3.6703   6.7735   7.5421

     occupation numbers 
     1.0000   1.0000   1.0000   1.0000   0.0000   0.0000   0.0000   0.0000

          k = 0.3750-0.4129 0.0000 (  2719 PWs)   bands (ev):

   -17.3195 -13.2944  -6.9511  -5.4829  -0.2442   3.6864   5.9228   6.7067

     occupation numbers 
     1.0000   1.0000   1.0000   1.0000   0.0000   0.0000   0.0000   0.0000

          k = 0.3750-0.3494 0.0000 (  2720 PWs)   bands (ev):

   -17.6676 -12.9373  -6.5823  -5.8430   0.1389   3.6674   5.1954   5.9713

     occupation numbers 
     1.0000   1.0000   1.0000   1.0000   0.0000   0.0000   0.0000   0.0000

          k = 0.4167-0.3176 0.0000 (  2717 PWs)   bands (ev):

   -17.5921 -13.1156  -6.5962  -5.7803  -0.0099   3.8803   5.3884   6.1456

     occupation numbers 
     1.0000   1.0000   1.0000   1.0000   0.0000   0.0000   0.0000   0.0000

          k = 0.4167-0.2541 0.0000 (  2719 PWs)   bands (ev):

   -17.8650 -12.5984  -6.8280  -6.0495   0.4438   3.9897   4.9036   5.5787

     occupation numbers 
     1.0000   1.0000   1.0000   1.0000   0.0000   0.0000   0.0000   0.0000

          k = 0.4167-0.1906 0.0000 (  2706 PWs)   bands (ev):

   -18.0999 -11.9652  -7.3303  -6.2843   0.9469   4.0344   4.7091   5.1278

     occupation numbers 
     1.0000   1.0000   1.0000   1.0000   0.0000   0.0000   0.0000   0.0000

          k = 0.4167-0.1270 0.0000 (  2716 PWs)   bands (ev):

   -18.2779 -11.2439  -8.0173  -6.4646   1.4268   3.8788   4.7511   4.7937

     occupation numbers 
     1.0000   1.0000   1.0000   1.0000   0.0000   0.0000   0.0000   0.0000

          k = 0.4167-0.0635 0.0000 (  2710 PWs)   bands (ev):

   -18.3882 -10.4587  -8.8063  -6.5772   1.7882   3.7330   4.5815   4.7083

     occupation numbers 
     1.0000   1.0000   1.0000   1.0000   0.0000   0.0000   0.0000   0.0000

          k = 0.4167-0.0000 0.0000 (  2710 PWs)   bands (ev):

   -18.4255  -9.6797  -9.5908  -6.6154   1.9258   3.6802   4.5069   4.6743

     occupation numbers 
     1.0000   1.0000   1.0000   1.0000   0.0000   0.0000   0.0000   0.0000

          k = 0.4167 0.0635 0.0000 (  2710 PWs)   bands (ev):

   -18.3882 -10.4619  -8.8028  -6.5770   1.7875   3.7329   4.5814   4.7079

     occupation numbers 
     1.0000   1.0000   1.0000   1.0000   0.0000   0.0000   0.0000   0.0000

          k = 0.4167 0.1270 0.0000 (  2716 PWs)   bands (ev):

   -18.2778 -11.2470  -8.0135  -6.4641   1.4254   3.8783   4.7500   4.7935

     occupation numbers 
     1.0000   1.0000   1.0000   1.0000   0.0000   0.0000   0.0000   0.0000

          k = 0.4167 0.1906 0.0000 (  2706 PWs)   bands (ev):

   -18.0997 -11.9682  -7.3264  -6.2835   0.9450   4.0327   4.7078   5.1278

     occupation numbers 
     1.0000   1.0000   1.0000   1.0000   0.0000   0.0000   0.0000   0.0000

          k = 0.4167 0.2541 0.0000 (  2719 PWs)   bands (ev):

   -17.8646 -12.6015  -6.8238  -6.0485   0.4415   3.9865   4.9034   5.5787

     occupation numbers 
     1.0000   1.0000   1.0000   1.0000   0.0000   0.0000   0.0000   0.0000

          k = 0.4167 0.3176 0.0000 (  2717 PWs)   bands (ev):

   -17.5915 -13.1188  -6.5919  -5.7790  -0.0126   3.8767   5.3884   6.1455

     occupation numbers 
     1.0000   1.0000   1.0000   1.0000   0.0000   0.0000   0.0000   0.0000

          k = 0.4167 0.3811 0.0000 (  2715 PWs)   bands (ev):

   -17.3130 -13.4828  -6.6837  -5.5048  -0.3609   3.8845   6.0368   7.0786

     occupation numbers 
     1.0000   1.0000   1.0000   1.0000   0.0000   0.0000   0.0000   0.0000

          k = 0.4167-1.0799 0.0000 (  2718 PWs)   bands (ev):

   -17.0768 -13.6442  -7.0854  -5.2625  -0.5592   3.9785   6.8069   7.5751

     occupation numbers 
     1.0000   1.0000   1.0000   1.0000   0.0000   0.0000   0.0000   0.0000

          k = 0.4167-1.0164 0.0000 (  2726 PWs)   bands (ev):

   -16.9292 -13.5574  -7.7270  -5.0845  -0.5853   4.0516   7.3572   7.7687

     occupation numbers 
     1.0000   1.0000   1.0000   1.0000   0.0000   0.0000   0.0000   0.0000

          k = 0.4167-0.9528 0.0000 (  2728 PWs)   bands (ev):

   -16.8789 -13.2181  -8.5212  -4.9825  -0.4567   4.0534   7.0969   7.5182

     occupation numbers 
     1.0000   1.0000   1.0000   1.0000   0.0000   0.0000   0.0000   0.0000

          k = 0.4167-0.8893 0.0000 (  2724 PWs)   bands (ev):

   -16.8893 -12.6707  -9.3918  -4.9411  -0.2411   4.0111   6.8415   7.1240

     occupation numbers 
     1.0000   1.0000   1.0000   1.0000   0.0000   0.0000   0.0000   0.0000

          k = 0.4167-0.8258 0.0000 (  2737 PWs)   bands (ev):

   -16.9150 -11.9762 -10.2776  -4.9319  -0.0422   3.9676   6.6784   6.8548

     occupation numbers 
     1.0000   1.0000   1.0000   1.0000   0.0000   0.0000   0.0000   0.0000

          k = 0.4167-0.7623 0.0000 (  2740 PWs)   bands (ev):

   -16.9267 -11.3039 -11.0133  -4.9317   0.0391   3.9504   6.6230   6.7562

     occupation numbers 
     1.0000   1.0000   1.0000   1.0000   0.0000   0.0000   0.0000   0.0000

          k = 0.4167-0.6987 0.0000 (  2737 PWs)   bands (ev):

   -16.9152 -11.9730 -10.2809  -4.9324  -0.0411   3.9684   6.6785   6.8547

     occupation numbers 
     1.0000   1.0000   1.0000   1.0000   0.0000   0.0000   0.0000   0.0000

          k = 0.4167-0.6352 0.0000 (  2724 PWs)   bands (ev):

   -16.8898 -12.6674  -9.3952  -4.9421  -0.2391   4.0128   6.8416   7.1239

     occupation numbers 
     1.0000   1.0000   1.0000   1.0000   0.0000   0.0000   0.0000   0.0000

          k = 0.4167-0.5717 0.0000 (  2728 PWs)   bands (ev):

   -16.8796 -13.2146  -8.5248  -4.9840  -0.4539   4.0560   7.0970   7.5181

     occupation numbers 
     1.0000   1.0000   1.0000   1.0000   0.0000   0.0000   0.0000   0.0000

          k = 0.4167-0.5082 0.0000 (  2726 PWs)   bands (ev):

   -16.9301 -13.5538  -7.7308  -5.0863  -0.5822   4.0549   7.3565   7.7692

     occupation numbers 
     1.0000   1.0000   1.0000   1.0000   0.0000   0.0000   0.0000   0.0000

          k = 0.4167-0.4447 0.0000 (  2718 PWs)   bands (ev):

   -17.0777 -13.6406  -7.0895  -5.2642  -0.5560   3.9823   6.8066   7.5731

     occupation numbers 
     1.0000   1.0000   1.0000   1.0000   0.0000   0.0000   0.0000   0.0000

          k = 0.4167-0.3811 0.0000 (  2715 PWs)   bands (ev):

   -17.3138 -13.4794  -6.6880  -5.5064  -0.3578   3.8883   6.0367   7.0792

     occupation numbers 
     1.0000   1.0000   1.0000   1.0000   0.0000   0.0000   0.0000   0.0000

          k = 0.4583-0.3494 0.0000 (  2715 PWs)   bands (ev):

   -17.2688 -13.6022  -6.6393  -5.4773  -0.4509   3.9825   6.2357   7.0231

     occupation numbers 
     1.0000   1.0000   1.0000   1.0000   0.0000   0.0000   0.0000   0.0000

          k = 0.4583-0.2859 0.0000 (  2729 PWs)   bands (ev):

   -17.4717 -13.2358  -6.8395  -5.6611  -0.1416   4.0899   5.6754   6.3962

     occupation numbers 
     1.0000   1.0000   1.0000   1.0000   0.0000   0.0000   0.0000   0.0000

          k = 0.4583-0.2223 0.0000 (  2718 PWs)   bands (ev):

   -17.6825 -12.7035  -7.3232  -5.8535   0.2774   4.2621   5.2953   5.8832

     occupation numbers 
     1.0000   1.0000   1.0000   1.0000   0.0000   0.0000   0.0000   0.0000

          k = 0.4583-0.1588 0.0000 (  2706 PWs)   bands (ev):

   -17.8641 -12.0482  -8.0061  -6.0230   0.7344   4.3037   5.1585   5.4854

     occupation numbers 
     1.0000   1.0000   1.0000   1.0000   0.0000   0.0000   0.0000   0.0000

          k = 0.4583-0.0953 0.0000 (  2700 PWs)   bands (ev):

   -17.9947 -11.3019  -8.8037  -6.1472   1.1391   4.2089   5.1367   5.2064

     occupation numbers 
     1.0000   1.0000   1.0000   1.0000   0.0000   0.0000   0.0000   0.0000

          k = 0.4583-0.0318 0.0000 (  2714 PWs)   bands (ev):

   -18.0626 -10.4917  -9.6494  -6.2124   1.3840   4.1310   5.0585   5.1051

     occupation numbers 
     1.0000   1.0000   1.0000   1.0000   0.0000   0.0000   0.0000   0.0000

          k = 0.4583 0.0318 0.0000 (  2714 PWs)   bands (ev):

   -18.0625 -10.4949  -9.6461  -6.2123   1.3835   4.1308   5.0586   5.1049

     occupation numbers 
     1.0000   1.0000   1.0000   1.0000   0.0000   0.0000   0.0000   0.0000

          k = 0.4583 0.0953 0.0000 (  2700 PWs)   bands (ev):

   -17.9946 -11.3049  -8.8003  -6.1467   1.1379   4.2083   5.1359   5.2064

     occupation numbers 
     1.0000   1.0000   1.0000   1.0000   0.0000   0.0000   0.0000   0.0000

          k = 0.4583 0.1588 0.0000 (  2706 PWs)   bands (ev):

   -17.8639 -12.0512  -8.0025  -6.0223   0.7326   4.3022   5.1575   5.4854

     occupation numbers 
     1.0000   1.0000   1.0000   1.0000   0.0000   0.0000   0.0000   0.0000

          k = 0.4583 0.2223 0.0000 (  2718 PWs)   bands (ev):

   -17.6821 -12.7066  -7.3192  -5.8525   0.2750   4.2593   5.2949   5.8832

     occupation numbers 
     1.0000   1.0000   1.0000   1.0000   0.0000   0.0000   0.0000   0.0000

          k = 0.4583 0.2859 0.0000 (  2729 PWs)   bands (ev):

   -17.4711 -13.2391  -6.8354  -5.6597  -0.1444   4.0865   5.6754   6.3962

     occupation numbers 
     1.0000   1.0000   1.0000   1.0000   0.0000   0.0000   0.0000   0.0000

          k = 0.4583 0.3494 0.0000 (  2715 PWs)   bands (ev):

   -17.2680 -13.6056  -6.6351  -5.4756  -0.4541   3.9790   6.2358   7.0230

     occupation numbers 
     1.0000   1.0000   1.0000   1.0000   0.0000   0.0000   0.0000   0.0000

          k = 0.4583-1.1116 0.0000 (  2724 PWs)   bands (ev):

   -17.1228 -13.7534  -6.7637  -5.3357  -0.6015   4.0271   6.9036   7.4122

     occupation numbers 
     1.0000   1.0000   1.0000   1.0000   0.0000   0.0000   0.0000   0.0000

          k = 0.4583-1.0481 0.0000 (  2730 PWs)   bands (ev):

   -17.0732 -13.6443  -7.1965  -5.2641  -0.5626   4.1802   6.8901   7.7448

     occupation numbers 
     1.0000   1.0000   1.0000   1.0000   0.0000   0.0000   0.0000   0.0000

          k = 0.4583-0.9846 0.0000 (  2713 PWs)   bands (ev):

   -17.1103 -13.2898  -7.8565  -5.2590  -0.3583   4.3187   6.5423   7.1025

     occupation numbers 
     1.0000   1.0000   1.0000   1.0000   0.0000   0.0000   0.0000   0.0000

          k = 0.4583-0.9211 0.0000 (  2726 PWs)   bands (ev):

   -17.1888 -12.7410  -8.6569  -5.2949  -0.0547   4.3743   6.2723   6.6829

     occupation numbers 
     1.0000   1.0000   1.0000   1.0000   0.0000   0.0000   0.0000   0.0000

          k = 0.4583-0.8576 0.0000 (  2726 PWs)   bands (ev):

   -17.2638 -12.0522  -9.5237  -5.3395   0.2493   4.3690   6.0889   6.3787

     occupation numbers 
     1.0000   1.0000   1.0000   1.0000   0.0000   0.0000   0.0000   0.0000

          k = 0.4583-0.7940 0.0000 (  2722 PWs)   bands (ev):

   -17.3076 -11.2698 -10.3984  -5.3682   0.4425   4.3519   5.9958   6.2129

     occupation numbers 
     1.0000   1.0000   1.0000   1.0000   0.0000   0.0000   0.0000   0.0000

          k = 0.4583-0.7305 0.0000 (  2722 PWs)   bands (ev):

   -17.3076 -11.2667 -10.4016  -5.3684   0.4430   4.3523   5.9959   6.2128

     occupation numbers 
     1.0000   1.0000   1.0000   1.0000   0.0000   0.0000   0.0000   0.0000

          k = 0.4583-0.6670 0.0000 (  2726 PWs)   bands (ev):

   -17.2641 -12.0491  -9.5270  -5.3401   0.2507   4.3703   6.0891   6.3787

     occupation numbers 
     1.0000   1.0000   1.0000   1.0000   0.0000   0.0000   0.0000   0.0000

          k = 0.4583-0.6035 0.0000 (  2726 PWs)   bands (ev):

   -17.1892 -12.7378  -8.6604  -5.2960  -0.0525   4.3766   6.2726   6.6829

     occupation numbers 
     1.0000   1.0000   1.0000   1.0000   0.0000   0.0000   0.0000   0.0000

          k = 0.4583-0.5399 0.0000 (  2713 PWs)   bands (ev):

   -17.1110 -13.2864  -7.8603  -5.2604  -0.3554   4.3218   6.5423   7.1025

     occupation numbers 
     1.0000   1.0000   1.0000   1.0000   0.0000   0.0000   0.0000   0.0000

          k = 0.4583-0.4764 0.0000 (  2730 PWs)   bands (ev):

   -17.0740 -13.6408  -7.2004  -5.2658  -0.5595   4.1838   6.8896   7.7447

     occupation numbers 
     1.0000   1.0000   1.0000   1.0000   0.0000   0.0000   0.0000   0.0000

          k = 0.4583-0.4129 0.0000 (  2724 PWs)   bands (ev):

   -17.1237 -13.7499  -6.7678  -5.3375  -0.5982   4.0307   6.9031   7.4120

     occupation numbers 
     1.0000   1.0000   1.0000   1.0000   0.0000   0.0000   0.0000   0.0000

          k =-0.5000 0.3811 0.0000 (  2720 PWs)   bands (ev):

   -17.1388 -13.7869  -6.6539  -5.3617  -0.6133   4.0154   6.9855   7.2974

     occupation numbers 
     1.0000   1.0000   1.0000   1.0000   0.0000   0.0000   0.0000   0.0000

          k =-0.5000 0.4447 0.0000 (  2727 PWs)   bands (ev):

   -17.1878 -13.6570  -6.8191  -5.3966  -0.5180   4.0985   6.5182   7.2935

     occupation numbers 
     1.0000   1.0000   1.0000   1.0000   0.0000   0.0000   0.0000   0.0000

          k =-0.5000 0.5082 0.0000 (  2729 PWs)   bands (ev):

   -17.3100 -13.2936  -7.2793  -5.4871  -0.2551   4.2845   6.0612   6.7188

     occupation numbers 
     1.0000   1.0000   1.0000   1.0000   0.0000   0.0000   0.0000   0.0000

          k =-0.5000 0.5717 0.0000 (  2711 PWs)   bands (ev):

   -17.4556 -12.7503  -7.9532  -5.6012   0.1151   4.4338   5.7607   6.2563

     occupation numbers 
     1.0000   1.0000   1.0000   1.0000   0.0000   0.0000   0.0000   0.0000

          k =-0.5000 0.6352 0.0000 (  2724 PWs)   bands (ev):

   -17.5835 -12.0761  -8.7544  -5.7065   0.5060   4.4642   5.6000   5.9085

     occupation numbers 
     1.0000   1.0000   1.0000   1.0000   0.0000   0.0000   0.0000   0.0000

          k =-0.5000 0.6987 0.0000 (  2718 PWs)   bands (ev):

   -17.6685 -11.3077  -9.6126  -5.7788   0.8123   4.4298   5.5182   5.6852

     occupation numbers 
     1.0000   1.0000   1.0000   1.0000   0.0000   0.0000   0.0000   0.0000

          k =-0.5000 0.7623 0.0000 (  2706 PWs)   bands (ev):

   -17.6980 -10.5122 -10.4402  -5.8043   0.9299   4.4091   5.4904   5.6065

     occupation numbers 
     1.0000   1.0000   1.0000   1.0000   0.0000   0.0000   0.0000   0.0000

          k =-0.5000 0.8258 0.0000 (  2718 PWs)   bands (ev):

   -17.6684 -11.3108  -9.6093  -5.7784   0.8114   4.4291   5.5178   5.6852

     occupation numbers 
     1.0000   1.0000   1.0000   1.0000   0.0000   0.0000   0.0000   0.0000

          k =-0.5000 0.8893 0.0000 (  2724 PWs)   bands (ev):

   -17.5832 -12.0792  -8.7509  -5.7058   0.5044   4.4627   5.5993   5.9085

     occupation numbers 
     1.0000   1.0000   1.0000   1.0000   0.0000   0.0000   0.0000   0.0000

          k =-0.5000 0.9528 0.0000 (  2711 PWs)   bands (ev):

   -17.4552 -12.7535  -7.9495  -5.6001   0.1128   4.4312   5.7603   6.2563

     occupation numbers 
     1.0000   1.0000   1.0000   1.0000   0.0000   0.0000   0.0000   0.0000

          k =-0.5000 1.0164 0.0000 (  2729 PWs)   bands (ev):

   -17.3093 -13.2969  -7.2754  -5.4856  -0.2579   4.2812   6.0613   6.7188

     occupation numbers 
     1.0000   1.0000   1.0000   1.0000   0.0000   0.0000   0.0000   0.0000

          k =-0.5000 1.0799 0.0000 (  2727 PWs)   bands (ev):

   -17.1870 -13.6605  -6.8150  -5.3949  -0.5212   4.0950   6.5185   7.2935

     occupation numbers 
     1.0000   1.0000   1.0000   1.0000   0.0000   0.0000   0.0000   0.0000

          k =-0.5000-0.3811 0.0000 (  2720 PWs)   bands (ev):

   -17.1379 -13.7904  -6.6498  -5.3599  -0.6166   4.0119   6.9864   7.2969

     occupation numbers 
     1.0000   1.0000   1.0000   1.0000   0.0000   0.0000   0.0000   0.0000

          k =-0.5000-0.3176 0.0000 (  2727 PWs)   bands (ev):

   -17.1870 -13.6605  -6.8150  -5.3949  -0.5212   4.0950   6.5185   7.2934

     occupation numbers 
     1.0000   1.0000   1.0000   1.0000   0.0000   0.0000   0.0000   0.0000

          k =-0.5000-0.2541 0.0000 (  2729 PWs)   bands (ev):

   -17.3093 -13.2969  -7.2754  -5.4856  -0.2579   4.2812   6.0613   6.7188

     occupation numbers 
     1.0000   1.0000   1.0000   1.0000   0.0000   0.0000   0.0000   0.0000

          k =-0.5000-0.1906 0.0000 (  2711 PWs)   bands (ev):

   -17.4552 -12.7535  -7.9495  -5.6001   0.1128   4.4312   5.7603   6.2563

     occupation numbers 
     1.0000   1.0000   1.0000   1.0000   0.0000   0.0000   0.0000   0.0000

          k =-0.5000-0.1270 0.0000 (  2724 PWs)   bands (ev):

   -17.5832 -12.0792  -8.7509  -5.7058   0.5044   4.4627   5.5994   5.9085

     occupation numbers 
     1.0000   1.0000   1.0000   1.0000   0.0000   0.0000   0.0000   0.0000

          k =-0.5000-0.0635 0.0000 (  2718 PWs)   bands (ev):

   -17.6684 -11.3108  -9.6093  -5.7784   0.8114   4.4291   5.5178   5.6852

     occupation numbers 
     1.0000   1.0000   1.0000   1.0000   0.0000   0.0000   0.0000   0.0000

          k =-0.5000 0.0000 0.0000 (  2706 PWs)   bands (ev):

   -17.6980 -10.5122 -10.4402  -5.8043   0.9299   4.4091   5.4904   5.6065

     occupation numbers 
     1.0000   1.0000   1.0000   1.0000   0.0000   0.0000   0.0000   0.0000

          k =-0.5000 0.0635 0.0000 (  2718 PWs)   bands (ev):

   -17.6685 -11.3077  -9.6126  -5.7788   0.8123   4.4298   5.5182   5.6851

     occupation numbers 
     1.0000   1.0000   1.0000   1.0000   0.0000   0.0000   0.0000   0.0000

          k =-0.5000 0.1270 0.0000 (  2724 PWs)   bands (ev):

   -17.5835 -12.0761  -8.7544  -5.7065   0.5060   4.4642   5.6000   5.9085

     occupation numbers 
     1.0000   1.0000   1.0000   1.0000   0.0000   0.0000   0.0000   0.0000

          k =-0.5000 0.1906 0.0000 (  2711 PWs)   bands (ev):

   -17.4556 -12.7503  -7.9532  -5.6012   0.1151   4.4338   5.7607   6.2563

     occupation numbers 
     1.0000   1.0000   1.0000   1.0000   0.0000   0.0000   0.0000   0.0000

          k =-0.5000 0.2541 0.0000 (  2729 PWs)   bands (ev):

   -17.3100 -13.2936  -7.2793  -5.4871  -0.2551   4.2845   6.0612   6.7188

     occupation numbers 
     1.0000   1.0000   1.0000   1.0000   0.0000   0.0000   0.0000   0.0000

          k =-0.5000 0.3176 0.0000 (  2727 PWs)   bands (ev):

   -17.1878 -13.6570  -6.8191  -5.3966  -0.5180   4.0985   6.5182   7.2935

     occupation numbers 
     1.0000   1.0000   1.0000   1.0000   0.0000   0.0000   0.0000   0.0000

          k =-0.4583 0.3494 0.0000 (  2715 PWs)   bands (ev):

   -17.2688 -13.6022  -6.6393  -5.4773  -0.4509   3.9825   6.2356   7.0230

     occupation numbers 
     1.0000   1.0000   1.0000   1.0000   0.0000   0.0000   0.0000   0.0000

          k =-0.4583 0.4129 0.0000 (  2724 PWs)   bands (ev):

   -17.1237 -13.7499  -6.7678  -5.3375  -0.5982   4.0307   6.9031   7.4120

     occupation numbers 
     1.0000   1.0000   1.0000   1.0000   0.0000   0.0000   0.0000   0.0000

          k =-0.4583 0.4764 0.0000 (  2730 PWs)   bands (ev):

   -17.0740 -13.6408  -7.2004  -5.2658  -0.5595   4.1838   6.8896   7.7444

     occupation numbers 
     1.0000   1.0000   1.0000   1.0000   0.0000   0.0000   0.0000   0.0000

          k =-0.4583 0.5399 0.0000 (  2713 PWs)   bands (ev):

   -17.1110 -13.2864  -7.8603  -5.2604  -0.3554   4.3218   6.5423   7.1025

     occupation numbers 
     1.0000   1.0000   1.0000   1.0000   0.0000   0.0000   0.0000   0.0000

          k =-0.4583 0.6035 0.0000 (  2726 PWs)   bands (ev):

   -17.1892 -12.7378  -8.6604  -5.2960  -0.0525   4.3766   6.2726   6.6826

     occupation numbers 
     1.0000   1.0000   1.0000   1.0000   0.0000   0.0000   0.0000   0.0000

          k =-0.4583 0.6670 0.0000 (  2726 PWs)   bands (ev):

   -17.2641 -12.0491  -9.5270  -5.3401   0.2507   4.3703   6.0891   6.3787

     occupation numbers 
     1.0000   1.0000   1.0000   1.0000   0.0000   0.0000   0.0000   0.0000

          k =-0.4583 0.7305 0.0000 (  2722 PWs)   bands (ev):

   -17.3076 -11.2667 -10.4016  -5.3684   0.4430   4.3523   5.9959   6.2129

     occupation numbers 
     1.0000   1.0000   1.0000   1.0000   0.0000   0.0000   0.0000   0.0000

          k =-0.4583 0.7940 0.0000 (  2722 PWs)   bands (ev):

   -17.3076 -11.2698 -10.3984  -5.3682   0.4425   4.3519   5.9958   6.2129

     occupation numbers 
     1.0000   1.0000   1.0000   1.0000   0.0000   0.0000   0.0000   0.0000

          k =-0.4583 0.8576 0.0000 (  2726 PWs)   bands (ev):

   -17.2638 -12.0522  -9.5237  -5.3395   0.2493   4.3690   6.0889   6.3787

     occupation numbers 
     1.0000   1.0000   1.0000   1.0000   0.0000   0.0000   0.0000   0.0000

          k =-0.4583 0.9211 0.0000 (  2726 PWs)   bands (ev):

   -17.1888 -12.7410  -8.6569  -5.2949  -0.0547   4.3743   6.2723   6.6827

     occupation numbers 
     1.0000   1.0000   1.0000   1.0000   0.0000   0.0000   0.0000   0.0000

          k =-0.4583 0.9846 0.0000 (  2713 PWs)   bands (ev):

   -17.1103 -13.2898  -7.8565  -5.2590  -0.3583   4.3187   6.5423   7.1025

     occupation numbers 
     1.0000   1.0000   1.0000   1.0000   0.0000   0.0000   0.0000   0.0000

          k =-0.4583 1.0481 0.0000 (  2730 PWs)   bands (ev):

   -17.0732 -13.6443  -7.1965  -5.2641  -0.5626   4.1802   6.8901   7.7439

     occupation numbers 
     1.0000   1.0000   1.0000   1.0000   0.0000   0.0000   0.0000   0.0000

          k =-0.4583-0.4129 0.0000 (  2724 PWs)   bands (ev):

   -17.1228 -13.7534  -6.7637  -5.3357  -0.6015   4.0271   6.9036   7.4122

     occupation numbers 
     1.0000   1.0000   1.0000   1.0000   0.0000   0.0000   0.0000   0.0000

          k =-0.4583-0.3494 0.0000 (  2715 PWs)   bands (ev):

   -17.2680 -13.6056  -6.6351  -5.4756  -0.4541   3.9790   6.2358   7.0230

     occupation numbers 
     1.0000   1.0000   1.0000   1.0000   0.0000   0.0000   0.0000   0.0000

          k =-0.4583-0.2859 0.0000 (  2729 PWs)   bands (ev):

   -17.4711 -13.2391  -6.8354  -5.6597  -0.1444   4.0865   5.6754   6.3962

     occupation numbers 
     1.0000   1.0000   1.0000   1.0000   0.0000   0.0000   0.0000   0.0000

          k =-0.4583-0.2223 0.0000 (  2718 PWs)   bands (ev):

   -17.6821 -12.7066  -7.3192  -5.8525   0.2750   4.2593   5.2949   5.8832

     occupation numbers 
     1.0000   1.0000   1.0000   1.0000   0.0000   0.0000   0.0000   0.0000

          k =-0.4583-0.1588 0.0000 (  2706 PWs)   bands (ev):

   -17.8639 -12.0512  -8.0025  -6.0223   0.7326   4.3022   5.1575   5.4854

     occupation numbers 
     1.0000   1.0000   1.0000   1.0000   0.0000   0.0000   0.0000   0.0000

          k =-0.4583-0.0953 0.0000 (  2700 PWs)   bands (ev):

   -17.9946 -11.3049  -8.8003  -6.1467   1.1379   4.2083   5.1359   5.2064

     occupation numbers 
     1.0000   1.0000   1.0000   1.0000   0.0000   0.0000   0.0000   0.0000

          k =-0.4583-0.0318 0.0000 (  2714 PWs)   bands (ev):

   -18.0625 -10.4949  -9.6461  -6.2123   1.3835   4.1308   5.0585   5.1049

     occupation numbers 
     1.0000   1.0000   1.0000   1.0000   0.0000   0.0000   0.0000   0.0000

          k =-0.4583 0.0318 0.0000 (  2714 PWs)   bands (ev):

   -18.0626 -10.4917  -9.6494  -6.2124   1.3840   4.1310   5.0585   5.1051

     occupation numbers 
     1.0000   1.0000   1.0000   1.0000   0.0000   0.0000   0.0000   0.0000

          k =-0.4583 0.0953 0.0000 (  2700 PWs)   bands (ev):

   -17.9947 -11.3019  -8.8037  -6.1472   1.1391   4.2089   5.1366   5.2064

     occupation numbers 
     1.0000   1.0000   1.0000   1.0000   0.0000   0.0000   0.0000   0.0000

          k =-0.4583 0.1588 0.0000 (  2706 PWs)   bands (ev):

   -17.8641 -12.0482  -8.0061  -6.0230   0.7344   4.3037   5.1585   5.4854

     occupation numbers 
     1.0000   1.0000   1.0000   1.0000   0.0000   0.0000   0.0000   0.0000

          k =-0.4583 0.2223 0.0000 (  2718 PWs)   bands (ev):

   -17.6825 -12.7035  -7.3232  -5.8535   0.2774   4.2621   5.2952   5.8832

     occupation numbers 
     1.0000   1.0000   1.0000   1.0000   0.0000   0.0000   0.0000   0.0000

          k =-0.4583 0.2859 0.0000 (  2729 PWs)   bands (ev):

   -17.4717 -13.2358  -6.8395  -5.6611  -0.1416   4.0899   5.6754   6.3962

     occupation numbers 
     1.0000   1.0000   1.0000   1.0000   0.0000   0.0000   0.0000   0.0000

          k =-0.4167 0.3176 0.0000 (  2717 PWs)   bands (ev):

   -17.5921 -13.1156  -6.5962  -5.7803  -0.0099   3.8803   5.3884   6.4142

     occupation numbers 
     1.0000   1.0000   1.0000   1.0000   0.0000   0.0000   0.0000   0.0000

          k =-0.4167 0.3811 0.0000 (  2715 PWs)   bands (ev):

   -17.3138 -13.4794  -6.6880  -5.5064  -0.3578   3.8883   6.0367   6.8266

     occupation numbers 
     1.0000   1.0000   1.0000   1.0000   0.0000   0.0000   0.0000   0.0000

          k =-0.4167 0.4447 0.0000 (  2718 PWs)   bands (ev):

   -17.0777 -13.6406  -7.0895  -5.2642  -0.5560   3.9823   6.8066   7.5731

     occupation numbers 
     1.0000   1.0000   1.0000   1.0000   0.0000   0.0000   0.0000   0.0000

          k =-0.4167 0.5082 0.0000 (  2726 PWs)   bands (ev):

   -16.9301 -13.5538  -7.7308  -5.0863  -0.5822   4.0549   7.3565   7.7692

     occupation numbers 
     1.0000   1.0000   1.0000   1.0000   0.0000   0.0000   0.0000   0.0000

          k =-0.4167 0.5717 0.0000 (  2728 PWs)   bands (ev):

   -16.8796 -13.2146  -8.5248  -4.9840  -0.4539   4.0560   7.0970   7.5181

     occupation numbers 
     1.0000   1.0000   1.0000   1.0000   0.0000   0.0000   0.0000   0.0000

          k =-0.4167 0.6352 0.0000 (  2724 PWs)   bands (ev):

   -16.8898 -12.6674  -9.3952  -4.9421  -0.2391   4.0128   6.8416   7.1239

     occupation numbers 
     1.0000   1.0000   1.0000   1.0000   0.0000   0.0000   0.0000   0.0000

          k =-0.4167 0.6987 0.0000 (  2737 PWs)   bands (ev):

   -16.9152 -11.9730 -10.2809  -4.9324  -0.0411   3.9684   6.6785   6.8547

     occupation numbers 
     1.0000   1.0000   1.0000   1.0000   0.0000   0.0000   0.0000   0.0000

          k =-0.4167 0.7623 0.0000 (  2740 PWs)   bands (ev):

   -16.9267 -11.3039 -11.0133  -4.9317   0.0391   3.9504   6.6230   6.7562

     occupation numbers 
     1.0000   1.0000   1.0000   1.0000   0.0000   0.0000   0.0000   0.0000

          k =-0.4167 0.8258 0.0000 (  2737 PWs)   bands (ev):

   -16.9150 -11.9762 -10.2776  -4.9319  -0.0422   3.9676   6.6784   6.8548

     occupation numbers 
     1.0000   1.0000   1.0000   1.0000   0.0000   0.0000   0.0000   0.0000

          k =-0.4167 0.8893 0.0000 (  2724 PWs)   bands (ev):

   -16.8893 -12.6707  -9.3918  -4.9411  -0.2411   4.0111   6.8415   7.1240

     occupation numbers 
     1.0000   1.0000   1.0000   1.0000   0.0000   0.0000   0.0000   0.0000

          k =-0.4167 0.9528 0.0000 (  2728 PWs)   bands (ev):

   -16.8789 -13.2181  -8.5212  -4.9825  -0.4567   4.0534   7.0969   7.5182

     occupation numbers 
     1.0000   1.0000   1.0000   1.0000   0.0000   0.0000   0.0000   0.0000

          k =-0.4167 1.0164 0.0000 (  2726 PWs)   bands (ev):

   -16.9292 -13.5574  -7.7270  -5.0845  -0.5853   4.0516   7.3572   7.7687

     occupation numbers 
     1.0000   1.0000   1.0000   1.0000   0.0000   0.0000   0.0000   0.0000

          k =-0.4167-0.4447 0.0000 (  2718 PWs)   bands (ev):

   -17.0768 -13.6442  -7.0854  -5.2625  -0.5592   3.9785   6.8069   7.5751

     occupation numbers 
     1.0000   1.0000   1.0000   1.0000   0.0000   0.0000   0.0000   0.0000

          k =-0.4167-0.3811 0.0000 (  2715 PWs)   bands (ev):

   -17.3130 -13.4828  -6.6837  -5.5048  -0.3609   3.8845   6.0368   6.8267

     occupation numbers 
     1.0000   1.0000   1.0000   1.0000   0.0000   0.0000   0.0000   0.0000

          k =-0.4167-0.3176 0.0000 (  2717 PWs)   bands (ev):

   -17.5915 -13.1188  -6.5919  -5.7790  -0.0126   3.8767   5.3884   6.1455

     occupation numbers 
     1.0000   1.0000   1.0000   1.0000   0.0000   0.0000   0.0000   0.0000

          k =-0.4167-0.2541 0.0000 (  2719 PWs)   bands (ev):

   -17.8646 -12.6015  -6.8238  -6.0485   0.4415   3.9865   4.9034   5.5787

     occupation numbers 
     1.0000   1.0000   1.0000   1.0000   0.0000   0.0000   0.0000   0.0000

          k =-0.4167-0.1906 0.0000 (  2706 PWs)   bands (ev):

   -18.0997 -11.9682  -7.3264  -6.2835   0.9450   4.0327   4.7078   5.1278

     occupation numbers 
     1.0000   1.0000   1.0000   1.0000   0.0000   0.0000   0.0000   0.0000

          k =-0.4167-0.1270 0.0000 (  2716 PWs)   bands (ev):

   -18.2778 -11.2470  -8.0135  -6.4641   1.4254   3.8783   4.7500   4.7937

     occupation numbers 
     1.0000   1.0000   1.0000   1.0000   0.0000   0.0000   0.0000   0.0000

          k =-0.4167-0.0635 0.0000 (  2710 PWs)   bands (ev):

   -18.3882 -10.4619  -8.8028  -6.5770   1.7875   3.7329   4.5814   4.7079

     occupation numbers 
     1.0000   1.0000   1.0000   1.0000   0.0000   0.0000   0.0000   0.0000

          k =-0.4167 0.0000 0.0000 (  2710 PWs)   bands (ev):

   -18.4255  -9.6797  -9.5908  -6.6154   1.9258   3.6802   4.5069   4.6743

     occupation numbers 
     1.0000   1.0000   1.0000   1.0000   0.0000   0.0000   0.0000   0.0000

          k =-0.4167 0.0635 0.0000 (  2710 PWs)   bands (ev):

   -18.3882 -10.4587  -8.8063  -6.5772   1.7882   3.7330   4.5814   4.7083

     occupation numbers 
     1.0000   1.0000   1.0000   1.0000   0.0000   0.0000   0.0000   0.0000

          k =-0.4167 0.1270 0.0000 (  2716 PWs)   bands (ev):

   -18.2779 -11.2439  -8.0173  -6.4646   1.4268   3.8788   4.7511   4.7936

     occupation numbers 
     1.0000   1.0000   1.0000   1.0000   0.0000   0.0000   0.0000   0.0000

          k =-0.4167 0.1906 0.0000 (  2706 PWs)   bands (ev):

   -18.0999 -11.9652  -7.3303  -6.2843   0.9469   4.0344   4.7091   5.1278

     occupation numbers 
     1.0000   1.0000   1.0000   1.0000   0.0000   0.0000   0.0000   0.0000

          k =-0.4167 0.2541 0.0000 (  2719 PWs)   bands (ev):

   -17.8650 -12.5984  -6.8280  -6.0495   0.4438   3.9897   4.9036   5.5787

     occupation numbers 
     1.0000   1.0000   1.0000   1.0000   0.0000   0.0000   0.0000   0.0000

          k =-0.3750 0.2859 0.0000 (  2722 PWs)   bands (ev):

   -17.9995 -12.4381  -6.5255  -6.1866   0.6185   3.6997   4.6121   5.6196

     occupation numbers 
     1.0000   1.0000   1.0000   1.0000   0.0000   0.0000   0.0000   0.0000

          k =-0.3750 0.3494 0.0000 (  2720 PWs)   bands (ev):

   -17.6676 -12.9373  -6.5823  -5.8430   0.1389   3.6674   5.1954   5.9713

     occupation numbers 
     1.0000   1.0000   1.0000   1.0000   0.0000   0.0000   0.0000   0.0000

          k =-0.3750 0.4129 0.0000 (  2719 PWs)   bands (ev):

   -17.3195 -13.2944  -6.9511  -5.4829  -0.2442   3.6864   5.9228   6.7067

     occupation numbers 
     1.0000   1.0000   1.0000   1.0000   0.0000   0.0000   0.0000   0.0000

          k =-0.3750 0.4764 0.0000 (  2714 PWs)   bands (ev):

   -16.9992 -13.4649  -7.5693  -5.1423  -0.4967   3.6703   6.7735   7.5422

     occupation numbers 
     1.0000   1.0000   1.0000   1.0000   0.0000   0.0000   0.0000   0.0000

          k =-0.3750 0.5399 0.0000 (  2726 PWs)   bands (ev):

   -16.7580 -13.4005  -8.3518  -4.8597  -0.5997   3.5901   7.7113   8.0384

     occupation numbers 
     1.0000   1.0000   1.0000   1.0000   0.0000   0.0000   0.0000   0.0000

          k =-0.3750 0.6035 0.0000 (  2728 PWs)   bands (ev):

   -16.6212 -13.0827  -9.2206  -4.6610  -0.5668   3.4821   7.7122   7.8795

     occupation numbers 
     1.0000   1.0000   1.0000   1.0000   0.0000   0.0000   0.0000   0.0000

          k =-0.3750 0.6670 0.0000 (  2737 PWs)   bands (ev):

   -16.5665 -12.5473 -10.1118  -4.5464  -0.4595   3.3887   7.4897   7.4902

     occupation numbers 
     1.0000   1.0000   1.0000   1.0000   0.0000   0.0000   0.0000   0.0000

          k =-0.3750 0.7305 0.0000 (  2738 PWs)   bands (ev):

   -16.5523 -11.8779 -10.9530  -4.4971  -0.3701   3.3360   7.2615   7.3743

     occupation numbers 
     1.0000   1.0000   1.0000   1.0000   0.0000   0.0000   0.0000   0.0000

          k =-0.3750 0.7940 0.0000 (  2738 PWs)   bands (ev):

   -16.5521 -11.8809 -10.9500  -4.4968  -0.3708   3.3357   7.2616   7.3742

     occupation numbers 
     1.0000   1.0000   1.0000   1.0000   0.0000   0.0000   0.0000   0.0000

          k =-0.3750 0.8576 0.0000 (  2737 PWs)   bands (ev):

   -16.5660 -12.5508 -10.1084  -4.5455  -0.4612   3.3876   7.4899   7.4901

     occupation numbers 
     1.0000   1.0000   1.0000   1.0000   0.0000   0.0000   0.0000   0.0000

          k =-0.3750 0.9211 0.0000 (  2728 PWs)   bands (ev):

   -16.6204 -13.0863  -9.2170  -4.6596  -0.5694   3.4803   7.7121   7.8797

     occupation numbers 
     1.0000   1.0000   1.0000   1.0000   0.0000   0.0000   0.0000   0.0000

          k =-0.3750 0.9846 0.0000 (  2726 PWs)   bands (ev):

   -16.7571 -13.4042  -8.3481  -4.8580  -0.6028   3.5875   7.7115   8.0382

     occupation numbers 
     1.0000   1.0000   1.0000   1.0000   0.0000   0.0000   0.0000   0.0000

          k =-0.3750-0.4764 0.0000 (  2714 PWs)   bands (ev):

   -16.9984 -13.4684  -7.5653  -5.1406  -0.4999   3.6669   6.7736   7.5419

     occupation numbers 
     1.0000   1.0000   1.0000   1.0000   0.0000   0.0000   0.0000   0.0000

          k =-0.3750-0.4129 0.0000 (  2719 PWs)   bands (ev):

   -17.3189 -13.2977  -6.9469  -5.4814  -0.2472   3.6825   5.9229   6.7067

     occupation numbers 
     1.0000   1.0000   1.0000   1.0000   0.0000   0.0000   0.0000   0.0000

          k =-0.3750-0.3494 0.0000 (  2720 PWs)   bands (ev):

   -17.6672 -12.9404  -6.5779  -5.8417   0.1362   3.6635   5.1955   5.9713

     occupation numbers 
     1.0000   1.0000   1.0000   1.0000   0.0000   0.0000   0.0000   0.0000

          k =-0.3750-0.2859 0.0000 (  2722 PWs)   bands (ev):

   -17.9992 -12.4412  -6.5211  -6.1856   0.6162   3.6961   4.6121   5.3493

     occupation numbers 
     1.0000   1.0000   1.0000   1.0000   0.0000   0.0000   0.0000   0.0000

          k =-0.3750-0.2223 0.0000 (  2705 PWs)   bands (ev):

   -18.2865 -11.8321  -6.7799  -6.4859   1.1501   3.7422   4.2717   4.8441

     occupation numbers 
     1.0000   1.0000   1.0000   1.0000   0.0000   0.0000   0.0000   0.0000

          k =-0.3750-0.1588 0.0000 (  2709 PWs)   bands (ev):

   -18.5125 -11.1374  -7.2956  -6.7244   1.6822   3.5610   4.3266   4.4553

     occupation numbers 
     1.0000   1.0000   1.0000   1.0000   0.0000   0.0000   0.0000   0.0000

          k =-0.3750-0.0953 0.0000 (  2712 PWs)   bands (ev):

   -18.6673 -10.3789  -7.9811  -6.8890   2.1367   3.3521   4.1833   4.3158

     occupation numbers 
     1.0000   1.0000   1.0000   1.0000   0.0000   0.0000   0.0000   0.0000

          k =-0.3750-0.0318 0.0000 (  2714 PWs)   bands (ev):

   -18.7460  -9.5842  -8.7539  -6.9730   2.4120   3.2388   4.0364   4.2392

     occupation numbers 
     1.0000   1.0000   1.0000   1.0000   0.0000   0.0000   0.0000   0.0000

          k =-0.3750 0.0318 0.0000 (  2714 PWs)   bands (ev):

   -18.7460  -9.5809  -8.7574  -6.9731   2.4124   3.2388   4.0365   4.2393

     occupation numbers 
     1.0000   1.0000   1.0000   1.0000   0.0000   0.0000   0.0000   0.0000

          k =-0.3750 0.0953 0.0000 (  2712 PWs)   bands (ev):

   -18.6674 -10.3757  -7.9848  -6.8893   2.1377   3.3523   4.1833   4.3164

     occupation numbers 
     1.0000   1.0000   1.0000   1.0000   0.0000   0.0000   0.0000   0.0000

          k =-0.3750 0.1588 0.0000 (  2709 PWs)   bands (ev):

   -18.5126 -11.1343  -7.2996  -6.7249   1.6837   3.5616   4.3284   4.4553

     occupation numbers 
     1.0000   1.0000   1.0000   1.0000   0.0000   0.0000   0.0000   0.0000

          k =-0.3750 0.2223 0.0000 (  2705 PWs)   bands (ev):

   -18.2867 -11.8291  -6.7842  -6.4867   1.1520   3.7445   4.2727   4.8440

     occupation numbers 
     1.0000   1.0000   1.0000   1.0000   0.0000   0.0000   0.0000   0.0000

          k =-0.3333 0.2541 0.0000 (  2708 PWs)   bands (ev):

   -18.4216 -11.6433  -6.6273  -6.4295   1.3529   3.4291   3.9282   4.6378

     occupation numbers 
     1.0000   1.0000   1.0000   1.0000   0.0000   0.0000   0.0000   0.0000

          k =-0.3333 0.3176 0.0000 (  2718 PWs)   bands (ev):

   -18.0835 -12.2275  -6.4551  -6.2630   0.7995   3.3690   4.4259   5.1981

     occupation numbers 
     1.0000   1.0000   1.0000   1.0000   0.0000   0.0000   0.0000   0.0000

          k =-0.3333 0.3811 0.0000 (  2712 PWs)   bands (ev):

   -17.6956 -12.7073  -6.7908  -5.8477   0.2975   3.3076   5.0953   5.8753

     occupation numbers 
     1.0000   1.0000   1.0000   1.0000   0.0000   0.0000   0.0000   0.0000

          k =-0.3333 0.4447 0.0000 (  2711 PWs)   bands (ev):

   -17.2831 -13.0553  -7.3822  -5.4059  -0.1222   3.1990   5.8943   6.6635

     occupation numbers 
     1.0000   1.0000   1.0000   1.0000   0.0000   0.0000   0.0000   0.0000

          k =-0.3333 0.5082 0.0000 (  2716 PWs)   bands (ev):

   -16.8864 -13.2327  -8.1477  -4.9718  -0.4365   3.0352   6.8114   7.5379

     occupation numbers 
     1.0000   1.0000   1.0000   1.0000   0.0000   0.0000   0.0000   0.0000

          k =-0.3333 0.5717 0.0000 (  2724 PWs)   bands (ev):

   -16.5591 -13.1919  -9.0087  -4.5880  -0.6313   2.8575   7.8334   8.2725

     occupation numbers 
     1.0000   1.0000   1.0000   1.0000   0.0000   0.0000   0.0000   0.0000

          k =-0.3333 0.6352 0.0000 (  2737 PWs)   bands (ev):

   -16.3423 -12.9044  -9.8990  -4.2957  -0.7139   2.7067   8.0358   8.3929

     occupation numbers 
     1.0000   1.0000   1.0000   1.0000   0.0000   0.0000   0.0000   0.0000

          k =-0.3333 0.6987 0.0000 (  2733 PWs)   bands (ev):

   -16.2334 -12.4046 -10.7520  -4.1189  -0.7231   2.6082   7.6876   8.2268

     occupation numbers 
     1.0000   1.0000   1.0000   1.0000   0.0000   0.0000   0.0000   0.0000

          k =-0.3333 0.7623 0.0000 (  2738 PWs)   bands (ev):

   -16.2022 -11.9578 -11.3134  -4.0607  -0.7171   2.5739   7.5540   8.1681

     occupation numbers 
     1.0000   1.0000   1.0000   1.0000   0.0000   0.0000   0.0000   0.0000

          k =-0.3333 0.8258 0.0000 (  2733 PWs)   bands (ev):

   -16.2330 -12.4080 -10.7487  -4.1181  -0.7244   2.6076   7.6880   8.2268

     occupation numbers 
     1.0000   1.0000   1.0000   1.0000   0.0000   0.0000   0.0000   0.0000

          k =-0.3333 0.8893 0.0000 (  2737 PWs)   bands (ev):

   -16.3416 -12.9082  -9.8954  -4.2943  -0.7162   2.7056   8.0364   8.3929

     occupation numbers 
     1.0000   1.0000   1.0000   1.0000   0.0000   0.0000   0.0000   0.0000

          k =-0.3333 0.9528 0.0000 (  2724 PWs)   bands (ev):

   -16.5582 -13.1957  -9.0050  -4.5863  -0.6343   2.8557   7.8333   8.2729

     occupation numbers 
     1.0000   1.0000   1.0000   1.0000   0.0000   0.0000   0.0000   0.0000

          k =-0.3333-0.5082 0.0000 (  2716 PWs)   bands (ev):

   -16.8857 -13.2364  -8.1437  -4.9702  -0.4395   3.0327   6.8113   7.5380

     occupation numbers 
     1.0000   1.0000   1.0000   1.0000   0.0000   0.0000   0.0000   0.0000

          k =-0.3333-0.4447 0.0000 (  2711 PWs)   bands (ev):

   -17.2825 -13.0587  -7.3780  -5.4045  -0.1251   3.1957   5.8943   6.6636

     occupation numbers 
     1.0000   1.0000   1.0000   1.0000   0.0000   0.0000   0.0000   0.0000

          k =-0.3333-0.3811 0.0000 (  2712 PWs)   bands (ev):

   -17.6952 -12.7105  -6.7864  -5.8465   0.2949   3.3037   5.0954   5.8753

     occupation numbers 
     1.0000   1.0000   1.0000   1.0000   0.0000   0.0000   0.0000   0.0000

          k =-0.3333-0.3176 0.0000 (  2718 PWs)   bands (ev):

   -18.0832 -12.2306  -6.4505  -6.2620   0.7972   3.3649   4.4260   5.1980

     occupation numbers 
     1.0000   1.0000   1.0000   1.0000   0.0000   0.0000   0.0000   0.0000

          k =-0.3333-0.2541 0.0000 (  2708 PWs)   bands (ev):

   -18.4214 -11.6464  -6.6266  -6.4249   1.3509   3.4256   3.9279   4.6377

     occupation numbers 
     1.0000   1.0000   1.0000   1.0000   0.0000   0.0000   0.0000   0.0000

          k =-0.3333-0.1906 0.0000 (  2711 PWs)   bands (ev):

   -18.6951 -10.9789  -6.9238  -6.7046   1.9149   3.2946   3.8429   4.1962

     occupation numbers 
     1.0000   1.0000   1.0000   1.0000   0.0000   0.0000   0.0000   0.0000

          k =-0.3333-0.1270 0.0000 (  2711 PWs)   bands (ev):

   -18.8954 -10.2478  -7.2263  -7.1426   2.4317   3.0314   3.8711   3.9420

     occupation numbers 
     1.0000   1.0000   1.0000   1.0000   0.0000   0.0000   0.0000   0.0000

          k =-0.3333-0.0635 0.0000 (  2704 PWs)   bands (ev):

   -19.0173  -9.4775  -7.9025  -7.2763   2.8229   2.8562   3.6583   3.8503

     occupation numbers 
     1.0000   1.0000   1.0000   1.0000   0.0000   0.0000   0.0000   0.0000

          k =-0.3333 0.0000 0.0000 (  2706 PWs)   bands (ev):

   -19.0583  -8.7998  -8.5546  -7.3213   2.7967   2.9813   3.5742   3.8020

     occupation numbers 
     1.0000   1.0000   1.0000   1.0000   0.0000   0.0000   0.0000   0.0000

          k =-0.3333 0.0635 0.0000 (  2704 PWs)   bands (ev):

   -19.0174  -9.4741  -7.9064  -7.2765   2.8235   2.8563   3.6584   3.8505

     occupation numbers 
     1.0000   1.0000   1.0000   1.0000   0.0000   0.0000   0.0000   0.0000

          k =-0.3333 0.1270 0.0000 (  2711 PWs)   bands (ev):

   -18.8955 -10.2446  -7.2305  -7.1429   2.4328   3.0316   3.8712   3.9432

     occupation numbers 
     1.0000   1.0000   1.0000   1.0000   0.0000   0.0000   0.0000   0.0000

          k =-0.3333 0.1906 0.0000 (  2711 PWs)   bands (ev):

   -18.6952 -10.9758  -6.9243  -6.7090   1.9164   3.2955   3.8453   4.1962

     occupation numbers 
     1.0000   1.0000   1.0000   1.0000   0.0000   0.0000   0.0000   0.0000

          k =-0.2917 0.2223 0.0000 (  2705 PWs)   bands (ev):

   -18.8233 -10.7727  -7.0602  -6.3107   2.1276   3.0526   3.3641   4.0185

     occupation numbers 
     1.0000   1.0000   1.0000   1.0000   0.0000   0.0000   0.0000   0.0000

          k =-0.2917 0.2859 0.0000 (  2711 PWs)   bands (ev):

   -18.5025 -11.4134  -6.7047  -6.3115   1.5468   3.0063   3.7344   4.5107

     occupation numbers 
     1.0000   1.0000   1.0000   1.0000   0.0000   0.0000   0.0000   0.0000

          k =-0.2917 0.3494 0.0000 (  2712 PWs)   bands (ev):

   -18.1149 -11.9734  -6.6164  -6.2775   0.9781   2.8703   4.3434   5.1257

     occupation numbers 
     1.0000   1.0000   1.0000   1.0000   0.0000   0.0000   0.0000   0.0000

          k =-0.2917 0.4129 0.0000 (  2713 PWs)   bands (ev):

   -17.6740 -12.4348  -7.1786  -5.7937   0.4523   2.6799   5.0850   5.8580

     occupation numbers 
     1.0000   1.0000   1.0000   1.0000   0.0000   0.0000   0.0000   0.0000

          k =-0.2917 0.4764 0.0000 (  2713 PWs)   bands (ev):

   -17.2023 -12.7748  -7.9216  -5.2749  -0.0105   2.4409   5.9474   6.6965

     occupation numbers 
     1.0000   1.0000   1.0000   1.0000   0.0000   0.0000   0.0000   0.0000

          k =-0.2917 0.5399 0.0000 (  2724 PWs)   bands (ev):

   -16.7375 -12.9610  -8.7680  -4.7532  -0.3979   2.1967   6.9254   7.5974

     occupation numbers 
     1.0000   1.0000   1.0000   1.0000   0.0000   0.0000   0.0000   0.0000

          k =-0.2917 0.6035 0.0000 (  2735 PWs)   bands (ev):

   -16.3348 -12.9505  -9.6496  -4.2730  -0.7012   1.9872   8.0095   8.2265

     occupation numbers 
     1.0000   1.0000   1.0000   1.0000   0.0000   0.0000   0.0000   0.0000

          k =-0.2917 0.6670 0.0000 (  2743 PWs)   bands (ev):

   -16.0521 -12.7146 -10.4996  -3.8932  -0.9131   1.8371   8.0318   9.0829

     occupation numbers 
     1.0000   1.0000   1.0000   1.0000   0.0000   0.0000   0.0000   0.0000

          k =-0.2917 0.7305 0.0000 (  2746 PWs)   bands (ev):

   -15.9140 -12.3305 -11.1929  -3.6791  -1.0242   1.7592   7.7963   9.0503

     occupation numbers 
     1.0000   1.0000   1.0000   1.0000   0.0000   0.0000   0.0000   0.0000

          k =-0.2917 0.7940 0.0000 (  2746 PWs)   bands (ev):

   -15.9138 -12.3330 -11.1906  -3.6786  -1.0250   1.7589   7.7966   9.0503

     occupation numbers 
     1.0000   1.0000   1.0000   1.0000   0.0000   0.0000   0.0000   0.0000

          k =-0.2917 0.8576 0.0000 (  2743 PWs)   bands (ev):

   -16.0514 -12.7184 -10.4961  -3.8919  -0.9152   1.8364   8.0326   9.0830

     occupation numbers 
     1.0000   1.0000   1.0000   1.0000   0.0000   0.0000   0.0000   0.0000

          k =-0.2917 0.9211 0.0000 (  2735 PWs)   bands (ev):

   -16.3340 -12.9544  -9.6459  -4.2714  -0.7039   1.9860   8.0094   8.2272

     occupation numbers 
     1.0000   1.0000   1.0000   1.0000   0.0000   0.0000   0.0000   0.0000

          k =-0.2917-0.5399 0.0000 (  2724 PWs)   bands (ev):

   -16.7367 -12.9647  -8.7641  -4.7517  -0.4007   2.1949   6.9253   7.5976

     occupation numbers 
     1.0000   1.0000   1.0000   1.0000   0.0000   0.0000   0.0000   0.0000

          k =-0.2917-0.4764 0.0000 (  2713 PWs)   bands (ev):

   -17.2018 -12.7783  -7.9175  -5.2736  -0.0132   2.4385   5.9474   6.6966

     occupation numbers 
     1.0000   1.0000   1.0000   1.0000   0.0000   0.0000   0.0000   0.0000

          k =-0.2917-0.4129 0.0000 (  2713 PWs)   bands (ev):

   -17.6736 -12.4381  -7.1742  -5.7926   0.4498   2.6767   5.0850   5.8580

     occupation numbers 
     1.0000   1.0000   1.0000   1.0000   0.0000   0.0000   0.0000   0.0000

          k =-0.2917-0.3494 0.0000 (  2712 PWs)   bands (ev):

   -18.1147 -11.9766  -6.6117  -6.2767   0.9759   2.8665   4.3435   5.1256

     occupation numbers 
     1.0000   1.0000   1.0000   1.0000   0.0000   0.0000   0.0000   0.0000

          k =-0.2917-0.2859 0.0000 (  2711 PWs)   bands (ev):

   -18.5023 -11.4166  -6.7040  -6.3067   1.5449   3.0022   3.7345   4.5106

     occupation numbers 
     1.0000   1.0000   1.0000   1.0000   0.0000   0.0000   0.0000   0.0000

          k =-0.2917-0.2223 0.0000 (  2705 PWs)   bands (ev):

   -18.8232 -10.7759  -7.0597  -6.3059   2.1261   3.0501   3.3626   4.0183

     occupation numbers 
     1.0000   1.0000   1.0000   1.0000   0.0000   0.0000   0.0000   0.0000

          k =-0.2917-0.1588 0.0000 (  2703 PWs)   bands (ev):

   -19.0693 -10.0723  -7.3337  -6.5983   2.6700   2.7839   3.4873   3.6540

     occupation numbers 
     1.0000   1.0000   1.0000   1.0000   0.0000   0.0000   0.0000   0.0000

          k =-0.2917-0.0953 0.0000 (  2703 PWs)   bands (ev):

   -19.2356  -9.3278  -7.5197  -7.1173   2.5480   3.0844   3.4443   3.5153

     occupation numbers 
     1.0000   1.0000   1.0000   1.0000   0.0000   0.0000   0.0000   0.0000

          k =-0.2917-0.0318 0.0000 (  2689 PWs)   bands (ev):

   -19.3194  -8.5850  -7.7647  -7.6135   2.4268   3.1846   3.4282   3.4862

     occupation numbers 
     1.0000   1.0000   1.0000   1.0000   0.0000   0.0000   0.0000   0.0000

          k =-0.2917 0.0318 0.0000 (  2689 PWs)   bands (ev):

   -19.3194  -8.5816  -7.7684  -7.6136   2.4268   3.1845   3.4283   3.4866

     occupation numbers 
     1.0000   1.0000   1.0000   1.0000   0.0000   0.0000   0.0000   0.0000

          k =-0.2917 0.0953 0.0000 (  2703 PWs)   bands (ev):

   -19.2356  -9.3244  -7.5199  -7.1216   2.5481   3.0847   3.4449   3.5162

     occupation numbers 
     1.0000   1.0000   1.0000   1.0000   0.0000   0.0000   0.0000   0.0000

          k =-0.2917 0.1588 0.0000 (  2703 PWs)   bands (ev):

   -19.0693 -10.0690  -7.3340  -6.6029   2.6710   2.7843   3.4901   3.6544

     occupation numbers 
     1.0000   1.0000   1.0000   1.0000   0.0000   0.0000   0.0000   0.0000

          k =-0.2500 0.1906 0.0000 (  2704 PWs)   bands (ev):

   -19.1870  -9.8542  -7.4604  -6.1730   2.6010   2.8425   2.9104   3.5447

     occupation numbers 
     1.0000   1.0000   1.0000   1.0000   0.0000   0.0000   0.0000   0.0000

          k =-0.2500 0.2541 0.0000 (  2709 PWs)   bands (ev):

   -18.8954 -10.5314  -7.1310  -6.1582   2.3146   2.6064   3.1225   3.9216

     occupation numbers 
     1.0000   1.0000   1.0000   1.0000   0.0000   0.0000   0.0000   0.0000

          k =-0.2500 0.3176 0.0000 (  2700 PWs)   bands (ev):

   -18.5281 -11.1472  -6.7177  -6.4375   1.7247   2.4101   3.6718   4.4631

     occupation numbers 
     1.0000   1.0000   1.0000   1.0000   0.0000   0.0000   0.0000   0.0000

          k =-0.2500 0.3811 0.0000 (  2692 PWs)   bands (ev):

   -18.0926 -11.6860  -6.9702  -6.2298   1.1394   2.1552   4.3542   5.1328

     occupation numbers 
     1.0000   1.0000   1.0000   1.0000   0.0000   0.0000   0.0000   0.0000

          k =-0.2500 0.4447 0.0000 (  2712 PWs)   bands (ev):

   -17.6015 -12.1332  -7.6858  -5.6809   0.5829   1.8532   5.1585   5.9193

     occupation numbers 
     1.0000   1.0000   1.0000   1.0000   0.0000   0.0000   0.0000   0.0000

          k =-0.2500 0.5082 0.0000 (  2714 PWs)   bands (ev):

   -17.0757 -12.4719  -8.5099  -5.0904   0.0663   1.5478   6.0817   6.8043

     occupation numbers 
     1.0000   1.0000   1.0000   1.0000   0.0000   0.0000   0.0000   0.0000

          k =-0.2500 0.5717 0.0000 (  2723 PWs)   bands (ev):

   -16.5513 -12.6786  -9.3743  -4.4874  -0.4076   1.2796   7.1198   7.7125

     occupation numbers 
     1.0000   1.0000   1.0000   1.0000   0.0000   0.0000   0.0000   0.0000

          k =-0.2500 0.6352 0.0000 (  2739 PWs)   bands (ev):

   -16.0881 -12.7224 -10.2098  -3.9175  -0.8325   1.0746   8.1987   8.2625

     occupation numbers 
     1.0000   1.0000   1.0000   1.0000   0.0000   0.0000   0.0000   0.0000

          k =-0.2500 0.6987 0.0000 (  2742 PWs)   bands (ev):

   -15.7656 -12.5973 -10.9169  -3.4625  -1.1734   0.9471   8.0490   9.4706

     occupation numbers 
     1.0000   1.0000   1.0000   1.0000   0.0000   0.0000   0.0000   0.0000

          k =-0.2500 0.7623 0.0000 (  2732 PWs)   bands (ev):

   -15.6504 -12.4695 -11.2478  -3.2722  -1.3202   0.9039   7.9456   9.9439

     occupation numbers 
     1.0000   1.0000   1.0000   1.0002   0.0000   0.0000   0.0000   0.0000

          k =-0.2500 0.8258 0.0000 (  2742 PWs)   bands (ev):

   -15.7651 -12.6006 -10.9139  -3.4613  -1.1750   0.9467   8.0496   9.4705

     occupation numbers 
     1.0000   1.0000   1.0000   1.0000   0.0000   0.0000   0.0000   0.0000

          k =-0.2500 0.8893 0.0000 (  2739 PWs)   bands (ev):

   -16.0873 -12.7263 -10.2061  -3.9160  -0.8349   1.0738   8.1996   8.2624

     occupation numbers 
     1.0000   1.0000   1.0000   1.0000   0.0000   0.0000   0.0000   0.0000

          k =-0.2500-0.5717 0.0000 (  2723 PWs)   bands (ev):

   -16.5507 -12.6824  -9.3703  -4.4860  -0.4101   1.2784   7.1198   7.7128

     occupation numbers 
     1.0000   1.0000   1.0000   1.0000   0.0000   0.0000   0.0000   0.0000

          k =-0.2500-0.5082 0.0000 (  2714 PWs)   bands (ev):

   -17.0752 -12.4756  -8.5058  -5.0892   0.0638   1.5461   6.0817   6.8044

     occupation numbers 
     1.0000   1.0000   1.0000   1.0000   0.0000   0.0000   0.0000   0.0000

          k =-0.2500-0.4447 0.0000 (  2712 PWs)   bands (ev):

   -17.6012 -12.1367  -7.6814  -5.6799   0.5806   1.8508   5.1585   5.9195

     occupation numbers 
     1.0000   1.0000   1.0000   1.0000   0.0000   0.0000   0.0000   0.0000

          k =-0.2500-0.3811 0.0000 (  2692 PWs)   bands (ev):

   -18.0924 -11.6893  -6.9655  -6.2290   1.1374   2.1522   4.3542   5.1328

     occupation numbers 
     1.0000   1.0000   1.0000   1.0000   0.0000   0.0000   0.0000   0.0000

          k =-0.2500-0.3176 0.0000 (  2700 PWs)   bands (ev):

   -18.5279 -11.1505  -6.7171  -6.4325   1.7229   2.4064   3.6719   4.4630

     occupation numbers 
     1.0000   1.0000   1.0000   1.0000   0.0000   0.0000   0.0000   0.0000

          k =-0.2500-0.2541 0.0000 (  2709 PWs)   bands (ev):

   -18.8954 -10.5348  -7.1306  -6.1531   2.3131   2.6023   3.1226   3.9215

     occupation numbers 
     1.0000   1.0000   1.0000   1.0000   0.0000   0.0000   0.0000   0.0000

          k =-0.2500-0.1906 0.0000 (  2704 PWs)   bands (ev):

   -19.1870  -9.8577  -7.4600  -6.1679   2.5999   2.8417   2.9076   3.5445

     occupation numbers 
     1.0000   1.0000   1.0000   1.0000   0.0000   0.0000   0.0000   0.0000

          k =-0.2500-0.1270 0.0000 (  2695 PWs)   bands (ev):

   -19.3981  -9.1394  -7.6994  -6.4614   2.3202   3.0093   3.1238   3.4667

     occupation numbers 
     1.0000   1.0000   1.0000   1.0000   0.0000   0.0000   0.0000   0.0000

          k =-0.2500-0.0635 0.0000 (  2695 PWs)   bands (ev):

   -19.5258  -8.4136  -7.8445  -6.9623   2.1366   2.8902   3.1212   3.6863

     occupation numbers 
     1.0000   1.0000   1.0000   1.0000   0.0000   0.0000   0.0000   0.0000

          k =-0.2500 0.0000 0.0000 (  2692 PWs)   bands (ev):

   -19.5686  -7.8932  -7.8727  -7.4344   2.0748   2.8379   3.0751   3.9843

     occupation numbers 
     1.0000   1.0000   1.0000   1.0000   0.0000   0.0000   0.0000   0.0000

          k =-0.2500 0.0635 0.0000 (  2695 PWs)   bands (ev):

   -19.5259  -8.4099  -7.8446  -6.9667   2.1367   2.8901   3.1216   3.6891

     occupation numbers 
     1.0000   1.0000   1.0000   1.0000   0.0000   0.0000   0.0000   0.0000

          k =-0.2500 0.1270 0.0000 (  2695 PWs)   bands (ev):

   -19.3982  -9.1358  -7.6996  -6.4662   2.3204   3.0092   3.1266   3.4674

     occupation numbers 
     1.0000   1.0000   1.0000   1.0000   0.0000   0.0000   0.0000   0.0000

          k =-0.2083 0.1588 0.0000 (  2691 PWs)   bands (ev):

   -19.5033  -8.9149  -7.8135  -6.0189   2.1703   2.4983   2.8829   3.2367

     occupation numbers 
     1.0000   1.0000   1.0000   1.0000   0.0000   0.0000   0.0000   0.0000

          k =-0.2083 0.2223 0.0000 (  2701 PWs)   bands (ev):

   -19.2474  -9.6081  -7.5205  -6.0025   2.2021   2.5912   2.9459   3.5405

     occupation numbers 
     1.0000   1.0000   1.0000   1.0000   0.0000   0.0000   0.0000   0.0000

          k =-0.2083 0.2859 0.0000 (  2705 PWs)   bands (ev):

   -18.9105 -10.2615  -7.1360  -6.2658   1.9640   2.4698   3.0828   3.9030

     occupation numbers 
     1.0000   1.0000   1.0000   1.0000   0.0000   0.0000   0.0000   0.0000

          k =-0.2083 0.3494 0.0000 (  2701 PWs)   bands (ev):

   -18.4976 -10.8566  -6.7721  -6.6663   1.6649   1.8702   3.7051   4.4943

     occupation numbers 
     1.0000   1.0000   1.0000   1.0000   0.0000   0.0000   0.0000   0.0000

          k =-0.2083 0.4129 0.0000 (  2707 PWs)   bands (ev):

   -18.0160 -11.3807  -7.4569  -6.1201   1.2610   1.3133   4.4496   5.2195

     occupation numbers 
     1.0000   1.0000   1.0000   1.0000   0.0000   0.0000   0.0000   0.0000

          k =-0.2083 0.4764 0.0000 (  2702 PWs)   bands (ev):

   -17.4776 -11.8244  -8.2512  -5.5099   0.6633   0.9524   5.3148   6.0592

     occupation numbers 
     1.0000   1.0000   1.0000   1.0000   0.0000   0.0000   0.0000   0.0000

          k =-0.2083 0.5399 0.0000 (  2723 PWs)   bands (ev):

   -16.9030 -12.1800  -9.0883  -4.8533   0.0801   0.6259   6.2985   6.9857

     occupation numbers 
     1.0000   1.0000   1.0000   1.0000   0.0000   0.0000   0.0000   0.0000

          k =-0.2083 0.6035 0.0000 (  2737 PWs)   bands (ev):

   -16.3291 -12.4402  -9.8979  -4.1765  -0.4912   0.3634   7.3958   7.8789

     occupation numbers 
     1.0000   1.0000   1.0000   1.0000   0.0000   0.0000   0.0000   0.0000

          k =-0.2083 0.6670 0.0000 (  2736 PWs)   bands (ev):

   -15.8258 -12.5993 -10.5873  -3.5250  -1.0414   0.1818   8.2472   8.5941

     occupation numbers 
     1.0000   1.0000   1.0000   1.0000   0.0000   0.0000   0.0000   0.0000

          k =-0.2083 0.7305 0.0000 (  2736 PWs)   bands (ev):

   -15.5119 -12.6640 -11.0134  -3.0228  -1.4820   0.0891   8.1734   9.8478

     occupation numbers 
     1.0000   1.0000   1.0000   1.0117   0.0000   0.0000   0.0000   0.0000

          k =-0.2083 0.7940 0.0000 (  2736 PWs)   bands (ev):

   -15.5116 -12.6656 -11.0120  -3.0220  -1.4830   0.0890   8.1737   9.8476

     occupation numbers 
     1.0000   1.0000   1.0000   1.0118   0.0000   0.0000   0.0000   0.0000

          k =-0.2083 0.8576 0.0000 (  2736 PWs)   bands (ev):

   -15.8252 -12.6028 -10.5841  -3.5237  -1.0433   0.1813   8.2480   8.5940

     occupation numbers 
     1.0000   1.0000   1.0000   1.0000   0.0000   0.0000   0.0000   0.0000

          k =-0.2083-0.6035 0.0000 (  2737 PWs)   bands (ev):

   -16.3285 -12.4441  -9.8940  -4.1752  -0.4933   0.3626   7.3958   7.8795

     occupation numbers 
     1.0000   1.0000   1.0000   1.0000   0.0000   0.0000   0.0000   0.0000

          k =-0.2083-0.5399 0.0000 (  2723 PWs)   bands (ev):

   -16.9025 -12.1838  -9.0841  -4.8523   0.0779   0.6246   6.2985   6.9858

     occupation numbers 
     1.0000   1.0000   1.0000   1.0000   0.0000   0.0000   0.0000   0.0000

          k =-0.2083-0.4764 0.0000 (  2702 PWs)   bands (ev):

   -17.4773 -11.8280  -8.2468  -5.5090   0.6612   0.9507   5.3148   6.0593

     occupation numbers 
     1.0000   1.0000   1.0000   1.0000   0.0000   0.0000   0.0000   0.0000

          k =-0.2083-0.4129 0.0000 (  2707 PWs)   bands (ev):

   -18.0158 -11.3841  -7.4522  -6.1194   1.2591   1.3110   4.4496   5.2195

     occupation numbers 
     1.0000   1.0000   1.0000   1.0000   0.0000   0.0000   0.0000   0.0000

          k =-0.2083-0.3494 0.0000 (  2701 PWs)   bands (ev):

   -18.4975 -10.8600  -6.7671  -6.6657   1.6620   1.8685   3.7051   4.4942

     occupation numbers 
     1.0000   1.0000   1.0000   1.0000   0.0000   0.0000   0.0000   0.0000

          k =-0.2083-0.2859 0.0000 (  2705 PWs)   bands (ev):

   -18.9105 -10.2650  -7.1355  -6.2605   1.9605   2.4685   3.0828   3.9032

     occupation numbers 
     1.0000   1.0000   1.0000   1.0000   0.0000   0.0000   0.0000   0.0000

          k =-0.2083-0.2223 0.0000 (  2701 PWs)   bands (ev):

   -19.2473  -9.6117  -7.5202  -5.9971   2.1981   2.5912   2.9454   3.5401

     occupation numbers 
     1.0000   1.0000   1.0000   1.0000   0.0000   0.0000   0.0000   0.0000

          k =-0.2083-0.1588 0.0000 (  2691 PWs)   bands (ev):

   -19.5033  -8.9187  -7.8132  -6.0135   2.1697   2.4949   2.8828   3.2367

     occupation numbers 
     1.0000   1.0000   1.0000   1.0000   0.0000   0.0000   0.0000   0.0000

          k =-0.2083-0.0953 0.0000 (  2691 PWs)   bands (ev):

   -19.6754  -8.2158  -8.0108  -6.2907   1.9299   2.6758   2.7652   3.0425

     occupation numbers 
     1.0000   1.0000   1.0000   1.0000   0.0000   0.0000   0.0000   0.0000

          k =-0.2083-0.0318 0.0000 (  2696 PWs)   bands (ev):

   -19.7619  -8.1103  -7.5783  -6.7287   1.8051   2.5615   2.7939   3.3234

     occupation numbers 
     1.0000   1.0000   1.0000   1.0000   0.0000   0.0000   0.0000   0.0000

          k =-0.2083 0.0318 0.0000 (  2696 PWs)   bands (ev):

   -19.7619  -8.1103  -7.5750  -6.7324   1.8052   2.5615   2.7942   3.3264

     occupation numbers 
     1.0000   1.0000   1.0000   1.0000   0.0000   0.0000   0.0000   0.0000

          k =-0.2083 0.0953 0.0000 (  2691 PWs)   bands (ev):

   -19.6754  -8.2119  -8.0109  -6.2957   1.9301   2.6758   2.7682   3.0432

     occupation numbers 
     1.0000   1.0000   1.0000   1.0000   0.0000   0.0000   0.0000   0.0000

          k =-0.1667 0.1270 0.0000 (  2687 PWs)   bands (ev):

   -19.7668  -8.1106  -7.9921  -5.8476   1.8065   2.1063   2.5448   2.8468

     occupation numbers 
     1.0000   1.0000   1.0000   1.0000   0.0000   0.0000   0.0000   0.0000

          k =-0.1667 0.1906 0.0000 (  2694 PWs)   bands (ev):

   -19.5501  -8.6714  -7.8602  -5.8517   1.8223   2.1430   2.8217   3.1618

     occupation numbers 
     1.0000   1.0000   1.0000   1.0000   0.0000   0.0000   0.0000   0.0000

          k =-0.1667 0.2541 0.0000 (  2705 PWs)   bands (ev):

   -19.2496  -9.3422  -7.5136  -6.1140   1.5657   2.5779   3.0146   3.5980

     occupation numbers 
     1.0000   1.0000   1.0000   1.0000   0.0000   0.0000   0.0000   0.0000

          k =-0.1667 0.3176 0.0000 (  2707 PWs)   bands (ev):

   -18.8682  -9.9767  -7.0750  -6.6013   1.2445   2.5791   3.1393   3.9593

     occupation numbers 
     1.0000   1.0000   1.0000   1.0000   0.0000   0.0000   0.0000   0.0000

          k =-0.1667 0.3811 0.0000 (  2702 PWs)   bands (ev):

   -18.4109 -10.5591  -7.2551  -6.5507   0.8585   1.9601   3.8228   4.6043

     occupation numbers 
     1.0000   1.0000   1.0000   1.0000   0.0000   0.0000   0.0000   0.0000

          k =-0.1667 0.4447 0.0000 (  2702 PWs)   bands (ev):

   -17.8851 -11.0820  -8.0135  -5.9492   0.4496   1.3163   4.6282   5.3860

     occupation numbers 
     1.0000   1.0000   1.0000   1.0000   0.0000   0.0000   0.0000   0.0000

          k =-0.1667 0.5082 0.0000 (  2700 PWs)   bands (ev):

   -17.3028 -11.5458  -8.8132  -5.2821   0.0663   0.6653   5.5543   6.2780

     occupation numbers 
     1.0000   1.0000   1.0000   1.0000   0.0000   0.0000   0.0000   0.0000

          k =-0.1667 0.5717 0.0000 (  2712 PWs)   bands (ev):

   -16.6853 -11.9607  -9.5842  -4.5656  -0.2558   0.0060   6.5981   7.2408

     occupation numbers 
     1.0000   1.0000   1.0000   1.0000   0.0000   0.0000   0.0000   0.0000

          k =-0.1667 0.6352 0.0000 (  2731 PWs)   bands (ev):

   -16.0748 -12.3433 -10.2381  -3.8233  -0.6653  -0.4961   7.7532   8.1032

     occupation numbers 
     1.0000   1.0000   1.0000   1.0000   0.0000   0.0000   0.0000   0.0000

          k =-0.1667 0.6987 0.0000 (  2727 PWs)   bands (ev):

   -15.5651 -12.6796 -10.6749  -3.1009  -1.3305  -0.6434   8.4105   9.0028

     occupation numbers 
     1.0000   1.0000   1.0000   1.0042   0.0000   0.0000   0.0000   0.0000

          k =-0.1667 0.7623 0.0000 (  2726 PWs)   bands (ev):

   -15.3464 -12.8363 -10.8257  -2.6517  -1.7581  -0.6931   8.4098  10.1637

     occupation numbers 
     1.0000   1.0000   1.0000   1.0531   0.0001   0.0000   0.0000   0.0000

          k =-0.1667 0.8258 0.0000 (  2727 PWs)   bands (ev):

   -15.5646 -12.6817 -10.6729  -3.0998  -1.3319  -0.6437   8.4111   9.0027

     occupation numbers 
     1.0000   1.0000   1.0000   1.0042   0.0000   0.0000   0.0000   0.0000

          k =-0.1667-0.6352 0.0000 (  2731 PWs)   bands (ev):

   -16.0743 -12.3467 -10.2347  -3.8222  -0.6670  -0.4966   7.7532   8.1038

     occupation numbers 
     1.0000   1.0000   1.0000   1.0000   0.0000   0.0000   0.0000   0.0000

          k =-0.1667-0.5717 0.0000 (  2712 PWs)   bands (ev):

   -16.6849 -11.9645  -9.5802  -4.5647  -0.2567   0.0042   6.5980   7.2410

     occupation numbers 
     1.0000   1.0000   1.0000   1.0000   0.0000   0.0000   0.0000   0.0000

          k =-0.1667-0.5082 0.0000 (  2700 PWs)   bands (ev):

   -17.3025 -11.5496  -8.8088  -5.2813   0.0651   0.6635   5.5542   6.2780

     occupation numbers 
     1.0000   1.0000   1.0000   1.0000   0.0000   0.0000   0.0000   0.0000

          k =-0.1667-0.4447 0.0000 (  2702 PWs)   bands (ev):

   -17.8849 -11.0857  -8.0088  -5.9486   0.4479   1.3146   4.6282   5.3860

     occupation numbers 
     1.0000   1.0000   1.0000   1.0000   0.0000   0.0000   0.0000   0.0000

          k =-0.1667-0.3811 0.0000 (  2702 PWs)   bands (ev):

   -18.4108 -10.5628  -7.2501  -6.5503   0.8563   1.9586   3.8228   4.6043

     occupation numbers 
     1.0000   1.0000   1.0000   1.0000   0.0000   0.0000   0.0000   0.0000

          k =-0.1667-0.3176 0.0000 (  2707 PWs)   bands (ev):

   -18.8681  -9.9804  -7.0747  -6.5959   1.2418   2.5779   3.1393   3.9584

     occupation numbers 
     1.0000   1.0000   1.0000   1.0000   0.0000   0.0000   0.0000   0.0000

          k =-0.1667-0.2541 0.0000 (  2705 PWs)   bands (ev):

   -19.2495  -9.3460  -7.5133  -6.1084   1.5624   2.5779   3.0142   3.6032

     occupation numbers 
     1.0000   1.0000   1.0000   1.0000   0.0000   0.0000   0.0000   0.0000

          k =-0.1667-0.1906 0.0000 (  2694 PWs)   bands (ev):

   -19.5501  -8.6753  -7.8600  -5.8459   1.8184   2.1430   2.8217   3.1619

     occupation numbers 
     1.0000   1.0000   1.0000   1.0000   0.0000   0.0000   0.0000   0.0000

          k =-0.1667-0.1270 0.0000 (  2687 PWs)   bands (ev):

   -19.7668  -8.1105  -7.9962  -5.8420   1.8061   2.1027   2.5448   2.8469

     occupation numbers 
     1.0000   1.0000   1.0000   1.0000   0.0000   0.0000   0.0000   0.0000

          k =-0.1667-0.0635 0.0000 (  2692 PWs)   bands (ev):

   -19.8975  -8.2618  -7.3641  -6.0681   1.6205   2.3680   2.4167   2.6753

     occupation numbers 
     1.0000   1.0000   1.0000   1.0000   0.0000   0.0000   0.0000   0.0000

          k =-0.1667 0.0000 0.0000 (  2686 PWs)   bands (ev):

   -19.9412  -8.3125  -6.9995  -6.2999   1.5572   2.3083   2.5436   2.8139

     occupation numbers 
     1.0000   1.0000   1.0000   1.0000   0.0000   0.0000   0.0000   0.0000

          k =-0.1667 0.0635 0.0000 (  2692 PWs)   bands (ev):

   -19.8975  -8.2619  -7.3601  -6.0729   1.6205   2.3680   2.4202   2.6752

     occupation numbers 
     1.0000   1.0000   1.0000   1.0000   0.0000   0.0000   0.0000   0.0000

          k =-0.1250 0.0953 0.0000 (  2690 PWs)   bands (ev):

   -19.9742  -8.3461  -7.1512  -5.6452   1.5216   1.7382   2.2585   2.5421

     occupation numbers 
     1.0000   1.0000   1.0000   1.0000   0.0000   0.0000   0.0000   0.0000

          k =-0.1250 0.1588 0.0000 (  2685 PWs)   bands (ev):

   -19.7990  -8.1424  -7.7619  -5.7072   1.4886   1.7819   2.4973   2.8014

     occupation numbers 
     1.0000   1.0000   1.0000   1.0000   0.0000   0.0000   0.0000   0.0000

          k =-0.1250 0.2223 0.0000 (  2693 PWs)   bands (ev):

   -19.5380  -8.4189  -7.8393  -5.9930   1.2417   2.1583   2.8372   3.1818

     occupation numbers 
     1.0000   1.0000   1.0000   1.0000   0.0000   0.0000   0.0000   0.0000

          k =-0.1250 0.2859 0.0000 (  2708 PWs)   bands (ev):

   -19.1934  -9.0725  -7.4399  -6.4753   0.9231   2.6577   3.0806   3.6650

     occupation numbers 
     1.0000   1.0000   1.0000   1.0000   0.0000   0.0000   0.0000   0.0000

          k =-0.1250 0.3494 0.0000 (  2694 PWs)   bands (ev):

   -18.7685  -9.6974  -7.1030  -6.9487   0.5216   2.6195   3.2795   4.0870

     occupation numbers 
     1.0000   1.0000   1.0000   1.0000   0.0000   0.0000   0.0000   0.0000

          k =-0.1250 0.4129 0.0000 (  2710 PWs)   bands (ev):

   -18.2683 -10.2832  -7.8226  -6.3722   0.0760   1.9664   4.0240   4.7943

     occupation numbers 
     1.0000   1.0000   1.0000   1.0000   0.0000   0.0000   0.0000   0.0000

          k =-0.1250 0.4764 0.0000 (  2695 PWs)   bands (ev):

   -17.7007 -10.8332  -8.5767  -5.7188  -0.3594   1.2776   4.8904   5.6335

     occupation numbers 
     1.0000   1.0000   1.0000   1.0000   0.0000   0.0000   0.0000   0.0000

          k =-0.1250 0.5399 0.0000 (  2704 PWs)   bands (ev):

   -17.0786 -11.3673  -9.2968  -5.0001  -0.7419   0.5658   5.8771   6.5762

     occupation numbers 
     1.0000   1.0000   1.0000   1.0000   0.0000   0.0000   0.0000   0.0000

          k =-0.1250 0.6035 0.0000 (  2709 PWs)   bands (ev):

   -16.4262 -11.9150  -9.9005  -4.2310  -1.0439  -0.1706   6.9800   7.5702

     occupation numbers 
     1.0000   1.0000   1.0000   1.0000   0.0000   0.0000   0.0000   0.0000

          k =-0.1250 0.6670 0.0000 (  2728 PWs)   bands (ev):

   -15.7987 -12.4707 -10.3172  -3.4327  -1.2509  -0.9321   8.1908   8.3986

     occupation numbers 
     1.0000   1.0000   1.0000   1.0000   0.0000   0.0000   0.0000   0.0000

          k =-0.1250 0.7305 0.0000 (  2726 PWs)   bands (ev):

   -15.3435 -12.8968 -10.5222  -2.6550  -1.6862  -1.3558   8.6823   9.4825

     occupation numbers 
     1.0000   1.0000   1.0000   1.0556   0.0000   0.0000   0.0000   0.0000

          k =-0.1250 0.7940 0.0000 (  2726 PWs)   bands (ev):

   -15.3433 -12.8976 -10.5215  -2.6541  -1.6872  -1.3559   8.6826   9.4824

     occupation numbers 
     1.0000   1.0000   1.0000   1.0550   0.0000   0.0000   0.0000   0.0000

          k =-0.1250-0.6670 0.0000 (  2728 PWs)   bands (ev):

   -15.7983 -12.4728 -10.3151  -3.4319  -1.2512  -0.9333   8.1907   8.3992

     occupation numbers 
     1.0000   1.0000   1.0000   1.0000   0.0000   0.0000   0.0000   0.0000

          k =-0.1250-0.6035 0.0000 (  2709 PWs)   bands (ev):

   -16.4259 -11.9181  -9.8972  -4.2303  -1.0445  -0.1720   6.9800   7.5704

     occupation numbers 
     1.0000   1.0000   1.0000   1.0000   0.0000   0.0000   0.0000   0.0000

          k =-0.1250-0.5399 0.0000 (  2704 PWs)   bands (ev):

   -17.0783 -11.3710  -9.2927  -4.9995  -0.7427   0.5644   5.8771   6.5764

     occupation numbers 
     1.0000   1.0000   1.0000   1.0000   0.0000   0.0000   0.0000   0.0000

          k =-0.1250-0.4764 0.0000 (  2695 PWs)   bands (ev):

   -17.7005 -10.8371  -8.5721  -5.7183  -0.3605   1.2763   4.8904   5.6334

     occupation numbers 
     1.0000   1.0000   1.0000   1.0000   0.0000   0.0000   0.0000   0.0000

          k =-0.1250-0.4129 0.0000 (  2710 PWs)   bands (ev):

   -18.2682 -10.2871  -7.8177  -6.3718   0.0746   1.9652   4.0240   4.7944

     occupation numbers 
     1.0000   1.0000   1.0000   1.0000   0.0000   0.0000   0.0000   0.0000

          k =-0.1250-0.3494 0.0000 (  2694 PWs)   bands (ev):

   -18.7684  -9.7014  -7.0978  -6.9484   0.5197   2.6185   3.2796   4.0869

     occupation numbers 
     1.0000   1.0000   1.0000   1.0000   0.0000   0.0000   0.0000   0.0000

          k =-0.1250-0.2859 0.0000 (  2708 PWs)   bands (ev):

   -19.1934  -9.0766  -7.4397  -6.4698   0.9206   2.6577   3.0803   3.6674

     occupation numbers 
     1.0000   1.0000   1.0000   1.0000   0.0000   0.0000   0.0000   0.0000

          k =-0.1250-0.2223 0.0000 (  2693 PWs)   bands (ev):

   -19.5380  -8.4231  -7.8391  -5.9871   1.2387   2.1583   2.8372   3.1818

     occupation numbers 
     1.0000   1.0000   1.0000   1.0000   0.0000   0.0000   0.0000   0.0000

          k =-0.1250-0.1588 0.0000 (  2685 PWs)   bands (ev):

   -19.7990  -8.1423  -7.7663  -5.7012   1.4850   1.7820   2.4973   2.8014

     occupation numbers 
     1.0000   1.0000   1.0000   1.0000   0.0000   0.0000   0.0000   0.0000

          k =-0.1250-0.0953 0.0000 (  2690 PWs)   bands (ev):

   -19.9742  -8.3460  -7.1555  -5.6397   1.5214   1.7348   2.2585   2.5423

     occupation numbers 
     1.0000   1.0000   1.0000   1.0000   0.0000   0.0000   0.0000   0.0000

          k =-0.1250-0.0318 0.0000 (  2690 PWs)   bands (ev):

   -20.0620  -8.4484  -6.7056  -5.7420   1.3949   2.0162   2.1375   2.3898

     occupation numbers 
     1.0000   1.0000   1.0000   1.0000   0.0000   0.0000   0.0000   0.0000

          k =-0.1250 0.0318 0.0000 (  2690 PWs)   bands (ev):

   -20.0620  -8.4484  -6.7031  -5.7449   1.3949   2.0189   2.1375   2.3894

     occupation numbers 
     1.0000   1.0000   1.0000   1.0000   0.0000   0.0000   0.0000   0.0000

          k =-0.0833 0.0635 0.0000 (  2681 PWs)   bands (ev):

   -20.1234  -8.5164  -6.5113  -5.3721   1.3190   1.3955   2.0504   2.3208

     occupation numbers 
     1.0000   1.0000   1.0000   1.0000   0.0000   0.0000   0.0000   0.0000

          k =-0.0833 0.1270 0.0000 (  2685 PWs)   bands (ev):

   -19.9912  -8.3620  -6.9554  -5.5525   1.2157   1.5103   2.2329   2.5273

     occupation numbers 
     1.0000   1.0000   1.0000   1.0000   0.0000   0.0000   0.0000   0.0000

          k =-0.0833 0.1906 0.0000 (  2686 PWs)   bands (ev):

   -19.7719  -8.1060  -7.5389  -5.9033   1.0104   1.8245   2.5327   2.8458

     occupation numbers 
     1.0000   1.0000   1.0000   1.0000   0.0000   0.0000   0.0000   0.0000

          k =-0.0833 0.2541 0.0000 (  2698 PWs)   bands (ev):

   -19.4670  -8.1773  -7.7509  -6.4054   0.7210   2.2610   2.9284   3.2855

     occupation numbers 
     1.0000   1.0000   1.0000   1.0000   0.0000   0.0000   0.0000   0.0000

          k =-0.0833 0.3176 0.0000 (  2702 PWs)   bands (ev):

   -19.0792  -8.8236  -7.3001  -7.0195   0.3277   2.8204   3.1167   3.7462

     occupation numbers 
     1.0000   1.0000   1.0000   1.0000   0.0000   0.0000   0.0000   0.0000

          k =-0.0833 0.3811 0.0000 (  2712 PWs)   bands (ev):

   -18.6120  -9.4570  -7.7035  -6.7585  -0.1361   2.5613   3.5032   4.2928

     occupation numbers 
     1.0000   1.0000   1.0000   1.0000   0.0000   0.0000   0.0000   0.0000

          k =-0.0833 0.4447 0.0000 (  2701 PWs)   bands (ev):

   -18.0709 -10.0793  -8.4073  -6.1329  -0.6132   1.8639   4.3089   5.0660

     occupation numbers 
     1.0000   1.0000   1.0000   1.0000   0.0000   0.0000   0.0000   0.0000

          k =-0.0833 0.5082 0.0000 (  2700 PWs)   bands (ev):

   -17.4648 -10.7145  -9.0662  -5.4321  -1.0518   1.1257   5.2363   5.9621

     occupation numbers 
     1.0000   1.0000   1.0000   1.0000   0.0000   0.0000   0.0000   0.0000

          k =-0.0833 0.5717 0.0000 (  2705 PWs)   bands (ev):

   -16.8085 -11.3927  -9.6089  -4.6678  -1.4163   0.3547   6.2829   6.9534

     occupation numbers 
     1.0000   1.0000   1.0000   1.0000   0.0000   0.0000   0.0000   0.0000

          k =-0.0833 0.6352 0.0000 (  2729 PWs)   bands (ev):

   -16.1334 -12.1038  -9.9926  -3.8546  -1.6861  -0.4484   7.4435   7.9716

     occupation numbers 
     1.0000   1.0000   1.0000   1.0000   0.0000   0.0000   0.0000   0.0000

          k =-0.0833 0.6987 0.0000 (  2730 PWs)   bands (ev):

   -15.5239 -12.7497 -10.2147  -3.0117  -1.8509  -1.2788   8.7059   8.7584

     occupation numbers 
     1.0000   1.0000   1.0000   1.0133   0.0008   0.0000   0.0000   0.0000

          k =-0.0833 0.7623 0.0000 (  2730 PWs)   bands (ev):

   -15.2318 -13.0569 -10.2867  -2.2616  -2.0236  -1.9062   8.9861   9.9148

     occupation numbers 
     1.0000   1.0000   1.0000   0.2066   0.0137   0.0021   0.0000   0.0000

          k =-0.0833-0.6987 0.0000 (  2730 PWs)   bands (ev):

   -15.5236 -12.7507 -10.2138  -3.0111  -1.8511  -1.2796   8.7058   8.7588

     occupation numbers 
     1.0000   1.0000   1.0000   1.0134   0.0008   0.0000   0.0000   0.0000

          k =-0.0833-0.6352 0.0000 (  2729 PWs)   bands (ev):

   -16.1332 -12.1057  -9.9907  -3.8541  -1.6865  -0.4493   7.4435   7.9718

     occupation numbers 
     1.0000   1.0000   1.0000   1.0000   0.0000   0.0000   0.0000   0.0000

          k =-0.0833-0.5717 0.0000 (  2705 PWs)   bands (ev):

   -16.8083 -11.3954  -9.6059  -4.6673  -1.4168   0.3538   6.2829   6.9535

     occupation numbers 
     1.0000   1.0000   1.0000   1.0000   0.0000   0.0000   0.0000   0.0000

          k =-0.0833-0.5082 0.0000 (  2700 PWs)   bands (ev):

   -17.4646 -10.7180  -9.0623  -5.4318  -1.0525   1.1248   5.2363   6.2815

     occupation numbers 
     1.0000   1.0000   1.0000   1.0000   0.0000   0.0000   0.0000   0.0000

          k =-0.0833-0.4447 0.0000 (  2701 PWs)   bands (ev):

   -18.0708 -10.0832  -8.4027  -6.1326  -0.6141   1.8630   4.3089   5.0655

     occupation numbers 
     1.0000   1.0000   1.0000   1.0000   0.0000   0.0000   0.0000   0.0000

          k =-0.0833-0.3811 0.0000 (  2712 PWs)   bands (ev):

   -18.6119  -9.4611  -7.6985  -6.7583  -0.1373   2.5605   3.5032   4.2932

     occupation numbers 
     1.0000   1.0000   1.0000   1.0000   0.0000   0.0000   0.0000   0.0000

          k =-0.0833-0.3176 0.0000 (  2702 PWs)   bands (ev):

   -19.0791  -8.8279  -7.2999  -7.0142   0.3262   2.8204   3.1163   3.7470

     occupation numbers 
     1.0000   1.0000   1.0000   1.0000   0.0000   0.0000   0.0000   0.0000

          k =-0.0833-0.2541 0.0000 (  2698 PWs)   bands (ev):

   -19.4670  -8.1817  -7.7507  -6.3998   0.7190   2.2610   2.9285   3.2855

     occupation numbers 
     1.0000   1.0000   1.0000   1.0000   0.0000   0.0000   0.0000   0.0000

          k =-0.0833-0.1906 0.0000 (  2686 PWs)   bands (ev):

   -19.7719  -8.1059  -7.5434  -5.8974   1.0079   1.8245   2.5327   2.8458

     occupation numbers 
     1.0000   1.0000   1.0000   1.0000   0.0000   0.0000   0.0000   0.0000

          k =-0.0833-0.1270 0.0000 (  2685 PWs)   bands (ev):

   -19.9912  -8.3619  -6.9597  -5.5469   1.2129   1.5103   2.2329   2.5274

     occupation numbers 
     1.0000   1.0000   1.0000   1.0000   0.0000   0.0000   0.0000   0.0000

          k =-0.0833-0.0635 0.0000 (  2681 PWs)   bands (ev):

   -20.1234  -8.5164  -6.5145  -5.3682   1.3189   1.3929   2.0504   2.3205

     occupation numbers 
     1.0000   1.0000   1.0000   1.0000   0.0000   0.0000   0.0000   0.0000

          k =-0.0833 0.0000 0.0000 (  2689 PWs)   bands (ev):

   -20.1676  -8.5680  -6.3365  -5.3258   1.2545   1.5113   1.9893   2.2027

     occupation numbers 
     1.0000   1.0000   1.0000   1.0000   0.0000   0.0000   0.0000   0.0000

          k =-0.0417 0.0318 0.0000 (  2683 PWs)   bands (ev):

   -20.2134  -8.6194  -6.1741  -5.0517   1.1010   1.1989   1.9248   2.1456

     occupation numbers 
     1.0000   1.0000   1.0000   1.0000   0.0000   0.0000   0.0000   0.0000

          k =-0.0417 0.0953 0.0000 (  2681 PWs)   bands (ev):

   -20.1250  -8.5158  -6.3920  -5.3351   1.0206   1.3263   2.0472   2.3408

     occupation numbers 
     1.0000   1.0000   1.0000   1.0000   0.0000   0.0000   0.0000   0.0000

          k =-0.0417 0.1588 0.0000 (  2683 PWs)   bands (ev):

   -19.9486  -8.3093  -6.8029  -5.8061   0.8827   1.5765   2.2908   2.5958

     occupation numbers 
     1.0000   1.0000   1.0000   1.0000   0.0000   0.0000   0.0000   0.0000

          k =-0.0417 0.2223 0.0000 (  2694 PWs)   bands (ev):

   -19.6855  -8.0019  -7.3531  -6.3768   0.6471   1.9494   2.6493   2.9718

     occupation numbers 
     1.0000   1.0000   1.0000   1.0000   0.0000   0.0000   0.0000   0.0000

          k =-0.0417 0.2859 0.0000 (  2694 PWs)   bands (ev):

   -19.3375  -7.9791  -7.5960  -7.0053   0.2892   2.4458   3.0825   3.4716

     occupation numbers 
     1.0000   1.0000   1.0000   1.0000   0.0000   0.0000   0.0000   0.0000

          k =-0.0417 0.3494 0.0000 (  2726 PWs)   bands (ev):

   -18.9077  -8.6380  -7.6658  -7.0959  -0.1676   3.0339   3.0664   3.9087

     occupation numbers 
     1.0000   1.0000   1.0000   1.0000   0.0000   0.0000   0.0000   0.0000

          k =-0.0417 0.4129 0.0000 (  2714 PWs)   bands (ev):

   -18.4000  -9.3217  -8.3191  -6.5067  -0.6667   2.3790   3.8107   4.5825

     occupation numbers 
     1.0000   1.0000   1.0000   1.0000   0.0000   0.0000   0.0000   0.0000

          k =-0.0417 0.4764 0.0000 (  2702 PWs)   bands (ev):

   -17.8209 -10.0504  -8.9086  -5.8361  -1.1494   1.6389   4.6777   5.4201

     occupation numbers 
     1.0000   1.0000   1.0000   1.0000   0.0000   0.0000   0.0000   0.0000

          k =-0.0417 0.5399 0.0000 (  2700 PWs)   bands (ev):

   -17.1808 -10.8371  -9.3867  -5.0935  -1.5704   0.8572   5.6656   6.7158

     occupation numbers 
     1.0000   1.0000   1.0000   1.0000   0.0000   0.0000   0.0000   0.0000

          k =-0.0417 0.6035 0.0000 (  2718 PWs)   bands (ev):

   -16.4990 -11.6555  -9.7395  -4.2910  -1.9017   0.0394   6.7710   7.4052

     occupation numbers 
     1.0000   1.0000   1.0000   1.0000   0.0019   0.0000   0.0000   0.0000

          k =-0.0417 0.6670 0.0000 (  2727 PWs)   bands (ev):

   -15.8220 -12.4380  -9.9707  -3.4438  -2.1280  -0.8105   7.9866   8.4272

     occupation numbers 
     1.0000   1.0000   1.0000   1.0000   0.0537   0.0000   0.0000   0.0000

          k =-0.0417 0.7305 0.0000 (  2731 PWs)   bands (ev):

   -15.2992 -13.0179 -10.0850  -2.5700  -2.2424  -1.6834   9.1155   9.2913

     occupation numbers 
     1.0000   1.0000   1.0000   0.9487   0.1750   0.0000   0.0000   0.0000

          k =-0.0417-0.7305 0.0000 (  2731 PWs)   bands (ev):

   -15.2992 -13.0182 -10.0848  -2.5697  -2.2424  -1.6837   9.1156   9.2913

     occupation numbers 
     1.0000   1.0000   1.0000   0.9482   0.1751   0.0000   0.0000   0.0000

          k =-0.0417-0.6670 0.0000 (  2727 PWs)   bands (ev):

   -15.8219 -12.4386  -9.9700  -3.4436  -2.1281  -0.8110   7.9866   8.4273

     occupation numbers 
     1.0000   1.0000   1.0000   1.0000   0.0538   0.0000   0.0000   0.0000

          k =-0.0417-0.6035 0.0000 (  2718 PWs)   bands (ev):

   -16.4989 -11.6567  -9.7383  -4.2908  -1.9019   0.0390   6.7709   7.4052

     occupation numbers 
     1.0000   1.0000   1.0000   1.0000   0.0019   0.0000   0.0000   0.0000

          k =-0.0417-0.5399 0.0000 (  2700 PWs)   bands (ev):

   -17.1808 -10.8390  -9.3846  -5.0933  -1.5707   0.8568   5.6656   6.3719

     occupation numbers 
     1.0000   1.0000   1.0000   1.0000   0.0000   0.0000   0.0000   0.0000

          k =-0.0417-0.4764 0.0000 (  2702 PWs)   bands (ev):

   -17.8209 -10.0533  -8.9054  -5.8359  -1.1498   1.6384   4.6777   5.4201

     occupation numbers 
     1.0000   1.0000   1.0000   1.0000   0.0000   0.0000   0.0000   0.0000

          k =-0.0417-0.4129 0.0000 (  2714 PWs)   bands (ev):

   -18.4000  -9.3253  -8.3150  -6.5066  -0.6673   2.3786   3.8107   4.5828

     occupation numbers 
     1.0000   1.0000   1.0000   1.0000   0.0000   0.0000   0.0000   0.0000

          k =-0.0417-0.3494 0.0000 (  2726 PWs)   bands (ev):

   -18.9076  -8.6422  -7.6611  -7.0958  -0.1683   3.0335   3.0665   3.9087

     occupation numbers 
     1.0000   1.0000   1.0000   1.0000   0.0000   0.0000   0.0000   0.0000

          k =-0.0417-0.2859 0.0000 (  2694 PWs)   bands (ev):

   -19.3375  -7.9835  -7.5959  -7.0002   0.2882   2.4458   3.0825   3.4716

     occupation numbers 
     1.0000   1.0000   1.0000   1.0000   0.0000   0.0000   0.0000   0.0000

          k =-0.0417-0.2223 0.0000 (  2694 PWs)   bands (ev):

   -19.6854  -8.0018  -7.3575  -6.3717   0.6459   1.9494   2.6494   2.9718

     occupation numbers 
     1.0000   1.0000   1.0000   1.0000   0.0000   0.0000   0.0000   0.0000

          k =-0.0417-0.1588 0.0000 (  2683 PWs)   bands (ev):

   -19.9486  -8.3093  -6.8068  -5.8014   0.8813   1.5765   2.2908   2.5958

     occupation numbers 
     1.0000   1.0000   1.0000   1.0000   0.0000   0.0000   0.0000   0.0000

          k =-0.0417-0.0953 0.0000 (  2681 PWs)   bands (ev):

   -20.1250  -8.5157  -6.3947  -5.3318   1.0190   1.3263   2.0473   2.3408

     occupation numbers 
     1.0000   1.0000   1.0000   1.0000   0.0000   0.0000   0.0000   0.0000

          k =-0.0417-0.0318 0.0000 (  2683 PWs)   bands (ev):

   -20.2134  -8.6194  -6.1750  -5.0505   1.1001   1.1988   1.9248   2.1458

     occupation numbers 
     1.0000   1.0000   1.0000   1.0000   0.0000   0.0000   0.0000   0.0000

     the Fermi energy is    -2.3518 ev

!    total energy              =     -36.72558542 Ry
     total all-electron energy =      -152.253780 Ry
     estimated scf accuracy    <          3.4E-09 Ry
     smearing contrib. (-TS)   =      -0.00003433 Ry
     internal energy E=F+TS    =     -36.72555110 Ry

     The total energy is F=E-TS. E is the sum of the following terms:
     one-electron contribution =    -131.46738231 Ry
     hartree contribution      =      67.19058246 Ry
     xc contribution           =      -8.94161422 Ry
     ewald contribution        =      48.82162411 Ry
     one-center paw contrib.   =     -12.32876113 Ry
      -> PAW hartree energy AE =       7.77038062 Ry
      -> PAW hartree energy PS =      -7.76236006 Ry
      -> PAW xc energy AE      =     -10.24963210 Ry
      -> PAW xc energy PS      =       4.07722626 Ry
      -> total E_H with PAW    =      67.19860302 Ry
      -> total E_XC with PAW   =     -15.11402006 Ry

     convergence has been achieved in   3 iterations

     negative rho (up, down):  1.970E-03 0.000E+00

     Forces acting on atoms (cartesian axes, Ry/au):

     atom    1 type  1   force =    -0.00001171    0.00019469    0.00000003
     atom    2 type  1   force =     0.00001171   -0.00019469   -0.00000003
     The non-local contrib.  to forces
     atom    1 type  1   force =    -0.00028824    0.28487477    0.00001057
     atom    2 type  1   force =    -0.00019993   -0.28497416    0.00001045
     The ionic contribution  to forces
     atom    1 type  1   force =    -0.00079504    2.04444553    0.00000000
     atom    2 type  1   force =     0.00079504   -2.04444553   -0.00000000
     The local contribution  to forces
     atom    1 type  1   force =     0.00098403   -2.31806169   -0.00007215
     atom    2 type  1   force =    -0.00046538    2.31826072   -0.00007209
     The core correction contribution to forces
     atom    1 type  1   force =    -0.00032641   -0.01130370   -0.00000057
     atom    2 type  1   force =    -0.00053167    0.01072075   -0.00000057
     The Hubbard contrib.    to forces
     atom    1 type  1   force =     0.00000000    0.00000000    0.00000000
     atom    2 type  1   force =     0.00000000    0.00000000    0.00000000
     The SCF correction term to forces
     atom    1 type  1   force =     0.00000016   -0.00002060    0.00000000
     atom    2 type  1   force =    -0.00000014   -0.00001683    0.00000000

     Total force =     0.000276     Total SCF correction =     0.000027
     Energy error            =      7.8E-09 Ry
     Gradient error          =      1.9E-04 Ry/Bohr

     number of scf cycles    =   2
     number of bfgs steps    =   1

     energy             old  =     -36.7255854163 Ry
     energy             new  =     -36.7255854241 Ry

     CASE: energy            _new < energy            _old

     new trust radius        =       0.0001017163 bohr
     new conv_thr            =            1.0E-10 Ry


ATOMIC_POSITIONS (crystal)
C                0.0001222304       -0.0001703743        0.0000000000    1   1   0
C                0.3332107696        0.3335033743        0.0000000000    1   1   0



     Writing config-only to output data dir ./tmp/graphene26.3.save/ :
     XML data file
     NEW-OLD atomic charge density approx. for the potential

     Check: negative core charge=   -0.000013

     negative rho (up, down):  1.970E-03 0.000E+00

     total cpu time spent up to now is       16.7 secs

     per-process dynamical memory:    44.0 Mb

     Self-consistent Calculation

     iteration #  1     ecut=    40.00 Ry     beta= 0.70
     Davidson diagonalization with overlap

---- Real-time Memory Report at c_bands before calling an iterative solver
            86 MiB given to the printing process from OS
            42 MiB allocation reported by mallinfo(arena+hblkhd)
         27007 MiB available memory on the node where the printing process lives
------------------
     ethr =  1.00E-06,  avg # of iterations =  2.0

     Threshold (ethr) on eigenvalues was too large:
     Diagonalizing with lowered threshold

     Davidson diagonalization with overlap

---- Real-time Memory Report at c_bands before calling an iterative solver
            86 MiB given to the printing process from OS
            42 MiB allocation reported by mallinfo(arena+hblkhd)
         27011 MiB available memory on the node where the printing process lives
------------------
     ethr =  2.51E-10,  avg # of iterations =  2.0

     negative rho (up, down):  1.970E-03 0.000E+00

     total cpu time spent up to now is       18.7 secs

     total energy              =     -36.72558544 Ry
     estimated scf accuracy    <       0.00000002 Ry

     iteration #  2     ecut=    40.00 Ry     beta= 0.70
     Davidson diagonalization with overlap

---- Real-time Memory Report at c_bands before calling an iterative solver
            86 MiB given to the printing process from OS
            49 MiB allocation reported by mallinfo(arena+hblkhd)
         27018 MiB available memory on the node where the printing process lives
------------------
     ethr =  2.90E-10,  avg # of iterations =  2.1

     negative rho (up, down):  1.970E-03 0.000E+00

     total cpu time spent up to now is       19.8 secs

     total energy              =     -36.72558544 Ry
     estimated scf accuracy    <       0.00000003 Ry

     iteration #  3     ecut=    40.00 Ry     beta= 0.70
     Davidson diagonalization with overlap

---- Real-time Memory Report at c_bands before calling an iterative solver
            86 MiB given to the printing process from OS
            50 MiB allocation reported by mallinfo(arena+hblkhd)
         27020 MiB available memory on the node where the printing process lives
------------------
     ethr =  2.90E-10,  avg # of iterations =  1.2

     negative rho (up, down):  1.970E-03 0.000E+00

     total cpu time spent up to now is       20.8 secs

     total energy              =     -36.72558545 Ry
     estimated scf accuracy    <          1.4E-10 Ry

     iteration #  4     ecut=    40.00 Ry     beta= 0.70
     Davidson diagonalization with overlap

---- Real-time Memory Report at c_bands before calling an iterative solver
            86 MiB given to the printing process from OS
            51 MiB allocation reported by mallinfo(arena+hblkhd)
         27017 MiB available memory on the node where the printing process lives
------------------
     ethr =  1.77E-12,  avg # of iterations =  2.8

     negative rho (up, down):  1.970E-03 0.000E+00

     total cpu time spent up to now is       22.0 secs

     End of self-consistent calculation

          k = 0.0000 0.0000 0.0000 (  2683 PWs)   bands (ev):

   -20.2435  -8.6538  -6.0797  -4.8997   0.9715   1.1591   1.8830   2.0313

     occupation numbers 
     1.0000   1.0000   1.0000   1.0000   0.0000   0.0000   0.0000   0.0000

          k = 0.0000 0.0635 0.0000 (  2681 PWs)   bands (ev):

   -20.1991  -8.6018  -6.1664  -5.0894   0.9495   1.2238   1.9442   2.2420

     occupation numbers 
     1.0000   1.0000   1.0000   1.0000   0.0000   0.0000   0.0000   0.0000

          k = 0.0000 0.1270 0.0000 (  2681 PWs)   bands (ev):

   -20.0665  -8.4464  -6.4190  -5.5802   0.8720   1.4119   2.1278   2.4301

     occupation numbers 
     1.0000   1.0000   1.0000   1.0000   0.0000   0.0000   0.0000   0.0000

          k = 0.0000 0.1906 0.0000 (  2683 PWs)   bands (ev):

   -19.8463  -8.1888  -6.8193  -6.2267   0.7000   1.7220   2.4310   2.7428

     occupation numbers 
     1.0000   1.0000   1.0000   1.0000   0.0000   0.0000   0.0000   0.0000

          k = 0.0000 0.2541 0.0000 (  2696 PWs)   bands (ev):

   -19.5402  -7.8311  -7.3459  -6.9183   0.4006   2.1558   2.8419   3.1798

     occupation numbers 
     1.0000   1.0000   1.0000   1.0000   0.0000   0.0000   0.0000   0.0000

          k = 0.0000 0.3176 0.0000 (  2722 PWs)   bands (ev):

   -19.1504  -7.9784  -7.5908  -7.3766  -0.0193   2.7140   3.2181   3.7415

     occupation numbers 
     1.0000   1.0000   1.0000   1.0000   0.0000   0.0000   0.0000   0.0000

          k = 0.0000 0.3811 0.0000 (  2700 PWs)   bands (ev):

   -18.6802  -8.6989  -8.2079  -6.8298  -0.5127   2.7812   3.3965   4.1918

     occupation numbers 
     1.0000   1.0000   1.0000   1.0000   0.0000   0.0000   0.0000   0.0000

          k = 0.0000 0.4447 0.0000 (  2712 PWs)   bands (ev):

   -18.1348  -9.4904  -8.7496  -6.1972  -1.0179   2.0664   4.2023   4.9586

     occupation numbers 
     1.0000   1.0000   1.0000   1.0000   0.0000   0.0000   0.0000   0.0000

          k = 0.0000 0.5082 0.0000 (  2692 PWs)   bands (ev):

   -17.5218 -10.3324  -9.2036  -5.4869  -1.4807   1.2959   5.1302   5.8570

     occupation numbers 
     1.0000   1.0000   1.0000   1.0000   0.0000   0.0000   0.0000   0.0000

          k = 0.0000 0.5717 0.0000 (  2710 PWs)   bands (ev):

   -16.8548 -11.1977  -9.5627  -4.7096  -1.8648   0.4859   6.1776   6.8576

     occupation numbers 
     1.0000   1.0000   1.0000   1.0000   0.0010   0.0000   0.0000   0.0000

          k = 0.0000 0.6352 0.0000 (  2736 PWs)   bands (ev):

   -16.1618 -12.0445  -9.8219  -3.8785  -2.1487  -0.3592   7.3398   7.9147

     occupation numbers 
     1.0000   1.0000   1.0000   1.0000   0.0680   0.0000   0.0000   0.0000

          k = 0.0000 0.6987 0.0000 (  2726 PWs)   bands (ev):

   -15.5228 -12.7808  -9.9784  -3.0096  -2.3219  -1.2321   8.6058   8.8716

     occupation numbers 
     1.0000   1.0000   1.0000   1.0137   0.3281   0.0000   0.0000   0.0000

          k = 0.0000-0.7623 0.0000 (  2734 PWs)   bands (ev):

   -15.2060 -13.1310 -10.0307  -2.3800  -2.1289  -2.1134   9.2866   9.8279

     occupation numbers 
     1.0000   1.0000   1.0000   0.4733   0.0542   0.0450   0.0000   0.0000

          k = 0.0000-0.6987 0.0000 (  2726 PWs)   bands (ev):

   -15.5228 -12.7808  -9.9784  -3.0096  -2.3219  -1.2321   8.6058   8.8716

     occupation numbers 
     1.0000   1.0000   1.0000   1.0137   0.3281   0.0000   0.0000   0.0000

          k = 0.0000-0.6352 0.0000 (  2736 PWs)   bands (ev):

   -16.1618 -12.0445  -9.8219  -3.8785  -2.1487  -0.3592   7.3398   7.9147

     occupation numbers 
     1.0000   1.0000   1.0000   1.0000   0.0680   0.0000   0.0000   0.0000

          k = 0.0000-0.5717 0.0000 (  2710 PWs)   bands (ev):

   -16.8548 -11.1977  -9.5627  -4.7096  -1.8648   0.4859   6.1776   6.8576

     occupation numbers 
     1.0000   1.0000   1.0000   1.0000   0.0010   0.0000   0.0000   0.0000

          k = 0.0000-0.5082 0.0000 (  2692 PWs)   bands (ev):

   -17.5218 -10.3324  -9.2036  -5.4869  -1.4807   1.2959   5.1302   5.8570

     occupation numbers 
     1.0000   1.0000   1.0000   1.0000   0.0000   0.0000   0.0000   0.0000

          k = 0.0000-0.4447 0.0000 (  2712 PWs)   bands (ev):

   -18.1348  -9.4904  -8.7496  -6.1972  -1.0179   2.0664   4.2023   4.9586

     occupation numbers 
     1.0000   1.0000   1.0000   1.0000   0.0000   0.0000   0.0000   0.0000

          k = 0.0000-0.3811 0.0000 (  2700 PWs)   bands (ev):

   -18.6802  -8.6989  -8.2079  -6.8298  -0.5127   2.7812   3.3965   4.1918

     occupation numbers 
     1.0000   1.0000   1.0000   1.0000   0.0000   0.0000   0.0000   0.0000

          k = 0.0000-0.3176 0.0000 (  2722 PWs)   bands (ev):

   -19.1504  -7.9784  -7.5908  -7.3766  -0.0193   2.7140   3.2181   3.7425

     occupation numbers 
     1.0000   1.0000   1.0000   1.0000   0.0000   0.0000   0.0000   0.0000

          k = 0.0000-0.2541 0.0000 (  2696 PWs)   bands (ev):

   -19.5402  -7.8311  -7.3459  -6.9183   0.4006   2.1558   2.8419   3.1798

     occupation numbers 
     1.0000   1.0000   1.0000   1.0000   0.0000   0.0000   0.0000   0.0000

          k = 0.0000-0.1906 0.0000 (  2683 PWs)   bands (ev):

   -19.8463  -8.1888  -6.8193  -6.2267   0.7000   1.7220   2.4310   2.7428

     occupation numbers 
     1.0000   1.0000   1.0000   1.0000   0.0000   0.0000   0.0000   0.0000

          k = 0.0000-0.1270 0.0000 (  2681 PWs)   bands (ev):

   -20.0665  -8.4464  -6.4190  -5.5802   0.8720   1.4119   2.1278   2.4301

     occupation numbers 
     1.0000   1.0000   1.0000   1.0000   0.0000   0.0000   0.0000   0.0000

          k = 0.0000-0.0635 0.0000 (  2681 PWs)   bands (ev):

   -20.1991  -8.6018  -6.1664  -5.0894   0.9495   1.2238   1.9442   2.2420

     occupation numbers 
     1.0000   1.0000   1.0000   1.0000   0.0000   0.0000   0.0000   0.0000

          k = 0.0417-0.0318 0.0000 (  2683 PWs)   bands (ev):

   -20.2134  -8.6193  -6.1732  -5.0529   1.1008   1.1989   1.9248   2.1479

     occupation numbers 
     1.0000   1.0000   1.0000   1.0000   0.0000   0.0000   0.0000   0.0000

          k = 0.0417 0.0318 0.0000 (  2683 PWs)   bands (ev):

   -20.2134  -8.6193  -6.1741  -5.0517   1.1000   1.1988   1.9249   2.1493

     occupation numbers 
     1.0000   1.0000   1.0000   1.0000   0.0000   0.0000   0.0000   0.0000

          k = 0.0417 0.0953 0.0000 (  2681 PWs)   bands (ev):

   -20.1249  -8.5157  -6.3939  -5.3328   1.0189   1.3263   2.0473   2.3409

     occupation numbers 
     1.0000   1.0000   1.0000   1.0000   0.0000   0.0000   0.0000   0.0000

          k = 0.0417 0.1588 0.0000 (  2683 PWs)   bands (ev):

   -19.9485  -8.3093  -6.8062  -5.8021   0.8812   1.5765   2.2908   2.5958

     occupation numbers 
     1.0000   1.0000   1.0000   1.0000   0.0000   0.0000   0.0000   0.0000

          k = 0.0417 0.2223 0.0000 (  2694 PWs)   bands (ev):

   -19.6854  -8.0018  -7.3571  -6.3721   0.6457   1.9494   2.6494   2.9718

     occupation numbers 
     1.0000   1.0000   1.0000   1.0000   0.0000   0.0000   0.0000   0.0000

          k = 0.0417 0.2859 0.0000 (  2694 PWs)   bands (ev):

   -19.3374  -7.9832  -7.5959  -7.0005   0.2879   2.4459   3.0825   3.4717

     occupation numbers 
     1.0000   1.0000   1.0000   1.0000   0.0000   0.0000   0.0000   0.0000

          k = 0.0417 0.3494 0.0000 (  2726 PWs)   bands (ev):

   -18.9075  -8.6419  -7.6613  -7.0958  -0.1688   3.0333   3.0664   3.9089

     occupation numbers 
     1.0000   1.0000   1.0000   1.0000   0.0000   0.0000   0.0000   0.0000

          k = 0.0417 0.4129 0.0000 (  2714 PWs)   bands (ev):

   -18.3998  -9.3250  -8.3153  -6.5066  -0.6678   2.3783   3.8107   4.5822

     occupation numbers 
     1.0000   1.0000   1.0000   1.0000   0.0000   0.0000   0.0000   0.0000

          k = 0.0417 0.4764 0.0000 (  2702 PWs)   bands (ev):

   -17.8207 -10.0530  -8.9058  -5.8359  -1.1504   1.6382   4.6778   5.4201

     occupation numbers 
     1.0000   1.0000   1.0000   1.0000   0.0000   0.0000   0.0000   0.0000

          k = 0.0417 0.5399 0.0000 (  2700 PWs)   bands (ev):

   -17.1805 -10.8387  -9.3850  -5.0932  -1.5714   0.8566   5.6656   6.3719

     occupation numbers 
     1.0000   1.0000   1.0000   1.0000   0.0000   0.0000   0.0000   0.0000

          k = 0.0417 0.6035 0.0000 (  2718 PWs)   bands (ev):

   -16.4985 -11.6566  -9.7386  -4.2907  -1.9026   0.0389   6.7710   7.4052

     occupation numbers 
     1.0000   1.0000   1.0000   1.0000   0.0020   0.0000   0.0000   0.0000

          k = 0.0417 0.6670 0.0000 (  2727 PWs)   bands (ev):

   -15.8213 -12.4387  -9.9704  -3.4435  -2.1288  -0.8110   7.9866   8.4272

     occupation numbers 
     1.0000   1.0000   1.0000   1.0000   0.0541   0.0000   0.0000   0.0000

          k = 0.0417-0.7940 0.0000 (  2731 PWs)   bands (ev):

   -15.2983 -13.0186 -10.0851  -2.5696  -2.2432  -1.6838   9.1153   9.2914

     occupation numbers 
     1.0000   1.0000   1.0000   0.9476   0.1758   0.0000   0.0000   0.0000

          k = 0.0417-0.7305 0.0000 (  2731 PWs)   bands (ev):

   -15.2984 -13.0183 -10.0853  -2.5699  -2.2431  -1.6835   9.1151   9.2914

     occupation numbers 
     1.0000   1.0000   1.0000   0.9482   0.1757   0.0000   0.0000   0.0000

          k = 0.0417-0.6670 0.0000 (  2727 PWs)   bands (ev):

   -15.8214 -12.4381  -9.9710  -3.4438  -2.1287  -0.8106   7.9867   8.4271

     occupation numbers 
     1.0000   1.0000   1.0000   1.0000   0.0540   0.0000   0.0000   0.0000

          k = 0.0417-0.6035 0.0000 (  2718 PWs)   bands (ev):

   -16.4986 -11.6555  -9.7399  -4.2910  -1.9024   0.0393   6.7710   7.4052

     occupation numbers 
     1.0000   1.0000   1.0000   1.0000   0.0019   0.0000   0.0000   0.0000

          k = 0.0417-0.5399 0.0000 (  2700 PWs)   bands (ev):

   -17.1805 -10.8369  -9.3871  -5.0934  -1.5711   0.8571   5.6657   6.3718

     occupation numbers 
     1.0000   1.0000   1.0000   1.0000   0.0000   0.0000   0.0000   0.0000

          k = 0.0417-0.4764 0.0000 (  2702 PWs)   bands (ev):

   -17.8207 -10.0502  -8.9088  -5.8360  -1.1500   1.6387   4.6778   5.7175

     occupation numbers 
     1.0000   1.0000   1.0000   1.0000   0.0000   0.0000   0.0000   0.0000

          k = 0.0417-0.4129 0.0000 (  2714 PWs)   bands (ev):

   -18.3998  -9.3214  -8.3193  -6.5067  -0.6673   2.3788   3.8107   4.5822

     occupation numbers 
     1.0000   1.0000   1.0000   1.0000   0.0000   0.0000   0.0000   0.0000

          k = 0.0417-0.3494 0.0000 (  2726 PWs)   bands (ev):

   -18.9075  -8.6379  -7.6659  -7.0959  -0.1681   3.0336   3.0664   3.9087

     occupation numbers 
     1.0000   1.0000   1.0000   1.0000   0.0000   0.0000   0.0000   0.0000

          k = 0.0417-0.2859 0.0000 (  2694 PWs)   bands (ev):

   -19.3374  -7.9789  -7.5960  -7.0054   0.2888   2.4459   3.0825   3.4717

     occupation numbers 
     1.0000   1.0000   1.0000   1.0000   0.0000   0.0000   0.0000   0.0000

          k = 0.0417-0.2223 0.0000 (  2694 PWs)   bands (ev):

   -19.6854  -8.0018  -7.3528  -6.3770   0.6469   1.9494   2.6494   2.9718

     occupation numbers 
     1.0000   1.0000   1.0000   1.0000   0.0000   0.0000   0.0000   0.0000

          k = 0.0417-0.1588 0.0000 (  2683 PWs)   bands (ev):

   -19.9485  -8.3093  -6.8024  -5.8067   0.8826   1.5766   2.2908   2.5958

     occupation numbers 
     1.0000   1.0000   1.0000   1.0000   0.0000   0.0000   0.0000   0.0000

          k = 0.0417-0.0953 0.0000 (  2681 PWs)   bands (ev):

   -20.1249  -8.5157  -6.3913  -5.3361   1.0205   1.3263   2.0473   2.3409

     occupation numbers 
     1.0000   1.0000   1.0000   1.0000   0.0000   0.0000   0.0000   0.0000

          k = 0.0833-0.0635 0.0000 (  2681 PWs)   bands (ev):

   -20.1234  -8.5164  -6.5107  -5.3730   1.3190   1.3954   2.0504   2.3204

     occupation numbers 
     1.0000   1.0000   1.0000   1.0000   0.0000   0.0000   0.0000   0.0000

          k = 0.0833-0.0000 0.0000 (  2689 PWs)   bands (ev):

   -20.1676  -8.5680  -6.3356  -5.3270   1.2545   1.5111   1.9893   2.2039

     occupation numbers 
     1.0000   1.0000   1.0000   1.0000   0.0000   0.0000   0.0000   0.0000

          k = 0.0833 0.0635 0.0000 (  2681 PWs)   bands (ev):

   -20.1234  -8.5163  -6.5138  -5.3691   1.3189   1.3929   2.0504   2.3206

     occupation numbers 
     1.0000   1.0000   1.0000   1.0000   0.0000   0.0000   0.0000   0.0000

          k = 0.0833 0.1270 0.0000 (  2685 PWs)   bands (ev):

   -19.9912  -8.3619  -6.9593  -5.5475   1.2129   1.5103   2.2329   2.5274

     occupation numbers 
     1.0000   1.0000   1.0000   1.0000   0.0000   0.0000   0.0000   0.0000

          k = 0.0833 0.1906 0.0000 (  2686 PWs)   bands (ev):

   -19.7718  -8.1059  -7.5431  -5.8978   1.0078   1.8246   2.5328   2.8458

     occupation numbers 
     1.0000   1.0000   1.0000   1.0000   0.0000   0.0000   0.0000   0.0000

          k = 0.0833 0.2541 0.0000 (  2698 PWs)   bands (ev):

   -19.4669  -8.1816  -7.7507  -6.3999   0.7188   2.2610   2.9285   3.2855

     occupation numbers 
     1.0000   1.0000   1.0000   1.0000   0.0000   0.0000   0.0000   0.0000

          k = 0.0833 0.3176 0.0000 (  2702 PWs)   bands (ev):

   -19.0790  -8.8277  -7.2999  -7.0143   0.3258   2.8204   3.1162   3.7456

     occupation numbers 
     1.0000   1.0000   1.0000   1.0000   0.0000   0.0000   0.0000   0.0000

          k = 0.0833 0.3811 0.0000 (  2712 PWs)   bands (ev):

   -18.6118  -9.4610  -7.6986  -6.7582  -0.1378   2.5602   3.5032   4.2927

     occupation numbers 
     1.0000   1.0000   1.0000   1.0000   0.0000   0.0000   0.0000   0.0000

          k = 0.0833 0.4447 0.0000 (  2701 PWs)   bands (ev):

   -18.0706 -10.0830  -8.4029  -6.1325  -0.6147   1.8628   4.3089   5.0655

     occupation numbers 
     1.0000   1.0000   1.0000   1.0000   0.0000   0.0000   0.0000   0.0000

          k = 0.0833 0.5082 0.0000 (  2700 PWs)   bands (ev):

   -17.4644 -10.7179  -9.0625  -5.4317  -1.0531   1.1246   5.2364   5.9624

     occupation numbers 
     1.0000   1.0000   1.0000   1.0000   0.0000   0.0000   0.0000   0.0000

          k = 0.0833 0.5717 0.0000 (  2705 PWs)   bands (ev):

   -16.8079 -11.3953  -9.6063  -4.6673  -1.4175   0.3537   6.2829   6.9535

     occupation numbers 
     1.0000   1.0000   1.0000   1.0000   0.0000   0.0000   0.0000   0.0000

          k = 0.0833 0.6352 0.0000 (  2729 PWs)   bands (ev):

   -16.1327 -12.1057  -9.9910  -3.8541  -1.6871  -0.4494   7.4435   7.9717

     occupation numbers 
     1.0000   1.0000   1.0000   1.0000   0.0000   0.0000   0.0000   0.0000

          k = 0.0833-0.8258 0.0000 (  2730 PWs)   bands (ev):

   -15.5229 -12.7510 -10.2142  -3.0110  -1.8517  -1.2798   8.7059   8.7585

     occupation numbers 
     1.0000   1.0000   1.0000   1.0134   0.0008   0.0000   0.0000   0.0000

          k = 0.0833-0.7623 0.0000 (  2730 PWs)   bands (ev):

   -15.2309 -13.0574 -10.2871  -2.2608  -2.0245  -1.9069   8.9857   9.9150

     occupation numbers 
     1.0000   1.0000   1.0000   0.2048   0.0138   0.0021   0.0000   0.0000

          k = 0.0833-0.6987 0.0000 (  2730 PWs)   bands (ev):

   -15.5231 -12.7500 -10.2150  -3.0116  -1.8516  -1.2790   8.7059   8.7581

     occupation numbers 
     1.0000   1.0000   1.0000   1.0133   0.0008   0.0000   0.0000   0.0000

          k = 0.0833-0.6352 0.0000 (  2729 PWs)   bands (ev):

   -16.1329 -12.1039  -9.9929  -3.8546  -1.6868  -0.4485   7.4435   7.9715

     occupation numbers 
     1.0000   1.0000   1.0000   1.0000   0.0000   0.0000   0.0000   0.0000

          k = 0.0833-0.5717 0.0000 (  2705 PWs)   bands (ev):

   -16.8081 -11.3926  -9.6092  -4.6677  -1.4170   0.3546   6.2829   6.9534

     occupation numbers 
     1.0000   1.0000   1.0000   1.0000   0.0000   0.0000   0.0000   0.0000

          k = 0.0833-0.5082 0.0000 (  2700 PWs)   bands (ev):

   -17.4645 -10.7145  -9.0664  -5.4321  -1.0525   1.1255   5.2364   5.9621

     occupation numbers 
     1.0000   1.0000   1.0000   1.0000   0.0000   0.0000   0.0000   0.0000

          k = 0.0833-0.4447 0.0000 (  2701 PWs)   bands (ev):

   -18.0707 -10.0792  -8.4073  -6.1328  -0.6138   1.8637   4.3089   5.0655

     occupation numbers 
     1.0000   1.0000   1.0000   1.0000   0.0000   0.0000   0.0000   0.0000

          k = 0.0833-0.3811 0.0000 (  2712 PWs)   bands (ev):

   -18.6118  -9.4570  -7.7034  -6.7585  -0.1366   2.5610   3.5032   4.2926

     occupation numbers 
     1.0000   1.0000   1.0000   1.0000   0.0000   0.0000   0.0000   0.0000

          k = 0.0833-0.3176 0.0000 (  2702 PWs)   bands (ev):

   -19.0790  -8.8236  -7.3000  -7.0195   0.3273   2.8204   3.1166   3.7459

     occupation numbers 
     1.0000   1.0000   1.0000   1.0000   0.0000   0.0000   0.0000   0.0000

          k = 0.0833-0.2541 0.0000 (  2698 PWs)   bands (ev):

   -19.4669  -8.1773  -7.7508  -6.4054   0.7207   2.2610   2.9284   3.2855

     occupation numbers 
     1.0000   1.0000   1.0000   1.0000   0.0000   0.0000   0.0000   0.0000

          k = 0.0833-0.1906 0.0000 (  2686 PWs)   bands (ev):

   -19.7718  -8.1060  -7.5387  -5.9035   1.0102   1.8246   2.5328   2.8458

     occupation numbers 
     1.0000   1.0000   1.0000   1.0000   0.0000   0.0000   0.0000   0.0000

          k = 0.0833-0.1270 0.0000 (  2685 PWs)   bands (ev):

   -19.9912  -8.3619  -6.9550  -5.5530   1.2156   1.5103   2.2329   2.5274

     occupation numbers 
     1.0000   1.0000   1.0000   1.0000   0.0000   0.0000   0.0000   0.0000

          k = 0.1250-0.0953 0.0000 (  2690 PWs)   bands (ev):

   -19.9741  -8.3461  -7.1509  -5.6456   1.5217   1.7383   2.2585   2.5422

     occupation numbers 
     1.0000   1.0000   1.0000   1.0000   0.0000   0.0000   0.0000   0.0000

          k = 0.1250-0.0318 0.0000 (  2690 PWs)   bands (ev):

   -20.0620  -8.4484  -6.7024  -5.7459   1.3950   2.0188   2.1375   2.3894

     occupation numbers 
     1.0000   1.0000   1.0000   1.0000   0.0000   0.0000   0.0000   0.0000

          k = 0.1250 0.0318 0.0000 (  2690 PWs)   bands (ev):

   -20.0620  -8.4484  -6.7048  -5.7430   1.3949   2.0162   2.1375   2.3900

     occupation numbers 
     1.0000   1.0000   1.0000   1.0000   0.0000   0.0000   0.0000   0.0000

          k = 0.1250 0.0953 0.0000 (  2690 PWs)   bands (ev):

   -19.9741  -8.3460  -7.1551  -5.6402   1.5215   1.7350   2.2585   2.5423

     occupation numbers 
     1.0000   1.0000   1.0000   1.0000   0.0000   0.0000   0.0000   0.0000

          k = 0.1250 0.1588 0.0000 (  2685 PWs)   bands (ev):

   -19.7990  -8.1422  -7.7661  -5.7015   1.4852   1.7820   2.4974   2.8014

     occupation numbers 
     1.0000   1.0000   1.0000   1.0000   0.0000   0.0000   0.0000   0.0000

          k = 0.1250 0.2223 0.0000 (  2693 PWs)   bands (ev):

   -19.5379  -8.4230  -7.8391  -5.9873   1.2387   2.1583   2.8373   3.1818

     occupation numbers 
     1.0000   1.0000   1.0000   1.0000   0.0000   0.0000   0.0000   0.0000

          k = 0.1250 0.2859 0.0000 (  2708 PWs)   bands (ev):

   -19.1933  -9.0765  -7.4396  -6.4698   0.9204   2.6577   3.0802   3.6711

     occupation numbers 
     1.0000   1.0000   1.0000   1.0000   0.0000   0.0000   0.0000   0.0000

          k = 0.1250 0.3494 0.0000 (  2694 PWs)   bands (ev):

   -18.7682  -9.7013  -7.0978  -6.9484   0.5194   2.6182   3.2795   4.0871

     occupation numbers 
     1.0000   1.0000   1.0000   1.0000   0.0000   0.0000   0.0000   0.0000

          k = 0.1250 0.4129 0.0000 (  2710 PWs)   bands (ev):

   -18.2680 -10.2871  -7.8178  -6.3718   0.0741   1.9649   4.0240   4.7941

     occupation numbers 
     1.0000   1.0000   1.0000   1.0000   0.0000   0.0000   0.0000   0.0000

          k = 0.1250 0.4764 0.0000 (  2695 PWs)   bands (ev):

   -17.7003 -10.8371  -8.5722  -5.7183  -0.3611   1.2760   4.8905   5.6335

     occupation numbers 
     1.0000   1.0000   1.0000   1.0000   0.0000   0.0000   0.0000   0.0000

          k = 0.1250 0.5399 0.0000 (  2704 PWs)   bands (ev):

   -17.0780 -11.3710  -9.2929  -4.9994  -0.7433   0.5642   5.8771   6.5762

     occupation numbers 
     1.0000   1.0000   1.0000   1.0000   0.0000   0.0000   0.0000   0.0000

          k = 0.1250 0.6035 0.0000 (  2709 PWs)   bands (ev):

   -16.4255 -11.9181  -9.8975  -4.2302  -1.0451  -0.1722   6.9800   7.5704

     occupation numbers 
     1.0000   1.0000   1.0000   1.0000   0.0000   0.0000   0.0000   0.0000

          k = 0.1250-0.8576 0.0000 (  2728 PWs)   bands (ev):

   -15.7977 -12.4730 -10.3154  -3.4318  -1.2519  -0.9335   8.1908   8.3989

     occupation numbers 
     1.0000   1.0000   1.0000   1.0000   0.0000   0.0000   0.0000   0.0000

          k = 0.1250-0.7940 0.0000 (  2726 PWs)   bands (ev):

   -15.3424 -12.8980 -10.5218  -2.6538  -1.6877  -1.3565   8.6823   9.4825

     occupation numbers 
     1.0000   1.0000   1.0000   1.0545   0.0000   0.0000   0.0000   0.0000

          k = 0.1250-0.7305 0.0000 (  2726 PWs)   bands (ev):

   -15.3426 -12.8972 -10.5225  -2.6546  -1.6867  -1.3564   8.6820   9.4826

     occupation numbers 
     1.0000   1.0000   1.0000   1.0551   0.0000   0.0000   0.0000   0.0000

          k = 0.1250-0.6670 0.0000 (  2728 PWs)   bands (ev):

   -15.7980 -12.4709 -10.3175  -3.4326  -1.2516  -0.9323   8.1908   8.3984

     occupation numbers 
     1.0000   1.0000   1.0000   1.0000   0.0000   0.0000   0.0000   0.0000

          k = 0.1250-0.6035 0.0000 (  2709 PWs)   bands (ev):

   -16.4258 -11.9151  -9.9007  -4.2309  -1.0445  -0.1708   6.9801   7.5702

     occupation numbers 
     1.0000   1.0000   1.0000   1.0000   0.0000   0.0000   0.0000   0.0000

          k = 0.1250-0.5399 0.0000 (  2704 PWs)   bands (ev):

   -17.0782 -11.3674  -9.2969  -5.0000  -0.7425   0.5655   5.8771   6.5761

     occupation numbers 
     1.0000   1.0000   1.0000   1.0000   0.0000   0.0000   0.0000   0.0000

          k = 0.1250-0.4764 0.0000 (  2695 PWs)   bands (ev):

   -17.7004 -10.8333  -8.5767  -5.7187  -0.3600   1.2773   4.8905   5.6336

     occupation numbers 
     1.0000   1.0000   1.0000   1.0000   0.0000   0.0000   0.0000   0.0000

          k = 0.1250-0.4129 0.0000 (  2710 PWs)   bands (ev):

   -18.2681 -10.2833  -7.8226  -6.3721   0.0755   1.9661   4.0240   4.7942

     occupation numbers 
     1.0000   1.0000   1.0000   1.0000   0.0000   0.0000   0.0000   0.0000

          k = 0.1250-0.3494 0.0000 (  2694 PWs)   bands (ev):

   -18.7683  -9.6975  -7.1029  -6.9487   0.5212   2.6192   3.2795   4.0869

     occupation numbers 
     1.0000   1.0000   1.0000   1.0000   0.0000   0.0000   0.0000   0.0000

          k = 0.1250-0.2859 0.0000 (  2708 PWs)   bands (ev):

   -19.1933  -9.0726  -7.4399  -6.4752   0.9228   2.6577   3.0805   3.6844

     occupation numbers 
     1.0000   1.0000   1.0000   1.0000   0.0000   0.0000   0.0000   0.0000

          k = 0.1250-0.2223 0.0000 (  2693 PWs)   bands (ev):

   -19.5379  -8.4189  -7.8392  -5.9930   1.2416   2.1583   2.8372   3.1818

     occupation numbers 
     1.0000   1.0000   1.0000   1.0000   0.0000   0.0000   0.0000   0.0000

          k = 0.1250-0.1588 0.0000 (  2685 PWs)   bands (ev):

   -19.7990  -8.1424  -7.7618  -5.7074   1.4886   1.7819   2.4973   2.8014

     occupation numbers 
     1.0000   1.0000   1.0000   1.0000   0.0000   0.0000   0.0000   0.0000

          k = 0.1667-0.1270 0.0000 (  2687 PWs)   bands (ev):

   -19.7667  -8.1106  -7.9920  -5.8478   1.8065   2.1065   2.5448   2.8468

     occupation numbers 
     1.0000   1.0000   1.0000   1.0000   0.0000   0.0000   0.0000   0.0000

          k = 0.1667-0.0635 0.0000 (  2692 PWs)   bands (ev):

   -19.8975  -8.2619  -7.3598  -6.0734   1.6206   2.3681   2.4205   2.6752

     occupation numbers 
     1.0000   1.0000   1.0000   1.0000   0.0000   0.0000   0.0000   0.0000

          k = 0.1667-0.0000 0.0000 (  2686 PWs)   bands (ev):

   -19.9411  -8.3124  -6.9986  -6.3009   1.5572   2.3083   2.5436   2.8135

     occupation numbers 
     1.0000   1.0000   1.0000   1.0000   0.0000   0.0000   0.0000   0.0000

          k = 0.1667 0.0635 0.0000 (  2692 PWs)   bands (ev):

   -19.8975  -8.2618  -7.3637  -6.0687   1.6205   2.3681   2.4171   2.6752

     occupation numbers 
     1.0000   1.0000   1.0000   1.0000   0.0000   0.0000   0.0000   0.0000

          k = 0.1667 0.1270 0.0000 (  2687 PWs)   bands (ev):

   -19.7667  -8.1104  -7.9961  -5.8423   1.8062   2.1030   2.5449   2.8470

     occupation numbers 
     1.0000   1.0000   1.0000   1.0000   0.0000   0.0000   0.0000   0.0000

          k = 0.1667 0.1906 0.0000 (  2694 PWs)   bands (ev):

   -19.5500  -8.6753  -7.8600  -5.8460   1.8187   2.1431   2.8217   3.1619

     occupation numbers 
     1.0000   1.0000   1.0000   1.0000   0.0000   0.0000   0.0000   0.0000

          k = 0.1667 0.2541 0.0000 (  2705 PWs)   bands (ev):

   -19.2494  -9.3460  -7.5133  -6.1084   1.5624   2.5779   3.0141   3.5961

     occupation numbers 
     1.0000   1.0000   1.0000   1.0000   0.0000   0.0000   0.0000   0.0000

          k = 0.1667 0.3176 0.0000 (  2707 PWs)   bands (ev):

   -18.8680  -9.9804  -7.0746  -6.5959   1.2417   2.5776   3.1393   3.9584

     occupation numbers 
     1.0000   1.0000   1.0000   1.0000   0.0000   0.0000   0.0000   0.0000

          k = 0.1667 0.3811 0.0000 (  2702 PWs)   bands (ev):

   -18.4106 -10.5628  -7.2501  -6.5502   0.8560   1.9583   3.8229   4.6043

     occupation numbers 
     1.0000   1.0000   1.0000   1.0000   0.0000   0.0000   0.0000   0.0000

          k = 0.1667 0.4447 0.0000 (  2702 PWs)   bands (ev):

   -17.8847 -11.0858  -8.0088  -5.9485   0.4475   1.3143   4.6282   5.3863

     occupation numbers 
     1.0000   1.0000   1.0000   1.0000   0.0000   0.0000   0.0000   0.0000

          k = 0.1667 0.5082 0.0000 (  2700 PWs)   bands (ev):

   -17.3022 -11.5497  -8.8089  -5.2812   0.0646   0.6632   5.5543   6.2780

     occupation numbers 
     1.0000   1.0000   1.0000   1.0000   0.0000   0.0000   0.0000   0.0000

          k = 0.1667 0.5717 0.0000 (  2712 PWs)   bands (ev):

   -16.6845 -11.9646  -9.5804  -4.5646  -0.2572   0.0039   6.5981   7.2410

     occupation numbers 
     1.0000   1.0000   1.0000   1.0000   0.0000   0.0000   0.0000   0.0000

          k = 0.1667-0.8893 0.0000 (  2731 PWs)   bands (ev):

   -16.0737 -12.3469 -10.2350  -3.8221  -0.6673  -0.4972   7.7532   8.1036

     occupation numbers 
     1.0000   1.0000   1.0000   1.0000   0.0000   0.0000   0.0000   0.0000

          k = 0.1667-0.8258 0.0000 (  2727 PWs)   bands (ev):

   -15.5639 -12.6821 -10.6733  -3.0995  -1.3324  -0.6443   8.4109   9.0028

     occupation numbers 
     1.0000   1.0000   1.0000   1.0043   0.0000   0.0000   0.0000   0.0000

          k = 0.1667-0.7623 0.0000 (  2726 PWs)   bands (ev):

   -15.3456 -12.8368 -10.8261  -2.6510  -1.7590  -0.6937   8.4096  10.1643

     occupation numbers 
     1.0000   1.0000   1.0000   1.0524   0.0001   0.0000   0.0000   0.0000

          k = 0.1667-0.6987 0.0000 (  2727 PWs)   bands (ev):

   -15.5643 -12.6800 -10.6752  -3.1005  -1.3309  -0.6440   8.4103   9.0029

     occupation numbers 
     1.0000   1.0000   1.0000   1.0042   0.0000   0.0000   0.0000   0.0000

          k = 0.1667-0.6352 0.0000 (  2731 PWs)   bands (ev):

   -16.0742 -12.3436 -10.2383  -3.8231  -0.6656  -0.4966   7.7533   8.1031

     occupation numbers 
     1.0000   1.0000   1.0000   1.0000   0.0000   0.0000   0.0000   0.0000

          k = 0.1667-0.5717 0.0000 (  2712 PWs)   bands (ev):

   -16.6848 -11.9609  -9.5843  -4.5655  -0.2564   0.0056   6.5981   7.2408

     occupation numbers 
     1.0000   1.0000   1.0000   1.0000   0.0000   0.0000   0.0000   0.0000

          k = 0.1667-0.5082 0.0000 (  2700 PWs)   bands (ev):

   -17.3024 -11.5460  -8.8132  -5.2819   0.0658   0.6650   5.5543   6.2780

     occupation numbers 
     1.0000   1.0000   1.0000   1.0000   0.0000   0.0000   0.0000   0.0000

          k = 0.1667-0.4447 0.0000 (  2702 PWs)   bands (ev):

   -17.8848 -11.0821  -8.0134  -5.9491   0.4491   1.3159   4.6282   5.3860

     occupation numbers 
     1.0000   1.0000   1.0000   1.0000   0.0000   0.0000   0.0000   0.0000

          k = 0.1667-0.3811 0.0000 (  2702 PWs)   bands (ev):

   -18.4107 -10.5592  -7.2550  -6.5507   0.8581   1.9597   3.8229   4.6044

     occupation numbers 
     1.0000   1.0000   1.0000   1.0000   0.0000   0.0000   0.0000   0.0000

          k = 0.1667-0.3176 0.0000 (  2707 PWs)   bands (ev):

   -18.8681  -9.9768  -7.0750  -6.6011   1.2443   2.5787   3.1393   3.9588

     occupation numbers 
     1.0000   1.0000   1.0000   1.0000   0.0000   0.0000   0.0000   0.0000

          k = 0.1667-0.2541 0.0000 (  2705 PWs)   bands (ev):

   -19.2494  -9.3423  -7.5136  -6.1139   1.5657   2.5779   3.0144   3.5980

     occupation numbers 
     1.0000   1.0000   1.0000   1.0000   0.0000   0.0000   0.0000   0.0000

          k = 0.1667-0.1906 0.0000 (  2694 PWs)   bands (ev):

   -19.5500  -8.6714  -7.8602  -5.8516   1.8224   2.1430   2.8217   3.1619

     occupation numbers 
     1.0000   1.0000   1.0000   1.0000   0.0000   0.0000   0.0000   0.0000

          k = 0.2083-0.1588 0.0000 (  2691 PWs)   bands (ev):

   -19.5032  -8.9149  -7.8134  -6.0189   2.1704   2.4987   2.8828   3.2366

     occupation numbers 
     1.0000   1.0000   1.0000   1.0000   0.0000   0.0000   0.0000   0.0000

          k = 0.2083-0.0953 0.0000 (  2691 PWs)   bands (ev):

   -19.6754  -8.2118  -8.0109  -6.2959   1.9301   2.6758   2.7687   3.0432

     occupation numbers 
     1.0000   1.0000   1.0000   1.0000   0.0000   0.0000   0.0000   0.0000

          k = 0.2083-0.0318 0.0000 (  2696 PWs)   bands (ev):

   -19.7619  -8.1102  -7.5746  -6.7330   1.8052   2.5615   2.7944   3.3269

     occupation numbers 
     1.0000   1.0000   1.0000   1.0000   0.0000   0.0000   0.0000   0.0000

          k = 0.2083 0.0318 0.0000 (  2696 PWs)   bands (ev):

   -19.7619  -8.1102  -7.5778  -6.7294   1.8052   2.5615   2.7941   3.3240

     occupation numbers 
     1.0000   1.0000   1.0000   1.0000   0.0000   0.0000   0.0000   0.0000

          k = 0.2083 0.0953 0.0000 (  2691 PWs)   bands (ev):

   -19.6754  -8.2157  -8.0108  -6.2910   1.9300   2.6758   2.7658   3.0426

     occupation numbers 
     1.0000   1.0000   1.0000   1.0000   0.0000   0.0000   0.0000   0.0000

          k = 0.2083 0.1588 0.0000 (  2691 PWs)   bands (ev):

   -19.5032  -8.9186  -7.8132  -6.0136   2.1698   2.4953   2.8828   3.2367

     occupation numbers 
     1.0000   1.0000   1.0000   1.0000   0.0000   0.0000   0.0000   0.0000

          k = 0.2083 0.2223 0.0000 (  2701 PWs)   bands (ev):

   -19.2472  -9.6117  -7.5201  -5.9971   2.1984   2.5912   2.9451   3.5410

     occupation numbers 
     1.0000   1.0000   1.0000   1.0000   0.0000   0.0000   0.0000   0.0000

          k = 0.2083 0.2859 0.0000 (  2705 PWs)   bands (ev):

   -18.9103 -10.2651  -7.1355  -6.2605   1.9606   2.4681   3.0828   3.9029

     occupation numbers 
     1.0000   1.0000   1.0000   1.0000   0.0000   0.0000   0.0000   0.0000

          k = 0.2083 0.3494 0.0000 (  2701 PWs)   bands (ev):

   -18.4973 -10.8601  -6.7670  -6.6656   1.6619   1.8681   3.7051   4.4943

     occupation numbers 
     1.0000   1.0000   1.0000   1.0000   0.0000   0.0000   0.0000   0.0000

          k = 0.2083 0.4129 0.0000 (  2707 PWs)   bands (ev):

   -18.0156 -11.3843  -7.4522  -6.1194   1.2587   1.3108   4.4496   5.2195

     occupation numbers 
     1.0000   1.0000   1.0000   1.0000   0.0000   0.0000   0.0000   0.0000

          k = 0.2083 0.4764 0.0000 (  2702 PWs)   bands (ev):

   -17.4770 -11.8281  -8.2468  -5.5089   0.6609   0.9503   5.3148   6.0593

     occupation numbers 
     1.0000   1.0000   1.0000   1.0000   0.0000   0.0000   0.0000   0.0000

          k = 0.2083 0.5399 0.0000 (  2723 PWs)   bands (ev):

   -16.9022 -12.1840  -9.0842  -4.8521   0.0776   0.6242   6.2985   6.9858

     occupation numbers 
     1.0000   1.0000   1.0000   1.0000   0.0000   0.0000   0.0000   0.0000

          k = 0.2083-0.9211 0.0000 (  2737 PWs)   bands (ev):

   -16.3280 -12.4444  -9.8941  -4.1750  -0.4937   0.3621   7.3958   7.8792

     occupation numbers 
     1.0000   1.0000   1.0000   1.0000   0.0000   0.0000   0.0000   0.0000

          k = 0.2083-0.8576 0.0000 (  2736 PWs)   bands (ev):

   -15.8246 -12.6031 -10.5843  -3.5233  -1.0438   0.1808   8.2478   8.5941

     occupation numbers 
     1.0000   1.0000   1.0000   1.0000   0.0000   0.0000   0.0000   0.0000

          k = 0.2083-0.7940 0.0000 (  2736 PWs)   bands (ev):

   -15.5108 -12.6661 -11.0122  -3.0214  -1.4838   0.0885   8.1736   9.8477

     occupation numbers 
     1.0000   1.0000   1.0000   1.0119   0.0000   0.0000   0.0000   0.0000

          k = 0.2083-0.7305 0.0000 (  2736 PWs)   bands (ev):

   -15.5111 -12.6645 -11.0136  -3.0222  -1.4828   0.0886   8.1732   9.8479

     occupation numbers 
     1.0000   1.0000   1.0000   1.0118   0.0000   0.0000   0.0000   0.0000

          k = 0.2083-0.6670 0.0000 (  2736 PWs)   bands (ev):

   -15.8252 -12.5997 -10.5875  -3.5246  -1.0420   0.1813   8.2470   8.5941

     occupation numbers 
     1.0000   1.0000   1.0000   1.0000   0.0000   0.0000   0.0000   0.0000

          k = 0.2083-0.6035 0.0000 (  2737 PWs)   bands (ev):

   -16.3286 -12.4406  -9.8979  -4.1762  -0.4916   0.3629   7.3959   7.8788

     occupation numbers 
     1.0000   1.0000   1.0000   1.0000   0.0000   0.0000   0.0000   0.0000

          k = 0.2083-0.5399 0.0000 (  2723 PWs)   bands (ev):

   -16.9026 -12.1803  -9.0883  -4.8531   0.0797   0.6254   6.2986   6.9857

     occupation numbers 
     1.0000   1.0000   1.0000   1.0000   0.0000   0.0000   0.0000   0.0000

          k = 0.2083-0.4764 0.0000 (  2702 PWs)   bands (ev):

   -17.4773 -11.8246  -8.2511  -5.5097   0.6629   0.9520   5.3148   6.0593

     occupation numbers 
     1.0000   1.0000   1.0000   1.0000   0.0000   0.0000   0.0000   0.0000

          k = 0.2083-0.4129 0.0000 (  2707 PWs)   bands (ev):

   -18.0158 -11.3809  -7.4568  -6.1200   1.2606   1.3129   4.4496   5.2195

     occupation numbers 
     1.0000   1.0000   1.0000   1.0000   0.0000   0.0000   0.0000   0.0000

          k = 0.2083-0.3494 0.0000 (  2701 PWs)   bands (ev):

   -18.4975 -10.8567  -6.7719  -6.6662   1.6647   1.8697   3.7051   4.4943

     occupation numbers 
     1.0000   1.0000   1.0000   1.0000   0.0000   0.0000   0.0000   0.0000

          k = 0.2083-0.2859 0.0000 (  2705 PWs)   bands (ev):

   -18.9104 -10.2617  -7.1359  -6.2657   1.9641   2.4694   3.0828   3.9030

     occupation numbers 
     1.0000   1.0000   1.0000   1.0000   0.0000   0.0000   0.0000   0.0000

          k = 0.2083-0.2223 0.0000 (  2701 PWs)   bands (ev):

   -19.2472  -9.6082  -7.5204  -6.0024   2.2023   2.5912   2.9457   3.5406

     occupation numbers 
     1.0000   1.0000   1.0000   1.0000   0.0000   0.0000   0.0000   0.0000

          k = 0.2500-0.1906 0.0000 (  2704 PWs)   bands (ev):

   -19.1869  -9.8543  -7.4603  -6.1730   2.6012   2.8421   2.9108   3.5446

     occupation numbers 
     1.0000   1.0000   1.0000   1.0000   0.0000   0.0000   0.0000   0.0000

          k = 0.2500-0.1270 0.0000 (  2695 PWs)   bands (ev):

   -19.3981  -9.1358  -7.6995  -6.4663   2.3205   3.0092   3.1272   3.4676

     occupation numbers 
     1.0000   1.0000   1.0000   1.0000   0.0000   0.0000   0.0000   0.0000

          k = 0.2500-0.0635 0.0000 (  2695 PWs)   bands (ev):

   -19.5258  -8.4098  -7.8445  -6.9669   2.1368   2.8900   3.1218   3.6897

     occupation numbers 
     1.0000   1.0000   1.0000   1.0000   0.0000   0.0000   0.0000   0.0000

          k = 0.2500-0.0000 0.0000 (  2692 PWs)   bands (ev):

   -19.5685  -7.8931  -7.8720  -7.4353   2.0749   2.8380   3.0752   4.0235

     occupation numbers 
     1.0000   1.0000   1.0000   1.0000   0.0000   0.0000   0.0000   0.0000

          k = 0.2500 0.0635 0.0000 (  2695 PWs)   bands (ev):

   -19.5258  -8.4134  -7.8444  -6.9627   2.1367   2.8901   3.1214   3.6872

     occupation numbers 
     1.0000   1.0000   1.0000   1.0000   0.0000   0.0000   0.0000   0.0000

          k = 0.2500 0.1270 0.0000 (  2695 PWs)   bands (ev):

   -19.3980  -9.1394  -7.6993  -6.4616   2.3203   3.0092   3.1245   3.4671

     occupation numbers 
     1.0000   1.0000   1.0000   1.0000   0.0000   0.0000   0.0000   0.0000

          k = 0.2500 0.1906 0.0000 (  2704 PWs)   bands (ev):

   -19.1869  -9.8577  -7.4600  -6.1680   2.6001   2.8413   2.9080   3.5444

     occupation numbers 
     1.0000   1.0000   1.0000   1.0000   0.0000   0.0000   0.0000   0.0000

          k = 0.2500 0.2541 0.0000 (  2709 PWs)   bands (ev):

   -18.8952 -10.5349  -7.1305  -6.1530   2.3127   2.6028   3.1225   3.9214

     occupation numbers 
     1.0000   1.0000   1.0000   1.0000   0.0000   0.0000   0.0000   0.0000

          k = 0.2500 0.3176 0.0000 (  2700 PWs)   bands (ev):

   -18.5278 -11.1507  -6.7170  -6.4324   1.7225   2.4066   3.6719   4.4630

     occupation numbers 
     1.0000   1.0000   1.0000   1.0000   0.0000   0.0000   0.0000   0.0000

          k = 0.2500 0.3811 0.0000 (  2692 PWs)   bands (ev):

   -18.0922 -11.6895  -6.9655  -6.2289   1.1369   2.1522   4.3543   5.1330

     occupation numbers 
     1.0000   1.0000   1.0000   1.0000   0.0000   0.0000   0.0000   0.0000

          k = 0.2500 0.4447 0.0000 (  2712 PWs)   bands (ev):

   -17.6009 -12.1369  -7.6814  -5.6798   0.5802   1.8507   5.1585   5.9199

     occupation numbers 
     1.0000   1.0000   1.0000   1.0000   0.0000   0.0000   0.0000   0.0000

          k = 0.2500 0.5082 0.0000 (  2714 PWs)   bands (ev):

   -17.0749 -12.4758  -8.5058  -5.0890   0.0633   1.5458   6.0817   7.1364

     occupation numbers 
     1.0000   1.0000   1.0000   1.0000   0.0000   0.0000   0.0000   0.0000

          k = 0.2500-0.9528 0.0000 (  2723 PWs)   bands (ev):

   -16.5502 -12.6827  -9.3704  -4.4858  -0.4106   1.2780   7.1198   7.7128

     occupation numbers 
     1.0000   1.0000   1.0000   1.0000   0.0000   0.0000   0.0000   0.0000

          k = 0.2500-0.8893 0.0000 (  2739 PWs)   bands (ev):

   -16.0867 -12.7267 -10.2063  -3.9157  -0.8355   1.0734   8.1995   8.2624

     occupation numbers 
     1.0000   1.0000   1.0000   1.0000   0.0000   0.0000   0.0000   0.0000

          k = 0.2500-0.8258 0.0000 (  2742 PWs)   bands (ev):

   -15.7644 -12.6010 -10.9141  -3.4609  -1.1757   0.9463   8.0495   9.4706

     occupation numbers 
     1.0000   1.0000   1.0000   1.0000   0.0000   0.0000   0.0000   0.0000

          k = 0.2500-0.7623 0.0000 (  2732 PWs)   bands (ev):

   -15.6496 -12.4700 -11.2480  -3.2717  -1.3211   0.9034   7.9456   9.9439

     occupation numbers 
     1.0000   1.0000   1.0000   1.0002   0.0000   0.0000   0.0000   0.0000

          k = 0.2500-0.6987 0.0000 (  2742 PWs)   bands (ev):

   -15.7649 -12.5978 -10.9170  -3.4620  -1.1742   0.9467   8.0489   9.4707

     occupation numbers 
     1.0000   1.0000   1.0000   1.0000   0.0000   0.0000   0.0000   0.0000

          k = 0.2500-0.6352 0.0000 (  2739 PWs)   bands (ev):

   -16.0874 -12.7229 -10.2099  -3.9171  -0.8332   1.0742   8.1986   8.2625

     occupation numbers 
     1.0000   1.0000   1.0000   1.0000   0.0000   0.0000   0.0000   0.0000

          k = 0.2500-0.5717 0.0000 (  2723 PWs)   bands (ev):

   -16.5509 -12.6790  -9.3742  -4.4871  -0.4081   1.2792   7.1199   7.7125

     occupation numbers 
     1.0000   1.0000   1.0000   1.0000   0.0000   0.0000   0.0000   0.0000

          k = 0.2500-0.5082 0.0000 (  2714 PWs)   bands (ev):

   -17.0753 -12.4723  -8.5098  -5.0902   0.0657   1.5475   6.0818   6.8043

     occupation numbers 
     1.0000   1.0000   1.0000   1.0000   0.0000   0.0000   0.0000   0.0000

          k = 0.2500-0.4447 0.0000 (  2712 PWs)   bands (ev):

   -17.6012 -12.1335  -7.6857  -5.6808   0.5824   1.8529   5.1585   5.9194

     occupation numbers 
     1.0000   1.0000   1.0000   1.0000   0.0000   0.0000   0.0000   0.0000

          k = 0.2500-0.3811 0.0000 (  2692 PWs)   bands (ev):

   -18.0924 -11.6862  -6.9700  -6.2297   1.1389   2.1552   4.3542   5.1329

     occupation numbers 
     1.0000   1.0000   1.0000   1.0000   0.0000   0.0000   0.0000   0.0000

          k = 0.2500-0.3176 0.0000 (  2700 PWs)   bands (ev):

   -18.5279 -11.1474  -6.7176  -6.4373   1.7242   2.4102   3.6718   4.4631

     occupation numbers 
     1.0000   1.0000   1.0000   1.0000   0.0000   0.0000   0.0000   0.0000

          k = 0.2500-0.2541 0.0000 (  2709 PWs)   bands (ev):

   -18.8953 -10.5316  -7.1310  -6.1580   2.3141   2.6068   3.1225   3.9216

     occupation numbers 
     1.0000   1.0000   1.0000   1.0000   0.0000   0.0000   0.0000   0.0000

          k = 0.2917-0.2223 0.0000 (  2705 PWs)   bands (ev):

   -18.8232 -10.7728  -7.0601  -6.3106   2.1271   3.0530   3.3644   4.0185

     occupation numbers 
     1.0000   1.0000   1.0000   1.0000   0.0000   0.0000   0.0000   0.0000

          k = 0.2917-0.1588 0.0000 (  2703 PWs)   bands (ev):

   -19.0692 -10.0691  -7.3339  -6.6029   2.6704   2.7844   3.4908   3.6543

     occupation numbers 
     1.0000   1.0000   1.0000   1.0000   0.0000   0.0000   0.0000   0.0000

          k = 0.2917-0.0953 0.0000 (  2703 PWs)   bands (ev):

   -19.2355  -9.3244  -7.5198  -7.1217   2.5482   3.0843   3.4446   3.5163

     occupation numbers 
     1.0000   1.0000   1.0000   1.0000   0.0000   0.0000   0.0000   0.0000

          k = 0.2917-0.0318 0.0000 (  2689 PWs)   bands (ev):

   -19.3193  -8.5814  -7.7688  -7.6135   2.4269   3.1845   3.4285   3.4858

     occupation numbers 
     1.0000   1.0000   1.0000   1.0000   0.0000   0.0000   0.0000   0.0000

          k = 0.2917 0.0318 0.0000 (  2689 PWs)   bands (ev):

   -19.3193  -8.5848  -7.7651  -7.6134   2.4268   3.1846   3.4283   3.4855

     occupation numbers 
     1.0000   1.0000   1.0000   1.0000   0.0000   0.0000   0.0000   0.0000

          k = 0.2917 0.0953 0.0000 (  2703 PWs)   bands (ev):

   -19.2355  -9.3278  -7.5196  -7.1175   2.5481   3.0840   3.4441   3.5156

     occupation numbers 
     1.0000   1.0000   1.0000   1.0000   0.0000   0.0000   0.0000   0.0000

          k = 0.2917 0.1588 0.0000 (  2703 PWs)   bands (ev):

   -19.0691 -10.0724  -7.3336  -6.5984   2.6694   2.7840   3.4881   3.6540

     occupation numbers 
     1.0000   1.0000   1.0000   1.0000   0.0000   0.0000   0.0000   0.0000

          k = 0.2917 0.2223 0.0000 (  2705 PWs)   bands (ev):

   -18.8231 -10.7760  -7.0596  -6.3059   2.1256   3.0507   3.3629   4.0183

     occupation numbers 
     1.0000   1.0000   1.0000   1.0000   0.0000   0.0000   0.0000   0.0000

          k = 0.2917 0.2859 0.0000 (  2711 PWs)   bands (ev):

   -18.5021 -11.4167  -6.7039  -6.3066   1.5444   3.0028   3.7345   4.5107

     occupation numbers 
     1.0000   1.0000   1.0000   1.0000   0.0000   0.0000   0.0000   0.0000

          k = 0.2917 0.3494 0.0000 (  2712 PWs)   bands (ev):

   -18.1144 -11.9768  -6.6117  -6.2765   0.9754   2.8669   4.3435   5.1256

     occupation numbers 
     1.0000   1.0000   1.0000   1.0000   0.0000   0.0000   0.0000   0.0000

          k = 0.2917 0.4129 0.0000 (  2713 PWs)   bands (ev):

   -17.6734 -12.4383  -7.1742  -5.7925   0.4493   2.6768   5.0850   5.8580

     occupation numbers 
     1.0000   1.0000   1.0000   1.0000   0.0000   0.0000   0.0000   0.0000

          k = 0.2917 0.4764 0.0000 (  2713 PWs)   bands (ev):

   -17.2015 -12.7786  -7.9175  -5.2734  -0.0138   2.4385   5.9474   6.6965

     occupation numbers 
     1.0000   1.0000   1.0000   1.0000   0.0000   0.0000   0.0000   0.0000

          k = 0.2917-0.9846 0.0000 (  2724 PWs)   bands (ev):

   -16.7363 -12.9651  -8.7641  -4.7514  -0.4012   2.1948   6.9254   7.5976

     occupation numbers 
     1.0000   1.0000   1.0000   1.0000   0.0000   0.0000   0.0000   0.0000

          k = 0.2917-0.9211 0.0000 (  2735 PWs)   bands (ev):

   -16.3335 -12.9548  -9.6460  -4.2711  -0.7045   1.9857   8.0095   8.2271

     occupation numbers 
     1.0000   1.0000   1.0000   1.0000   0.0000   0.0000   0.0000   0.0000

          k = 0.2917-0.8576 0.0000 (  2743 PWs)   bands (ev):

   -16.0508 -12.7188 -10.4962  -3.8915  -0.9159   1.8361   8.0325   9.0830

     occupation numbers 
     1.0000   1.0000   1.0000   1.0000   0.0000   0.0000   0.0000   0.0000

          k = 0.2917-0.7940 0.0000 (  2746 PWs)   bands (ev):

   -15.9131 -12.3335 -11.1907  -3.6781  -1.0258   1.7586   7.7966   9.0503

     occupation numbers 
     1.0000   1.0000   1.0000   1.0000   0.0000   0.0000   0.0000   0.0000

          k = 0.2917-0.7305 0.0000 (  2746 PWs)   bands (ev):

   -15.9134 -12.3310 -11.1930  -3.6786  -1.0251   1.7588   7.7963   9.0503

     occupation numbers 
     1.0000   1.0000   1.0000   1.0000   0.0000   0.0000   0.0000   0.0000

          k = 0.2917-0.6670 0.0000 (  2743 PWs)   bands (ev):

   -16.0514 -12.7151 -10.4996  -3.8928  -0.9139   1.8368   8.0318   9.0827

     occupation numbers 
     1.0000   1.0000   1.0000   1.0000   0.0000   0.0000   0.0000   0.0000

          k = 0.2917-0.6035 0.0000 (  2735 PWs)   bands (ev):

   -16.3343 -12.9510  -9.6496  -4.2726  -0.7019   1.9869   8.0095   8.2264

     occupation numbers 
     1.0000   1.0000   1.0000   1.0000   0.0000   0.0000   0.0000   0.0000

          k = 0.2917-0.5399 0.0000 (  2724 PWs)   bands (ev):

   -16.7370 -12.9615  -8.7679  -4.7529  -0.3985   2.1965   6.9254   7.5974

     occupation numbers 
     1.0000   1.0000   1.0000   1.0000   0.0000   0.0000   0.0000   0.0000

          k = 0.2917-0.4764 0.0000 (  2713 PWs)   bands (ev):

   -17.2020 -12.7752  -7.9215  -5.2747  -0.0111   2.4408   5.9474   6.6965

     occupation numbers 
     1.0000   1.0000   1.0000   1.0000   0.0000   0.0000   0.0000   0.0000

          k = 0.2917-0.4129 0.0000 (  2713 PWs)   bands (ev):

   -17.6737 -12.4351  -7.1785  -5.7935   0.4517   2.6799   5.0850   5.8580

     occupation numbers 
     1.0000   1.0000   1.0000   1.0000   0.0000   0.0000   0.0000   0.0000

          k = 0.2917-0.3494 0.0000 (  2712 PWs)   bands (ev):

   -18.1147 -11.9737  -6.6162  -6.2774   0.9776   2.8706   4.3435   5.1258

     occupation numbers 
     1.0000   1.0000   1.0000   1.0000   0.0000   0.0000   0.0000   0.0000

          k = 0.2917-0.2859 0.0000 (  2711 PWs)   bands (ev):

   -18.5023 -11.4136  -6.7046  -6.3113   1.5463   3.0068   3.7344   4.5107

     occupation numbers 
     1.0000   1.0000   1.0000   1.0000   0.0000   0.0000   0.0000   0.0000

          k = 0.3333-0.2541 0.0000 (  2708 PWs)   bands (ev):

   -18.4214 -11.6436  -6.6272  -6.4293   1.3522   3.4298   3.9284   4.6378

     occupation numbers 
     1.0000   1.0000   1.0000   1.0000   0.0000   0.0000   0.0000   0.0000

          k = 0.3333-0.1906 0.0000 (  2711 PWs)   bands (ev):

   -18.6950 -10.9760  -6.9241  -6.7089   1.9158   3.2957   3.8460   4.1963

     occupation numbers 
     1.0000   1.0000   1.0000   1.0000   0.0000   0.0000   0.0000   0.0000

          k = 0.3333-0.1270 0.0000 (  2711 PWs)   bands (ev):

   -18.8953 -10.2447  -7.2305  -7.1428   2.4321   3.0317   3.8712   3.9437

     occupation numbers 
     1.0000   1.0000   1.0000   1.0000   0.0000   0.0000   0.0000   0.0000

          k = 0.3333-0.0635 0.0000 (  2704 PWs)   bands (ev):

   -19.0172  -9.4741  -7.9065  -7.2764   2.8227   2.8564   3.6584   3.8508

     occupation numbers 
     1.0000   1.0000   1.0000   1.0000   0.0000   0.0000   0.0000   0.0000

          k = 0.3333-0.0000 0.0000 (  2706 PWs)   bands (ev):

   -19.0582  -8.7992  -8.5554  -7.3212   2.7968   2.9805   3.5742   3.8022

     occupation numbers 
     1.0000   1.0000   1.0000   1.0000   0.0000   0.0000   0.0000   0.0000

          k = 0.3333 0.0635 0.0000 (  2704 PWs)   bands (ev):

   -19.0172  -9.4774  -7.9027  -7.2762   2.8222   2.8563   3.6583   3.8505

     occupation numbers 
     1.0000   1.0000   1.0000   1.0000   0.0000   0.0000   0.0000   0.0000

          k = 0.3333 0.1270 0.0000 (  2711 PWs)   bands (ev):

   -18.8953 -10.2479  -7.2264  -7.1425   2.4310   3.0315   3.8711   3.9425

     occupation numbers 
     1.0000   1.0000   1.0000   1.0000   0.0000   0.0000   0.0000   0.0000

          k = 0.3333 0.1906 0.0000 (  2711 PWs)   bands (ev):

   -18.6949 -10.9790  -6.9236  -6.7046   1.9143   3.2949   3.8436   4.1962

     occupation numbers 
     1.0000   1.0000   1.0000   1.0000   0.0000   0.0000   0.0000   0.0000

          k = 0.3333 0.2541 0.0000 (  2708 PWs)   bands (ev):

   -18.4212 -11.6466  -6.6265  -6.4248   1.3504   3.4264   3.9280   4.6377

     occupation numbers 
     1.0000   1.0000   1.0000   1.0000   0.0000   0.0000   0.0000   0.0000

          k = 0.3333 0.3176 0.0000 (  2718 PWs)   bands (ev):

   -18.0830 -12.2308  -6.4504  -6.2619   0.7966   3.3657   4.4260   5.1979

     occupation numbers 
     1.0000   1.0000   1.0000   1.0000   0.0000   0.0000   0.0000   0.0000

          k = 0.3333 0.3811 0.0000 (  2712 PWs)   bands (ev):

   -17.6949 -12.7108  -6.7863  -5.8463   0.2944   3.3043   5.0954   5.8753

     occupation numbers 
     1.0000   1.0000   1.0000   1.0000   0.0000   0.0000   0.0000   0.0000

          k = 0.3333 0.4447 0.0000 (  2711 PWs)   bands (ev):

   -17.2822 -13.0590  -7.3779  -5.4043  -0.1257   3.1960   5.8943   6.6635

     occupation numbers 
     1.0000   1.0000   1.0000   1.0000   0.0000   0.0000   0.0000   0.0000

          k = 0.3333-1.0164 0.0000 (  2716 PWs)   bands (ev):

   -16.8852 -13.2367  -8.1437  -4.9699  -0.4401   3.0328   6.8114   7.5380

     occupation numbers 
     1.0000   1.0000   1.0000   1.0000   0.0000   0.0000   0.0000   0.0000

          k = 0.3333-0.9528 0.0000 (  2724 PWs)   bands (ev):

   -16.5577 -13.1961  -9.0051  -4.5860  -0.6349   2.8557   7.8333   8.2729

     occupation numbers 
     1.0000   1.0000   1.0000   1.0000   0.0000   0.0000   0.0000   0.0000

          k = 0.3333-0.8893 0.0000 (  2737 PWs)   bands (ev):

   -16.3410 -12.9086  -9.8955  -4.2939  -0.7170   2.7055   8.0365   8.3929

     occupation numbers 
     1.0000   1.0000   1.0000   1.0000   0.0000   0.0000   0.0000   0.0000

          k = 0.3333-0.8258 0.0000 (  2733 PWs)   bands (ev):

   -16.2324 -12.4084 -10.7488  -4.1177  -0.7252   2.6075   7.6881   8.2268

     occupation numbers 
     1.0000   1.0000   1.0000   1.0000   0.0000   0.0000   0.0000   0.0000

          k = 0.3333-0.7623 0.0000 (  2738 PWs)   bands (ev):

   -16.2016 -11.9583 -11.3133  -4.0603  -0.7179   2.5737   7.5541   8.1681

     occupation numbers 
     1.0000   1.0000   1.0000   1.0000   0.0000   0.0000   0.0000   0.0000

          k = 0.3333-0.6987 0.0000 (  2733 PWs)   bands (ev):

   -16.2328 -12.4050 -10.7520  -4.1185  -0.7239   2.6080   7.6877   8.2269

     occupation numbers 
     1.0000   1.0000   1.0000   1.0000   0.0000   0.0000   0.0000   0.0000

          k = 0.3333-0.6352 0.0000 (  2737 PWs)   bands (ev):

   -16.3417 -12.9049  -9.8990  -4.2952  -0.7147   2.7066   8.0359   8.3929

     occupation numbers 
     1.0000   1.0000   1.0000   1.0000   0.0000   0.0000   0.0000   0.0000

          k = 0.3333-0.5717 0.0000 (  2724 PWs)   bands (ev):

   -16.5586 -13.1924  -9.0087  -4.5876  -0.6321   2.8575   7.8334   8.2725

     occupation numbers 
     1.0000   1.0000   1.0000   1.0000   0.0000   0.0000   0.0000   0.0000

          k = 0.3333-0.5082 0.0000 (  2716 PWs)   bands (ev):

   -16.8860 -13.2332  -8.1475  -4.9715  -0.4372   3.0353   6.8114   7.5379

     occupation numbers 
     1.0000   1.0000   1.0000   1.0000   0.0000   0.0000   0.0000   0.0000

          k = 0.3333-0.4447 0.0000 (  2711 PWs)   bands (ev):

   -17.2828 -13.0557  -7.3820  -5.4056  -0.1229   3.1993   5.8943   6.9461

     occupation numbers 
     1.0000   1.0000   1.0000   1.0000   0.0000   0.0000   0.0000   0.0000

          k = 0.3333-0.3811 0.0000 (  2712 PWs)   bands (ev):

   -17.6953 -12.7076  -6.7906  -5.8475   0.2969   3.3081   5.0953   5.8755

     occupation numbers 
     1.0000   1.0000   1.0000   1.0000   0.0000   0.0000   0.0000   0.0000

          k = 0.3333-0.3176 0.0000 (  2718 PWs)   bands (ev):

   -18.0832 -12.2278  -6.4549  -6.2628   0.7989   3.3696   4.4259   5.1979

     occupation numbers 
     1.0000   1.0000   1.0000   1.0000   0.0000   0.0000   0.0000   0.0000

          k = 0.3750-0.2859 0.0000 (  2722 PWs)   bands (ev):

   -17.9993 -12.4385  -6.5254  -6.1864   0.6179   3.7006   4.6121   5.3494

     occupation numbers 
     1.0000   1.0000   1.0000   1.0000   0.0000   0.0000   0.0000   0.0000

          k = 0.3750-0.2223 0.0000 (  2705 PWs)   bands (ev):

   -18.2865 -11.8293  -6.7841  -6.4865   1.1514   3.7452   4.2731   4.8440

     occupation numbers 
     1.0000   1.0000   1.0000   1.0000   0.0000   0.0000   0.0000   0.0000

          k = 0.3750-0.1588 0.0000 (  2709 PWs)   bands (ev):

   -18.5124 -11.1345  -7.2995  -6.7247   1.6830   3.5618   4.3291   4.4554

     occupation numbers 
     1.0000   1.0000   1.0000   1.0000   0.0000   0.0000   0.0000   0.0000

          k = 0.3750-0.0953 0.0000 (  2712 PWs)   bands (ev):

   -18.6673 -10.3759  -7.9848  -6.8892   2.1369   3.3524   4.1834   4.3167

     occupation numbers 
     1.0000   1.0000   1.0000   1.0000   0.0000   0.0000   0.0000   0.0000

          k = 0.3750-0.0318 0.0000 (  2714 PWs)   bands (ev):

   -18.7458  -9.5809  -8.7575  -6.9730   2.4116   3.2389   4.0365   4.2395

     occupation numbers 
     1.0000   1.0000   1.0000   1.0000   0.0000   0.0000   0.0000   0.0000

          k = 0.3750 0.0318 0.0000 (  2714 PWs)   bands (ev):

   -18.7458  -9.5841  -8.7541  -6.9729   2.4113   3.2389   4.0365   4.2394

     occupation numbers 
     1.0000   1.0000   1.0000   1.0000   0.0000   0.0000   0.0000   0.0000

          k = 0.3750 0.0953 0.0000 (  2712 PWs)   bands (ev):

   -18.6672 -10.3790  -7.9812  -6.8889   2.1360   3.3522   4.1833   4.3162

     occupation numbers 
     1.0000   1.0000   1.0000   1.0000   0.0000   0.0000   0.0000   0.0000

          k = 0.3750 0.1588 0.0000 (  2709 PWs)   bands (ev):

   -18.5123 -11.1375  -7.2956  -6.7242   1.6816   3.5612   4.3274   4.4553

     occupation numbers 
     1.0000   1.0000   1.0000   1.0000   0.0000   0.0000   0.0000   0.0000

          k = 0.3750 0.2223 0.0000 (  2705 PWs)   bands (ev):

   -18.2863 -11.8323  -6.7799  -6.4858   1.1495   3.7430   4.2721   4.8440

     occupation numbers 
     1.0000   1.0000   1.0000   1.0000   0.0000   0.0000   0.0000   0.0000

          k = 0.3750 0.2859 0.0000 (  2722 PWs)   bands (ev):

   -17.9990 -12.4415  -6.5211  -6.1854   0.6156   3.6970   4.6121   5.3493

     occupation numbers 
     1.0000   1.0000   1.0000   1.0000   0.0000   0.0000   0.0000   0.0000

          k = 0.3750 0.3494 0.0000 (  2720 PWs)   bands (ev):

   -17.6669 -12.9407  -6.5778  -5.8415   0.1356   3.6644   5.1955   5.9713

     occupation numbers 
     1.0000   1.0000   1.0000   1.0000   0.0000   0.0000   0.0000   0.0000

          k = 0.3750 0.4129 0.0000 (  2719 PWs)   bands (ev):

   -17.3185 -13.2981  -6.9468  -5.4812  -0.2478   3.6833   5.9229   6.7067

     occupation numbers 
     1.0000   1.0000   1.0000   1.0000   0.0000   0.0000   0.0000   0.0000

          k = 0.3750-1.0481 0.0000 (  2714 PWs)   bands (ev):

   -16.9980 -13.4688  -7.5652  -5.1403  -0.5005   3.6674   6.7736   7.5420

     occupation numbers 
     1.0000   1.0000   1.0000   1.0000   0.0000   0.0000   0.0000   0.0000

          k = 0.3750-0.9846 0.0000 (  2726 PWs)   bands (ev):

   -16.7566 -13.4046  -8.3481  -4.8577  -0.6035   3.5878   7.7115   8.0382

     occupation numbers 
     1.0000   1.0000   1.0000   1.0000   0.0000   0.0000   0.0000   0.0000

          k = 0.3750-0.9211 0.0000 (  2728 PWs)   bands (ev):

   -16.6199 -13.0867  -9.2171  -4.6592  -0.5701   3.4805   7.7121   7.8798

     occupation numbers 
     1.0000   1.0000   1.0000   1.0000   0.0000   0.0000   0.0000   0.0000

          k = 0.3750-0.8576 0.0000 (  2737 PWs)   bands (ev):

   -16.5655 -12.5511 -10.1085  -4.5451  -0.4620   3.3877   7.4901   7.4902

     occupation numbers 
     1.0000   1.0000   1.0000   1.0000   0.0000   0.0000   0.0000   0.0000

          k = 0.3750-0.7940 0.0000 (  2738 PWs)   bands (ev):

   -16.5517 -11.8813 -10.9501  -4.4964  -0.3716   3.3357   7.2618   7.3743

     occupation numbers 
     1.0000   1.0000   1.0000   1.0000   0.0000   0.0000   0.0000   0.0000

          k = 0.3750-0.7305 0.0000 (  2738 PWs)   bands (ev):

   -16.5518 -11.8784 -10.9530  -4.4967  -0.3710   3.3360   7.2617   7.3743

     occupation numbers 
     1.0000   1.0000   1.0000   1.0000   0.0000   0.0000   0.0000   0.0000

          k = 0.3750-0.6670 0.0000 (  2737 PWs)   bands (ev):

   -16.5660 -12.5478 -10.1118  -4.5460  -0.4603   3.3887   7.4898   7.4902

     occupation numbers 
     1.0000   1.0000   1.0000   1.0000   0.0000   0.0000   0.0000   0.0000

          k = 0.3750-0.6035 0.0000 (  2728 PWs)   bands (ev):

   -16.6207 -13.0832  -9.2205  -4.6606  -0.5676   3.4823   7.7122   7.8796

     occupation numbers 
     1.0000   1.0000   1.0000   1.0000   0.0000   0.0000   0.0000   0.0000

          k = 0.3750-0.5399 0.0000 (  2726 PWs)   bands (ev):

   -16.7575 -13.4010  -8.3517  -4.8593  -0.6005   3.5904   7.7113   8.0384

     occupation numbers 
     1.0000   1.0000   1.0000   1.0000   0.0000   0.0000   0.0000   0.0000

          k = 0.3750-0.4764 0.0000 (  2714 PWs)   bands (ev):

   -16.9988 -13.4654  -7.5691  -5.1420  -0.4974   3.6707   6.7735   7.5420

     occupation numbers 
     1.0000   1.0000   1.0000   1.0000   0.0000   0.0000   0.0000   0.0000

          k = 0.3750-0.4129 0.0000 (  2719 PWs)   bands (ev):

   -17.3191 -13.2948  -6.9509  -5.4827  -0.2449   3.6871   5.9228   6.7067

     occupation numbers 
     1.0000   1.0000   1.0000   1.0000   0.0000   0.0000   0.0000   0.0000

          k = 0.3750-0.3494 0.0000 (  2720 PWs)   bands (ev):

   -17.6673 -12.9376  -6.5821  -5.8428   0.1382   3.6682   5.1955   5.9713

     occupation numbers 
     1.0000   1.0000   1.0000   1.0000   0.0000   0.0000   0.0000   0.0000

          k = 0.4167-0.3176 0.0000 (  2717 PWs)   bands (ev):

   -17.5918 -13.1160  -6.5960  -5.7801  -0.0106   3.8813   5.3884   6.1456

     occupation numbers 
     1.0000   1.0000   1.0000   1.0000   0.0000   0.0000   0.0000   0.0000

          k = 0.4167-0.2541 0.0000 (  2719 PWs)   bands (ev):

   -17.8647 -12.5987  -6.8278  -6.0493   0.4431   3.9906   4.9037   5.5788

     occupation numbers 
     1.0000   1.0000   1.0000   1.0000   0.0000   0.0000   0.0000   0.0000

          k = 0.4167-0.1906 0.0000 (  2706 PWs)   bands (ev):

   -18.0997 -11.9655  -7.3302  -6.2841   0.9462   4.0350   4.7096   5.1279

     occupation numbers 
     1.0000   1.0000   1.0000   1.0000   0.0000   0.0000   0.0000   0.0000

          k = 0.4167-0.1270 0.0000 (  2716 PWs)   bands (ev):

   -18.2777 -11.2441  -8.0172  -6.4644   1.4261   3.8790   4.7517   4.7937

     occupation numbers 
     1.0000   1.0000   1.0000   1.0000   0.0000   0.0000   0.0000   0.0000

          k = 0.4167-0.0635 0.0000 (  2710 PWs)   bands (ev):

   -18.3880 -10.4589  -8.8063  -6.5771   1.7874   3.7332   4.5815   4.7086

     occupation numbers 
     1.0000   1.0000   1.0000   1.0000   0.0000   0.0000   0.0000   0.0000

          k = 0.4167-0.0000 0.0000 (  2710 PWs)   bands (ev):

   -18.4253  -9.6792  -9.5915  -6.6153   1.9250   3.6804   4.5070   4.6746

     occupation numbers 
     1.0000   1.0000   1.0000   1.0000   0.0000   0.0000   0.0000   0.0000

          k = 0.4167 0.0635 0.0000 (  2710 PWs)   bands (ev):

   -18.3880 -10.4619  -8.8029  -6.5768   1.7867   3.7330   4.5815   4.7083

     occupation numbers 
     1.0000   1.0000   1.0000   1.0000   0.0000   0.0000   0.0000   0.0000

          k = 0.4167 0.1270 0.0000 (  2716 PWs)   bands (ev):

   -18.2776 -11.2471  -8.0136  -6.4639   1.4247   3.8785   4.7506   4.7936

     occupation numbers 
     1.0000   1.0000   1.0000   1.0000   0.0000   0.0000   0.0000   0.0000

          k = 0.4167 0.1906 0.0000 (  2706 PWs)   bands (ev):

   -18.0995 -11.9684  -7.3264  -6.2834   0.9443   4.0334   4.7083   5.1278

     occupation numbers 
     1.0000   1.0000   1.0000   1.0000   0.0000   0.0000   0.0000   0.0000

          k = 0.4167 0.2541 0.0000 (  2719 PWs)   bands (ev):

   -17.8644 -12.6017  -6.8237  -6.0483   0.4408   3.9875   4.9035   5.5787

     occupation numbers 
     1.0000   1.0000   1.0000   1.0000   0.0000   0.0000   0.0000   0.0000

          k = 0.4167 0.3176 0.0000 (  2717 PWs)   bands (ev):

   -17.5912 -13.1191  -6.5918  -5.7788  -0.0133   3.8778   5.3885   6.1456

     occupation numbers 
     1.0000   1.0000   1.0000   1.0000   0.0000   0.0000   0.0000   0.0000

          k = 0.4167 0.3811 0.0000 (  2715 PWs)   bands (ev):

   -17.3127 -13.4832  -6.6836  -5.5046  -0.3615   3.8855   6.0368   6.8267

     occupation numbers 
     1.0000   1.0000   1.0000   1.0000   0.0000   0.0000   0.0000   0.0000

          k = 0.4167-1.0799 0.0000 (  2718 PWs)   bands (ev):

   -17.0764 -13.6446  -7.0854  -5.2622  -0.5599   3.9794   6.8069   7.5746

     occupation numbers 
     1.0000   1.0000   1.0000   1.0000   0.0000   0.0000   0.0000   0.0000

          k = 0.4167-1.0164 0.0000 (  2726 PWs)   bands (ev):

   -16.9287 -13.5578  -7.7269  -5.0842  -0.5861   4.0523   7.3571   7.7687

     occupation numbers 
     1.0000   1.0000   1.0000   1.0000   0.0000   0.0000   0.0000   0.0000

          k = 0.4167-0.9528 0.0000 (  2728 PWs)   bands (ev):

   -16.8784 -13.2184  -8.5212  -4.9822  -0.4574   4.0540   7.0970   7.5183

     occupation numbers 
     1.0000   1.0000   1.0000   1.0000   0.0000   0.0000   0.0000   0.0000

          k = 0.4167-0.8893 0.0000 (  2724 PWs)   bands (ev):

   -16.8889 -12.6711  -9.3918  -4.9407  -0.2419   4.0115   6.8415   7.1241

     occupation numbers 
     1.0000   1.0000   1.0000   1.0000   0.0000   0.0000   0.0000   0.0000

          k = 0.4167-0.8258 0.0000 (  2737 PWs)   bands (ev):

   -16.9146 -11.9765 -10.2777  -4.9315  -0.0430   3.9679   6.6784   6.8550

     occupation numbers 
     1.0000   1.0000   1.0000   1.0000   0.0000   0.0000   0.0000   0.0000

          k = 0.4167-0.7623 0.0000 (  2740 PWs)   bands (ev):

   -16.9264 -11.3045 -11.0131  -4.9314   0.0383   3.9506   6.6231   6.7563

     occupation numbers 
     1.0000   1.0000   1.0000   1.0000   0.0000   0.0000   0.0000   0.0000

          k = 0.4167-0.6987 0.0000 (  2737 PWs)   bands (ev):

   -16.9148 -11.9734 -10.2809  -4.9321  -0.0420   3.9687   6.6785   6.8549

     occupation numbers 
     1.0000   1.0000   1.0000   1.0000   0.0000   0.0000   0.0000   0.0000

          k = 0.4167-0.6352 0.0000 (  2724 PWs)   bands (ev):

   -16.8894 -12.6678  -9.3952  -4.9418  -0.2399   4.0131   6.8416   7.1240

     occupation numbers 
     1.0000   1.0000   1.0000   1.0000   0.0000   0.0000   0.0000   0.0000

          k = 0.4167-0.5717 0.0000 (  2728 PWs)   bands (ev):

   -16.8791 -13.2151  -8.5248  -4.9836  -0.4548   4.0565   7.0971   7.5182

     occupation numbers 
     1.0000   1.0000   1.0000   1.0000   0.0000   0.0000   0.0000   0.0000

          k = 0.4167-0.5082 0.0000 (  2726 PWs)   bands (ev):

   -16.9296 -13.5543  -7.7307  -5.0859  -0.5830   4.0555   7.3564   7.7692

     occupation numbers 
     1.0000   1.0000   1.0000   1.0000   0.0000   0.0000   0.0000   0.0000

          k = 0.4167-0.4447 0.0000 (  2718 PWs)   bands (ev):

   -17.0772 -13.6411  -7.0893  -5.2639  -0.5568   3.9831   6.8066   7.5727

     occupation numbers 
     1.0000   1.0000   1.0000   1.0000   0.0000   0.0000   0.0000   0.0000

          k = 0.4167-0.3811 0.0000 (  2715 PWs)   bands (ev):

   -17.3134 -13.4799  -6.6877  -5.5061  -0.3586   3.8892   6.0367   7.0787

     occupation numbers 
     1.0000   1.0000   1.0000   1.0000   0.0000   0.0000   0.0000   0.0000

          k = 0.4583-0.3494 0.0000 (  2715 PWs)   bands (ev):

   -17.2684 -13.6027  -6.6391  -5.4769  -0.4517   3.9834   6.2357   7.0231

     occupation numbers 
     1.0000   1.0000   1.0000   1.0000   0.0000   0.0000   0.0000   0.0000

          k = 0.4583-0.2859 0.0000 (  2729 PWs)   bands (ev):

   -17.4714 -13.2362  -6.8393  -5.6608  -0.1423   4.0908   5.6754   6.3962

     occupation numbers 
     1.0000   1.0000   1.0000   1.0000   0.0000   0.0000   0.0000   0.0000

          k = 0.4583-0.2223 0.0000 (  2718 PWs)   bands (ev):

   -17.6822 -12.7038  -7.3230  -5.8533   0.2766   4.2630   5.2954   5.8833

     occupation numbers 
     1.0000   1.0000   1.0000   1.0000   0.0000   0.0000   0.0000   0.0000

          k = 0.4583-0.1588 0.0000 (  2706 PWs)   bands (ev):

   -17.8639 -12.0484  -8.0061  -6.0228   0.7337   4.3043   5.1589   5.4855

     occupation numbers 
     1.0000   1.0000   1.0000   1.0000   0.0000   0.0000   0.0000   0.0000

          k = 0.4583-0.0953 0.0000 (  2700 PWs)   bands (ev):

   -17.9945 -11.3021  -8.8037  -6.1470   1.1383   4.2092   5.1371   5.2065

     occupation numbers 
     1.0000   1.0000   1.0000   1.0000   0.0000   0.0000   0.0000   0.0000

          k = 0.4583-0.0318 0.0000 (  2714 PWs)   bands (ev):

   -18.0624 -10.4919  -9.6494  -6.2122   1.3832   4.1312   5.0586   5.1055

     occupation numbers 
     1.0000   1.0000   1.0000   1.0000   0.0000   0.0000   0.0000   0.0000

          k = 0.4583 0.0318 0.0000 (  2714 PWs)   bands (ev):

   -18.0623 -10.4950  -9.6462  -6.2121   1.3827   4.1311   5.0586   5.1053

     occupation numbers 
     1.0000   1.0000   1.0000   1.0000   0.0000   0.0000   0.0000   0.0000

          k = 0.4583 0.0953 0.0000 (  2700 PWs)   bands (ev):

   -17.9944 -11.3051  -8.8003  -6.1465   1.1371   4.2087   5.1364   5.2065

     occupation numbers 
     1.0000   1.0000   1.0000   1.0000   0.0000   0.0000   0.0000   0.0000

          k = 0.4583 0.1588 0.0000 (  2706 PWs)   bands (ev):

   -17.8637 -12.0514  -8.0025  -6.0221   0.7319   4.3028   5.1579   5.4854

     occupation numbers 
     1.0000   1.0000   1.0000   1.0000   0.0000   0.0000   0.0000   0.0000

          k = 0.4583 0.2223 0.0000 (  2718 PWs)   bands (ev):

   -17.6818 -12.7068  -7.3192  -5.8522   0.2743   4.2603   5.2951   5.8833

     occupation numbers 
     1.0000   1.0000   1.0000   1.0000   0.0000   0.0000   0.0000   0.0000

          k = 0.4583 0.2859 0.0000 (  2729 PWs)   bands (ev):

   -17.4708 -13.2394  -6.8353  -5.6595  -0.1451   4.0876   5.6755   6.3962

     occupation numbers 
     1.0000   1.0000   1.0000   1.0000   0.0000   0.0000   0.0000   0.0000

          k = 0.4583 0.3494 0.0000 (  2715 PWs)   bands (ev):

   -17.2676 -13.6060  -6.6350  -5.4753  -0.4548   3.9800   6.2358   7.0231

     occupation numbers 
     1.0000   1.0000   1.0000   1.0000   0.0000   0.0000   0.0000   0.0000

          k = 0.4583-1.1116 0.0000 (  2724 PWs)   bands (ev):

   -17.1224 -13.7538  -6.7636  -5.3354  -0.6022   4.0281   6.9036   7.4120

     occupation numbers 
     1.0000   1.0000   1.0000   1.0000   0.0000   0.0000   0.0000   0.0000

          k = 0.4583-1.0481 0.0000 (  2730 PWs)   bands (ev):

   -17.0728 -13.6447  -7.1964  -5.2638  -0.5634   4.1812   6.8901   7.7447

     occupation numbers 
     1.0000   1.0000   1.0000   1.0000   0.0000   0.0000   0.0000   0.0000

          k = 0.4583-0.9846 0.0000 (  2713 PWs)   bands (ev):

   -17.1099 -13.2902  -7.8565  -5.2587  -0.3590   4.3196   6.5423   7.1025

     occupation numbers 
     1.0000   1.0000   1.0000   1.0000   0.0000   0.0000   0.0000   0.0000

          k = 0.4583-0.9211 0.0000 (  2726 PWs)   bands (ev):

   -17.1884 -12.7413  -8.6569  -5.2946  -0.0555   4.3749   6.2724   6.6828

     occupation numbers 
     1.0000   1.0000   1.0000   1.0000   0.0000   0.0000   0.0000   0.0000

          k = 0.4583-0.8576 0.0000 (  2726 PWs)   bands (ev):

   -17.2635 -12.0525  -9.5238  -5.3392   0.2485   4.3695   6.0890   6.3788

     occupation numbers 
     1.0000   1.0000   1.0000   1.0000   0.0000   0.0000   0.0000   0.0000

          k = 0.4583-0.7940 0.0000 (  2722 PWs)   bands (ev):

   -17.3072 -11.2700 -10.3985  -5.3680   0.4417   4.3523   5.9960   6.2130

     occupation numbers 
     1.0000   1.0000   1.0000   1.0000   0.0000   0.0000   0.0000   0.0000

          k = 0.4583-0.7305 0.0000 (  2722 PWs)   bands (ev):

   -17.3073 -11.2670 -10.4016  -5.3682   0.4422   4.3527   5.9960   6.2130

     occupation numbers 
     1.0000   1.0000   1.0000   1.0000   0.0000   0.0000   0.0000   0.0000

          k = 0.4583-0.6670 0.0000 (  2726 PWs)   bands (ev):

   -17.2637 -12.0494  -9.5270  -5.3399   0.2499   4.3708   6.0893   6.3788

     occupation numbers 
     1.0000   1.0000   1.0000   1.0000   0.0000   0.0000   0.0000   0.0000

          k = 0.4583-0.6035 0.0000 (  2726 PWs)   bands (ev):

   -17.1889 -12.7381  -8.6604  -5.2956  -0.0533   4.3772   6.2727   6.6828

     occupation numbers 
     1.0000   1.0000   1.0000   1.0000   0.0000   0.0000   0.0000   0.0000

          k = 0.4583-0.5399 0.0000 (  2713 PWs)   bands (ev):

   -17.1106 -13.2869  -7.8602  -5.2601  -0.3563   4.3226   6.5424   7.1025

     occupation numbers 
     1.0000   1.0000   1.0000   1.0000   0.0000   0.0000   0.0000   0.0000

          k = 0.4583-0.4764 0.0000 (  2730 PWs)   bands (ev):

   -17.0736 -13.6413  -7.2003  -5.2655  -0.5603   4.1847   6.8896   7.7447

     occupation numbers 
     1.0000   1.0000   1.0000   1.0000   0.0000   0.0000   0.0000   0.0000

          k = 0.4583-0.4129 0.0000 (  2724 PWs)   bands (ev):

   -17.1232 -13.7504  -6.7676  -5.3371  -0.5990   4.0316   6.9031   7.4119

     occupation numbers 
     1.0000   1.0000   1.0000   1.0000   0.0000   0.0000   0.0000   0.0000

          k =-0.5000 0.3811 0.0000 (  2720 PWs)   bands (ev):

   -17.1384 -13.7874  -6.6537  -5.3614  -0.6141   4.0163   6.9855   7.2974

     occupation numbers 
     1.0000   1.0000   1.0000   1.0000   0.0000   0.0000   0.0000   0.0000

          k =-0.5000 0.4447 0.0000 (  2727 PWs)   bands (ev):

   -17.1874 -13.6575  -6.8189  -5.3963  -0.5188   4.0994   6.5182   7.2935

     occupation numbers 
     1.0000   1.0000   1.0000   1.0000   0.0000   0.0000   0.0000   0.0000

          k =-0.5000 0.5082 0.0000 (  2729 PWs)   bands (ev):

   -17.3096 -13.2941  -7.2791  -5.4867  -0.2559   4.2854   6.0613   6.7188

     occupation numbers 
     1.0000   1.0000   1.0000   1.0000   0.0000   0.0000   0.0000   0.0000

          k =-0.5000 0.5717 0.0000 (  2711 PWs)   bands (ev):

   -17.4553 -12.7507  -7.9531  -5.6009   0.1143   4.4346   5.7608   6.2564

     occupation numbers 
     1.0000   1.0000   1.0000   1.0000   0.0000   0.0000   0.0000   0.0000

          k =-0.5000 0.6352 0.0000 (  2724 PWs)   bands (ev):

   -17.5832 -12.0764  -8.7544  -5.7062   0.5053   4.4648   5.6002   5.9086

     occupation numbers 
     1.0000   1.0000   1.0000   1.0000   0.0000   0.0000   0.0000   0.0000

          k =-0.5000 0.6987 0.0000 (  2718 PWs)   bands (ev):

   -17.6682 -11.3079  -9.6126  -5.7786   0.8115   4.4302   5.5185   5.6853

     occupation numbers 
     1.0000   1.0000   1.0000   1.0000   0.0000   0.0000   0.0000   0.0000

          k =-0.5000 0.7623 0.0000 (  2706 PWs)   bands (ev):

   -17.6978 -10.5128 -10.4398  -5.8040   0.9291   4.4095   5.4907   5.6066

     occupation numbers 
     1.0000   1.0000   1.0000   1.0000   0.0000   0.0000   0.0000   0.0000

          k =-0.5000 0.8258 0.0000 (  2718 PWs)   bands (ev):

   -17.6681 -11.3110  -9.6094  -5.7782   0.8106   4.4296   5.5181   5.6853

     occupation numbers 
     1.0000   1.0000   1.0000   1.0000   0.0000   0.0000   0.0000   0.0000

          k =-0.5000 0.8893 0.0000 (  2724 PWs)   bands (ev):

   -17.5830 -12.0794  -8.7510  -5.7055   0.5036   4.4633   5.5996   5.9085

     occupation numbers 
     1.0000   1.0000   1.0000   1.0000   0.0000   0.0000   0.0000   0.0000

          k =-0.5000 0.9528 0.0000 (  2711 PWs)   bands (ev):

   -17.4549 -12.7538  -7.9495  -5.5999   0.1120   4.4321   5.7605   6.2564

     occupation numbers 
     1.0000   1.0000   1.0000   1.0000   0.0000   0.0000   0.0000   0.0000

          k =-0.5000 1.0164 0.0000 (  2729 PWs)   bands (ev):

   -17.3090 -13.2973  -7.2753  -5.4853  -0.2586   4.2822   6.0613   6.7188

     occupation numbers 
     1.0000   1.0000   1.0000   1.0000   0.0000   0.0000   0.0000   0.0000

          k =-0.5000 1.0799 0.0000 (  2727 PWs)   bands (ev):

   -17.1866 -13.6609  -6.8149  -5.3946  -0.5219   4.0961   6.5185   7.2935

     occupation numbers 
     1.0000   1.0000   1.0000   1.0000   0.0000   0.0000   0.0000   0.0000

          k =-0.5000-0.3811 0.0000 (  2720 PWs)   bands (ev):

   -17.1375 -13.7908  -6.6496  -5.3596  -0.6173   4.0129   6.9863   7.2968

     occupation numbers 
     1.0000   1.0000   1.0000   1.0000   0.0000   0.0000   0.0000   0.0000

          k =-0.5000-0.3176 0.0000 (  2727 PWs)   bands (ev):

   -17.1866 -13.6609  -6.8149  -5.3946  -0.5219   4.0961   6.5185   7.2934

     occupation numbers 
     1.0000   1.0000   1.0000   1.0000   0.0000   0.0000   0.0000   0.0000

          k =-0.5000-0.2541 0.0000 (  2729 PWs)   bands (ev):

   -17.3090 -13.2973  -7.2753  -5.4853  -0.2586   4.2822   6.0613   6.7188

     occupation numbers 
     1.0000   1.0000   1.0000   1.0000   0.0000   0.0000   0.0000   0.0000

          k =-0.5000-0.1906 0.0000 (  2711 PWs)   bands (ev):

   -17.4549 -12.7538  -7.9495  -5.5999   0.1120   4.4321   5.7605   6.2564

     occupation numbers 
     1.0000   1.0000   1.0000   1.0000   0.0000   0.0000   0.0000   0.0000

          k =-0.5000-0.1270 0.0000 (  2724 PWs)   bands (ev):

   -17.5830 -12.0794  -8.7510  -5.7055   0.5036   4.4633   5.5996   5.9085

     occupation numbers 
     1.0000   1.0000   1.0000   1.0000   0.0000   0.0000   0.0000   0.0000

          k =-0.5000-0.0635 0.0000 (  2718 PWs)   bands (ev):

   -17.6681 -11.3110  -9.6094  -5.7782   0.8106   4.4296   5.5181   5.6853

     occupation numbers 
     1.0000   1.0000   1.0000   1.0000   0.0000   0.0000   0.0000   0.0000

          k =-0.5000 0.0000 0.0000 (  2706 PWs)   bands (ev):

   -17.6978 -10.5128 -10.4398  -5.8040   0.9291   4.4095   5.4907   5.6066

     occupation numbers 
     1.0000   1.0000   1.0000   1.0000   0.0000   0.0000   0.0000   0.0000

          k =-0.5000 0.0635 0.0000 (  2718 PWs)   bands (ev):

   -17.6682 -11.3079  -9.6126  -5.7786   0.8115   4.4302   5.5185   5.6852

     occupation numbers 
     1.0000   1.0000   1.0000   1.0000   0.0000   0.0000   0.0000   0.0000

          k =-0.5000 0.1270 0.0000 (  2724 PWs)   bands (ev):

   -17.5832 -12.0764  -8.7544  -5.7062   0.5053   4.4648   5.6002   5.9085

     occupation numbers 
     1.0000   1.0000   1.0000   1.0000   0.0000   0.0000   0.0000   0.0000

          k =-0.5000 0.1906 0.0000 (  2711 PWs)   bands (ev):

   -17.4553 -12.7507  -7.9531  -5.6009   0.1143   4.4346   5.7608   6.2564

     occupation numbers 
     1.0000   1.0000   1.0000   1.0000   0.0000   0.0000   0.0000   0.0000

          k =-0.5000 0.2541 0.0000 (  2729 PWs)   bands (ev):

   -17.3096 -13.2941  -7.2791  -5.4867  -0.2559   4.2854   6.0613   6.7188

     occupation numbers 
     1.0000   1.0000   1.0000   1.0000   0.0000   0.0000   0.0000   0.0000

          k =-0.5000 0.3176 0.0000 (  2727 PWs)   bands (ev):

   -17.1874 -13.6575  -6.8189  -5.3963  -0.5188   4.0994   6.5182   7.2935

     occupation numbers 
     1.0000   1.0000   1.0000   1.0000   0.0000   0.0000   0.0000   0.0000

          k =-0.4583 0.3494 0.0000 (  2715 PWs)   bands (ev):

   -17.2684 -13.6027  -6.6391  -5.4769  -0.4517   3.9834   6.2357   7.0231

     occupation numbers 
     1.0000   1.0000   1.0000   1.0000   0.0000   0.0000   0.0000   0.0000

          k =-0.4583 0.4129 0.0000 (  2724 PWs)   bands (ev):

   -17.1232 -13.7504  -6.7676  -5.3371  -0.5990   4.0316   6.9031   7.4119

     occupation numbers 
     1.0000   1.0000   1.0000   1.0000   0.0000   0.0000   0.0000   0.0000

          k =-0.4583 0.4764 0.0000 (  2730 PWs)   bands (ev):

   -17.0736 -13.6413  -7.2003  -5.2655  -0.5603   4.1847   6.8896   7.7443

     occupation numbers 
     1.0000   1.0000   1.0000   1.0000   0.0000   0.0000   0.0000   0.0000

          k =-0.4583 0.5399 0.0000 (  2713 PWs)   bands (ev):

   -17.1106 -13.2869  -7.8602  -5.2601  -0.3563   4.3226   6.5424   7.1025

     occupation numbers 
     1.0000   1.0000   1.0000   1.0000   0.0000   0.0000   0.0000   0.0000

          k =-0.4583 0.6035 0.0000 (  2726 PWs)   bands (ev):

   -17.1889 -12.7381  -8.6604  -5.2956  -0.0533   4.3772   6.2727   6.6827

     occupation numbers 
     1.0000   1.0000   1.0000   1.0000   0.0000   0.0000   0.0000   0.0000

          k =-0.4583 0.6670 0.0000 (  2726 PWs)   bands (ev):

   -17.2637 -12.0494  -9.5270  -5.3399   0.2499   4.3708   6.0893   6.3788

     occupation numbers 
     1.0000   1.0000   1.0000   1.0000   0.0000   0.0000   0.0000   0.0000

          k =-0.4583 0.7305 0.0000 (  2722 PWs)   bands (ev):

   -17.3073 -11.2670 -10.4016  -5.3682   0.4422   4.3527   5.9961   6.2130

     occupation numbers 
     1.0000   1.0000   1.0000   1.0000   0.0000   0.0000   0.0000   0.0000

          k =-0.4583 0.7940 0.0000 (  2722 PWs)   bands (ev):

   -17.3072 -11.2700 -10.3985  -5.3680   0.4417   4.3523   5.9960   6.2130

     occupation numbers 
     1.0000   1.0000   1.0000   1.0000   0.0000   0.0000   0.0000   0.0000

          k =-0.4583 0.8576 0.0000 (  2726 PWs)   bands (ev):

   -17.2635 -12.0525  -9.5238  -5.3392   0.2485   4.3695   6.0890   6.3788

     occupation numbers 
     1.0000   1.0000   1.0000   1.0000   0.0000   0.0000   0.0000   0.0000

          k =-0.4583 0.9211 0.0000 (  2726 PWs)   bands (ev):

   -17.1884 -12.7413  -8.6569  -5.2946  -0.0555   4.3749   6.2724   6.6828

     occupation numbers 
     1.0000   1.0000   1.0000   1.0000   0.0000   0.0000   0.0000   0.0000

          k =-0.4583 0.9846 0.0000 (  2713 PWs)   bands (ev):

   -17.1099 -13.2902  -7.8565  -5.2587  -0.3590   4.3196   6.5423   7.1025

     occupation numbers 
     1.0000   1.0000   1.0000   1.0000   0.0000   0.0000   0.0000   0.0000

          k =-0.4583 1.0481 0.0000 (  2730 PWs)   bands (ev):

   -17.0728 -13.6447  -7.1964  -5.2638  -0.5634   4.1812   6.8901   7.7437

     occupation numbers 
     1.0000   1.0000   1.0000   1.0000   0.0000   0.0000   0.0000   0.0000

          k =-0.4583-0.4129 0.0000 (  2724 PWs)   bands (ev):

   -17.1224 -13.7538  -6.7636  -5.3354  -0.6022   4.0281   6.9036   7.4120

     occupation numbers 
     1.0000   1.0000   1.0000   1.0000   0.0000   0.0000   0.0000   0.0000

          k =-0.4583-0.3494 0.0000 (  2715 PWs)   bands (ev):

   -17.2676 -13.6060  -6.6350  -5.4753  -0.4548   3.9800   6.2358   7.0231

     occupation numbers 
     1.0000   1.0000   1.0000   1.0000   0.0000   0.0000   0.0000   0.0000

          k =-0.4583-0.2859 0.0000 (  2729 PWs)   bands (ev):

   -17.4708 -13.2394  -6.8353  -5.6595  -0.1451   4.0876   5.6755   6.3962

     occupation numbers 
     1.0000   1.0000   1.0000   1.0000   0.0000   0.0000   0.0000   0.0000

          k =-0.4583-0.2223 0.0000 (  2718 PWs)   bands (ev):

   -17.6818 -12.7068  -7.3192  -5.8522   0.2743   4.2603   5.2951   5.8833

     occupation numbers 
     1.0000   1.0000   1.0000   1.0000   0.0000   0.0000   0.0000   0.0000

          k =-0.4583-0.1588 0.0000 (  2706 PWs)   bands (ev):

   -17.8637 -12.0514  -8.0025  -6.0221   0.7319   4.3028   5.1579   5.4854

     occupation numbers 
     1.0000   1.0000   1.0000   1.0000   0.0000   0.0000   0.0000   0.0000

          k =-0.4583-0.0953 0.0000 (  2700 PWs)   bands (ev):

   -17.9944 -11.3051  -8.8003  -6.1465   1.1371   4.2087   5.1364   5.2065

     occupation numbers 
     1.0000   1.0000   1.0000   1.0000   0.0000   0.0000   0.0000   0.0000

          k =-0.4583-0.0318 0.0000 (  2714 PWs)   bands (ev):

   -18.0623 -10.4950  -9.6462  -6.2121   1.3827   4.1311   5.0586   5.1053

     occupation numbers 
     1.0000   1.0000   1.0000   1.0000   0.0000   0.0000   0.0000   0.0000

          k =-0.4583 0.0318 0.0000 (  2714 PWs)   bands (ev):

   -18.0624 -10.4919  -9.6494  -6.2122   1.3832   4.1312   5.0586   5.1055

     occupation numbers 
     1.0000   1.0000   1.0000   1.0000   0.0000   0.0000   0.0000   0.0000

          k =-0.4583 0.0953 0.0000 (  2700 PWs)   bands (ev):

   -17.9945 -11.3021  -8.8037  -6.1470   1.1383   4.2092   5.1371   5.2065

     occupation numbers 
     1.0000   1.0000   1.0000   1.0000   0.0000   0.0000   0.0000   0.0000

          k =-0.4583 0.1588 0.0000 (  2706 PWs)   bands (ev):

   -17.8639 -12.0484  -8.0061  -6.0228   0.7337   4.3043   5.1589   5.4855

     occupation numbers 
     1.0000   1.0000   1.0000   1.0000   0.0000   0.0000   0.0000   0.0000

          k =-0.4583 0.2223 0.0000 (  2718 PWs)   bands (ev):

   -17.6822 -12.7038  -7.3230  -5.8533   0.2766   4.2630   5.2954   5.8833

     occupation numbers 
     1.0000   1.0000   1.0000   1.0000   0.0000   0.0000   0.0000   0.0000

          k =-0.4583 0.2859 0.0000 (  2729 PWs)   bands (ev):

   -17.4714 -13.2362  -6.8393  -5.6608  -0.1423   4.0908   5.6754   6.3962

     occupation numbers 
     1.0000   1.0000   1.0000   1.0000   0.0000   0.0000   0.0000   0.0000

          k =-0.4167 0.3176 0.0000 (  2717 PWs)   bands (ev):

   -17.5918 -13.1160  -6.5960  -5.7801  -0.0106   3.8813   5.3884   6.4135

     occupation numbers 
     1.0000   1.0000   1.0000   1.0000   0.0000   0.0000   0.0000   0.0000

          k =-0.4167 0.3811 0.0000 (  2715 PWs)   bands (ev):

   -17.3134 -13.4799  -6.6877  -5.5061  -0.3586   3.8892   6.0367   6.8267

     occupation numbers 
     1.0000   1.0000   1.0000   1.0000   0.0000   0.0000   0.0000   0.0000

          k =-0.4167 0.4447 0.0000 (  2718 PWs)   bands (ev):

   -17.0772 -13.6411  -7.0893  -5.2639  -0.5568   3.9831   6.8066   7.5727

     occupation numbers 
     1.0000   1.0000   1.0000   1.0000   0.0000   0.0000   0.0000   0.0000

          k =-0.4167 0.5082 0.0000 (  2726 PWs)   bands (ev):

   -16.9296 -13.5543  -7.7307  -5.0859  -0.5830   4.0555   7.3564   7.7692

     occupation numbers 
     1.0000   1.0000   1.0000   1.0000   0.0000   0.0000   0.0000   0.0000

          k =-0.4167 0.5717 0.0000 (  2728 PWs)   bands (ev):

   -16.8791 -13.2151  -8.5248  -4.9836  -0.4548   4.0565   7.0971   7.5182

     occupation numbers 
     1.0000   1.0000   1.0000   1.0000   0.0000   0.0000   0.0000   0.0000

          k =-0.4167 0.6352 0.0000 (  2724 PWs)   bands (ev):

   -16.8894 -12.6678  -9.3952  -4.9418  -0.2399   4.0131   6.8416   7.1240

     occupation numbers 
     1.0000   1.0000   1.0000   1.0000   0.0000   0.0000   0.0000   0.0000

          k =-0.4167 0.6987 0.0000 (  2737 PWs)   bands (ev):

   -16.9148 -11.9734 -10.2809  -4.9321  -0.0420   3.9687   6.6785   6.8549

     occupation numbers 
     1.0000   1.0000   1.0000   1.0000   0.0000   0.0000   0.0000   0.0000

          k =-0.4167 0.7623 0.0000 (  2740 PWs)   bands (ev):

   -16.9264 -11.3045 -11.0131  -4.9314   0.0383   3.9506   6.6231   6.7563

     occupation numbers 
     1.0000   1.0000   1.0000   1.0000   0.0000   0.0000   0.0000   0.0000

          k =-0.4167 0.8258 0.0000 (  2737 PWs)   bands (ev):

   -16.9146 -11.9765 -10.2777  -4.9315  -0.0430   3.9679   6.6784   6.8550

     occupation numbers 
     1.0000   1.0000   1.0000   1.0000   0.0000   0.0000   0.0000   0.0000

          k =-0.4167 0.8893 0.0000 (  2724 PWs)   bands (ev):

   -16.8889 -12.6711  -9.3918  -4.9407  -0.2419   4.0115   6.8415   7.1241

     occupation numbers 
     1.0000   1.0000   1.0000   1.0000   0.0000   0.0000   0.0000   0.0000

          k =-0.4167 0.9528 0.0000 (  2728 PWs)   bands (ev):

   -16.8784 -13.2184  -8.5212  -4.9822  -0.4574   4.0540   7.0970   7.5182

     occupation numbers 
     1.0000   1.0000   1.0000   1.0000   0.0000   0.0000   0.0000   0.0000

          k =-0.4167 1.0164 0.0000 (  2726 PWs)   bands (ev):

   -16.9287 -13.5578  -7.7269  -5.0842  -0.5861   4.0523   7.3571   7.7687

     occupation numbers 
     1.0000   1.0000   1.0000   1.0000   0.0000   0.0000   0.0000   0.0000

          k =-0.4167-0.4447 0.0000 (  2718 PWs)   bands (ev):

   -17.0764 -13.6446  -7.0854  -5.2622  -0.5599   3.9794   6.8069   7.5746

     occupation numbers 
     1.0000   1.0000   1.0000   1.0000   0.0000   0.0000   0.0000   0.0000

          k =-0.4167-0.3811 0.0000 (  2715 PWs)   bands (ev):

   -17.3127 -13.4832  -6.6836  -5.5046  -0.3615   3.8855   6.0368   6.8267

     occupation numbers 
     1.0000   1.0000   1.0000   1.0000   0.0000   0.0000   0.0000   0.0000

          k =-0.4167-0.3176 0.0000 (  2717 PWs)   bands (ev):

   -17.5912 -13.1191  -6.5918  -5.7788  -0.0133   3.8778   5.3885   6.1456

     occupation numbers 
     1.0000   1.0000   1.0000   1.0000   0.0000   0.0000   0.0000   0.0000

          k =-0.4167-0.2541 0.0000 (  2719 PWs)   bands (ev):

   -17.8644 -12.6017  -6.8237  -6.0483   0.4408   3.9875   4.9035   5.5787

     occupation numbers 
     1.0000   1.0000   1.0000   1.0000   0.0000   0.0000   0.0000   0.0000

          k =-0.4167-0.1906 0.0000 (  2706 PWs)   bands (ev):

   -18.0995 -11.9684  -7.3264  -6.2834   0.9443   4.0334   4.7083   5.1278

     occupation numbers 
     1.0000   1.0000   1.0000   1.0000   0.0000   0.0000   0.0000   0.0000

          k =-0.4167-0.1270 0.0000 (  2716 PWs)   bands (ev):

   -18.2776 -11.2471  -8.0136  -6.4639   1.4247   3.8785   4.7506   4.7936

     occupation numbers 
     1.0000   1.0000   1.0000   1.0000   0.0000   0.0000   0.0000   0.0000

          k =-0.4167-0.0635 0.0000 (  2710 PWs)   bands (ev):

   -18.3880 -10.4619  -8.8029  -6.5768   1.7867   3.7330   4.5815   4.7083

     occupation numbers 
     1.0000   1.0000   1.0000   1.0000   0.0000   0.0000   0.0000   0.0000

          k =-0.4167 0.0000 0.0000 (  2710 PWs)   bands (ev):

   -18.4253  -9.6792  -9.5915  -6.6153   1.9250   3.6804   4.5070   4.6746

     occupation numbers 
     1.0000   1.0000   1.0000   1.0000   0.0000   0.0000   0.0000   0.0000

          k =-0.4167 0.0635 0.0000 (  2710 PWs)   bands (ev):

   -18.3880 -10.4589  -8.8063  -6.5771   1.7874   3.7332   4.5815   4.7086

     occupation numbers 
     1.0000   1.0000   1.0000   1.0000   0.0000   0.0000   0.0000   0.0000

          k =-0.4167 0.1270 0.0000 (  2716 PWs)   bands (ev):

   -18.2777 -11.2441  -8.0172  -6.4644   1.4261   3.8790   4.7517   4.7936

     occupation numbers 
     1.0000   1.0000   1.0000   1.0000   0.0000   0.0000   0.0000   0.0000

          k =-0.4167 0.1906 0.0000 (  2706 PWs)   bands (ev):

   -18.0997 -11.9655  -7.3302  -6.2841   0.9462   4.0350   4.7096   5.1279

     occupation numbers 
     1.0000   1.0000   1.0000   1.0000   0.0000   0.0000   0.0000   0.0000

          k =-0.4167 0.2541 0.0000 (  2719 PWs)   bands (ev):

   -17.8647 -12.5987  -6.8278  -6.0493   0.4431   3.9906   4.9037   5.5788

     occupation numbers 
     1.0000   1.0000   1.0000   1.0000   0.0000   0.0000   0.0000   0.0000

          k =-0.3750 0.2859 0.0000 (  2722 PWs)   bands (ev):

   -17.9993 -12.4385  -6.5254  -6.1864   0.6179   3.7006   4.6121   5.6194

     occupation numbers 
     1.0000   1.0000   1.0000   1.0000   0.0000   0.0000   0.0000   0.0000

          k =-0.3750 0.3494 0.0000 (  2720 PWs)   bands (ev):

   -17.6673 -12.9376  -6.5821  -5.8428   0.1382   3.6682   5.1955   5.9713

     occupation numbers 
     1.0000   1.0000   1.0000   1.0000   0.0000   0.0000   0.0000   0.0000

          k =-0.3750 0.4129 0.0000 (  2719 PWs)   bands (ev):

   -17.3191 -13.2948  -6.9509  -5.4827  -0.2449   3.6871   5.9228   6.7067

     occupation numbers 
     1.0000   1.0000   1.0000   1.0000   0.0000   0.0000   0.0000   0.0000

          k =-0.3750 0.4764 0.0000 (  2714 PWs)   bands (ev):

   -16.9988 -13.4654  -7.5691  -5.1420  -0.4974   3.6707   6.7735   7.5420

     occupation numbers 
     1.0000   1.0000   1.0000   1.0000   0.0000   0.0000   0.0000   0.0000

          k =-0.3750 0.5399 0.0000 (  2726 PWs)   bands (ev):

   -16.7575 -13.4010  -8.3517  -4.8593  -0.6005   3.5904   7.7113   8.0384

     occupation numbers 
     1.0000   1.0000   1.0000   1.0000   0.0000   0.0000   0.0000   0.0000

          k =-0.3750 0.6035 0.0000 (  2728 PWs)   bands (ev):

   -16.6207 -13.0832  -9.2205  -4.6606  -0.5676   3.4823   7.7122   7.8796

     occupation numbers 
     1.0000   1.0000   1.0000   1.0000   0.0000   0.0000   0.0000   0.0000

          k =-0.3750 0.6670 0.0000 (  2737 PWs)   bands (ev):

   -16.5660 -12.5478 -10.1118  -4.5460  -0.4603   3.3887   7.4898   7.4902

     occupation numbers 
     1.0000   1.0000   1.0000   1.0000   0.0000   0.0000   0.0000   0.0000

          k =-0.3750 0.7305 0.0000 (  2738 PWs)   bands (ev):

   -16.5518 -11.8784 -10.9530  -4.4967  -0.3710   3.3360   7.2617   7.3743

     occupation numbers 
     1.0000   1.0000   1.0000   1.0000   0.0000   0.0000   0.0000   0.0000

          k =-0.3750 0.7940 0.0000 (  2738 PWs)   bands (ev):

   -16.5517 -11.8813 -10.9501  -4.4964  -0.3716   3.3357   7.2618   7.3743

     occupation numbers 
     1.0000   1.0000   1.0000   1.0000   0.0000   0.0000   0.0000   0.0000

          k =-0.3750 0.8576 0.0000 (  2737 PWs)   bands (ev):

   -16.5655 -12.5511 -10.1085  -4.5451  -0.4620   3.3877   7.4901   7.4902

     occupation numbers 
     1.0000   1.0000   1.0000   1.0000   0.0000   0.0000   0.0000   0.0000

          k =-0.3750 0.9211 0.0000 (  2728 PWs)   bands (ev):

   -16.6199 -13.0867  -9.2171  -4.6592  -0.5701   3.4805   7.7121   7.8798

     occupation numbers 
     1.0000   1.0000   1.0000   1.0000   0.0000   0.0000   0.0000   0.0000

          k =-0.3750 0.9846 0.0000 (  2726 PWs)   bands (ev):

   -16.7566 -13.4046  -8.3481  -4.8577  -0.6035   3.5878   7.7115   8.0382

     occupation numbers 
     1.0000   1.0000   1.0000   1.0000   0.0000   0.0000   0.0000   0.0000

          k =-0.3750-0.4764 0.0000 (  2714 PWs)   bands (ev):

   -16.9980 -13.4688  -7.5652  -5.1403  -0.5005   3.6674   6.7736   7.5418

     occupation numbers 
     1.0000   1.0000   1.0000   1.0000   0.0000   0.0000   0.0000   0.0000

          k =-0.3750-0.4129 0.0000 (  2719 PWs)   bands (ev):

   -17.3185 -13.2981  -6.9468  -5.4812  -0.2478   3.6833   5.9229   6.7067

     occupation numbers 
     1.0000   1.0000   1.0000   1.0000   0.0000   0.0000   0.0000   0.0000

          k =-0.3750-0.3494 0.0000 (  2720 PWs)   bands (ev):

   -17.6669 -12.9407  -6.5778  -5.8415   0.1356   3.6644   5.1955   5.9713

     occupation numbers 
     1.0000   1.0000   1.0000   1.0000   0.0000   0.0000   0.0000   0.0000

          k =-0.3750-0.2859 0.0000 (  2722 PWs)   bands (ev):

   -17.9990 -12.4415  -6.5211  -6.1854   0.6156   3.6970   4.6121   5.3493

     occupation numbers 
     1.0000   1.0000   1.0000   1.0000   0.0000   0.0000   0.0000   0.0000

          k =-0.3750-0.2223 0.0000 (  2705 PWs)   bands (ev):

   -18.2863 -11.8323  -6.7799  -6.4858   1.1495   3.7430   4.2721   4.8441

     occupation numbers 
     1.0000   1.0000   1.0000   1.0000   0.0000   0.0000   0.0000   0.0000

          k =-0.3750-0.1588 0.0000 (  2709 PWs)   bands (ev):

   -18.5123 -11.1375  -7.2956  -6.7242   1.6816   3.5612   4.3274   4.4553

     occupation numbers 
     1.0000   1.0000   1.0000   1.0000   0.0000   0.0000   0.0000   0.0000

          k =-0.3750-0.0953 0.0000 (  2712 PWs)   bands (ev):

   -18.6672 -10.3790  -7.9812  -6.8889   2.1360   3.3522   4.1833   4.3162

     occupation numbers 
     1.0000   1.0000   1.0000   1.0000   0.0000   0.0000   0.0000   0.0000

          k =-0.3750-0.0318 0.0000 (  2714 PWs)   bands (ev):

   -18.7458  -9.5841  -8.7541  -6.9729   2.4113   3.2389   4.0365   4.2394

     occupation numbers 
     1.0000   1.0000   1.0000   1.0000   0.0000   0.0000   0.0000   0.0000

          k =-0.3750 0.0318 0.0000 (  2714 PWs)   bands (ev):

   -18.7458  -9.5809  -8.7575  -6.9730   2.4116   3.2389   4.0365   4.2395

     occupation numbers 
     1.0000   1.0000   1.0000   1.0000   0.0000   0.0000   0.0000   0.0000

          k =-0.3750 0.0953 0.0000 (  2712 PWs)   bands (ev):

   -18.6673 -10.3759  -7.9848  -6.8892   2.1369   3.3524   4.1834   4.3167

     occupation numbers 
     1.0000   1.0000   1.0000   1.0000   0.0000   0.0000   0.0000   0.0000

          k =-0.3750 0.1588 0.0000 (  2709 PWs)   bands (ev):

   -18.5124 -11.1345  -7.2995  -6.7247   1.6830   3.5618   4.3291   4.4554

     occupation numbers 
     1.0000   1.0000   1.0000   1.0000   0.0000   0.0000   0.0000   0.0000

          k =-0.3750 0.2223 0.0000 (  2705 PWs)   bands (ev):

   -18.2865 -11.8293  -6.7841  -6.4865   1.1514   3.7452   4.2731   4.8440

     occupation numbers 
     1.0000   1.0000   1.0000   1.0000   0.0000   0.0000   0.0000   0.0000

          k =-0.3333 0.2541 0.0000 (  2708 PWs)   bands (ev):

   -18.4214 -11.6436  -6.6272  -6.4293   1.3522   3.4298   3.9284   4.6378

     occupation numbers 
     1.0000   1.0000   1.0000   1.0000   0.0000   0.0000   0.0000   0.0000

          k =-0.3333 0.3176 0.0000 (  2718 PWs)   bands (ev):

   -18.0832 -12.2278  -6.4549  -6.2628   0.7989   3.3696   4.4259   5.1980

     occupation numbers 
     1.0000   1.0000   1.0000   1.0000   0.0000   0.0000   0.0000   0.0000

          k =-0.3333 0.3811 0.0000 (  2712 PWs)   bands (ev):

   -17.6953 -12.7076  -6.7906  -5.8475   0.2969   3.3081   5.0953   5.8753

     occupation numbers 
     1.0000   1.0000   1.0000   1.0000   0.0000   0.0000   0.0000   0.0000

          k =-0.3333 0.4447 0.0000 (  2711 PWs)   bands (ev):

   -17.2828 -13.0557  -7.3820  -5.4056  -0.1229   3.1993   5.8943   6.6635

     occupation numbers 
     1.0000   1.0000   1.0000   1.0000   0.0000   0.0000   0.0000   0.0000

          k =-0.3333 0.5082 0.0000 (  2716 PWs)   bands (ev):

   -16.8860 -13.2332  -8.1475  -4.9715  -0.4372   3.0353   6.8114   7.5379

     occupation numbers 
     1.0000   1.0000   1.0000   1.0000   0.0000   0.0000   0.0000   0.0000

          k =-0.3333 0.5717 0.0000 (  2724 PWs)   bands (ev):

   -16.5586 -13.1924  -9.0087  -4.5876  -0.6321   2.8575   7.8334   8.2725

     occupation numbers 
     1.0000   1.0000   1.0000   1.0000   0.0000   0.0000   0.0000   0.0000

          k =-0.3333 0.6352 0.0000 (  2737 PWs)   bands (ev):

   -16.3417 -12.9049  -9.8990  -4.2952  -0.7147   2.7066   8.0359   8.3929

     occupation numbers 
     1.0000   1.0000   1.0000   1.0000   0.0000   0.0000   0.0000   0.0000

          k =-0.3333 0.6987 0.0000 (  2733 PWs)   bands (ev):

   -16.2328 -12.4050 -10.7520  -4.1185  -0.7239   2.6080   7.6877   8.2269

     occupation numbers 
     1.0000   1.0000   1.0000   1.0000   0.0000   0.0000   0.0000   0.0000

          k =-0.3333 0.7623 0.0000 (  2738 PWs)   bands (ev):

   -16.2016 -11.9583 -11.3133  -4.0603  -0.7179   2.5737   7.5541   8.1681

     occupation numbers 
     1.0000   1.0000   1.0000   1.0000   0.0000   0.0000   0.0000   0.0000

          k =-0.3333 0.8258 0.0000 (  2733 PWs)   bands (ev):

   -16.2324 -12.4084 -10.7488  -4.1177  -0.7252   2.6075   7.6881   8.2268

     occupation numbers 
     1.0000   1.0000   1.0000   1.0000   0.0000   0.0000   0.0000   0.0000

          k =-0.3333 0.8893 0.0000 (  2737 PWs)   bands (ev):

   -16.3410 -12.9086  -9.8955  -4.2939  -0.7170   2.7055   8.0365   8.3929

     occupation numbers 
     1.0000   1.0000   1.0000   1.0000   0.0000   0.0000   0.0000   0.0000

          k =-0.3333 0.9528 0.0000 (  2724 PWs)   bands (ev):

   -16.5577 -13.1961  -9.0051  -4.5860  -0.6349   2.8557   7.8333   8.2729

     occupation numbers 
     1.0000   1.0000   1.0000   1.0000   0.0000   0.0000   0.0000   0.0000

          k =-0.3333-0.5082 0.0000 (  2716 PWs)   bands (ev):

   -16.8852 -13.2367  -8.1437  -4.9699  -0.4401   3.0328   6.8114   7.5379

     occupation numbers 
     1.0000   1.0000   1.0000   1.0000   0.0000   0.0000   0.0000   0.0000

          k =-0.3333-0.4447 0.0000 (  2711 PWs)   bands (ev):

   -17.2822 -13.0590  -7.3779  -5.4043  -0.1257   3.1960   5.8943   6.6635

     occupation numbers 
     1.0000   1.0000   1.0000   1.0000   0.0000   0.0000   0.0000   0.0000

          k =-0.3333-0.3811 0.0000 (  2712 PWs)   bands (ev):

   -17.6949 -12.7108  -6.7863  -5.8463   0.2944   3.3043   5.0954   5.8753

     occupation numbers 
     1.0000   1.0000   1.0000   1.0000   0.0000   0.0000   0.0000   0.0000

          k =-0.3333-0.3176 0.0000 (  2718 PWs)   bands (ev):

   -18.0830 -12.2308  -6.4504  -6.2619   0.7966   3.3657   4.4260   5.1979

     occupation numbers 
     1.0000   1.0000   1.0000   1.0000   0.0000   0.0000   0.0000   0.0000

          k =-0.3333-0.2541 0.0000 (  2708 PWs)   bands (ev):

   -18.4212 -11.6466  -6.6265  -6.4248   1.3504   3.4264   3.9280   4.6377

     occupation numbers 
     1.0000   1.0000   1.0000   1.0000   0.0000   0.0000   0.0000   0.0000

          k =-0.3333-0.1906 0.0000 (  2711 PWs)   bands (ev):

   -18.6949 -10.9790  -6.9236  -6.7046   1.9143   3.2949   3.8436   4.1962

     occupation numbers 
     1.0000   1.0000   1.0000   1.0000   0.0000   0.0000   0.0000   0.0000

          k =-0.3333-0.1270 0.0000 (  2711 PWs)   bands (ev):

   -18.8953 -10.2479  -7.2264  -7.1425   2.4310   3.0315   3.8711   3.9425

     occupation numbers 
     1.0000   1.0000   1.0000   1.0000   0.0000   0.0000   0.0000   0.0000

          k =-0.3333-0.0635 0.0000 (  2704 PWs)   bands (ev):

   -19.0172  -9.4774  -7.9027  -7.2762   2.8222   2.8563   3.6583   3.8505

     occupation numbers 
     1.0000   1.0000   1.0000   1.0000   0.0000   0.0000   0.0000   0.0000

          k =-0.3333 0.0000 0.0000 (  2706 PWs)   bands (ev):

   -19.0582  -8.7992  -8.5554  -7.3212   2.7968   2.9805   3.5742   3.8022

     occupation numbers 
     1.0000   1.0000   1.0000   1.0000   0.0000   0.0000   0.0000   0.0000

          k =-0.3333 0.0635 0.0000 (  2704 PWs)   bands (ev):

   -19.0172  -9.4741  -7.9065  -7.2764   2.8227   2.8564   3.6584   3.8508

     occupation numbers 
     1.0000   1.0000   1.0000   1.0000   0.0000   0.0000   0.0000   0.0000

          k =-0.3333 0.1270 0.0000 (  2711 PWs)   bands (ev):

   -18.8953 -10.2447  -7.2305  -7.1428   2.4321   3.0317   3.8712   3.9437

     occupation numbers 
     1.0000   1.0000   1.0000   1.0000   0.0000   0.0000   0.0000   0.0000

          k =-0.3333 0.1906 0.0000 (  2711 PWs)   bands (ev):

   -18.6950 -10.9760  -6.9241  -6.7089   1.9158   3.2957   3.8460   4.1963

     occupation numbers 
     1.0000   1.0000   1.0000   1.0000   0.0000   0.0000   0.0000   0.0000

          k =-0.2917 0.2223 0.0000 (  2705 PWs)   bands (ev):

   -18.8232 -10.7728  -7.0601  -6.3106   2.1271   3.0530   3.3644   4.0185

     occupation numbers 
     1.0000   1.0000   1.0000   1.0000   0.0000   0.0000   0.0000   0.0000

          k =-0.2917 0.2859 0.0000 (  2711 PWs)   bands (ev):

   -18.5023 -11.4136  -6.7046  -6.3113   1.5463   3.0068   3.7344   4.5107

     occupation numbers 
     1.0000   1.0000   1.0000   1.0000   0.0000   0.0000   0.0000   0.0000

          k =-0.2917 0.3494 0.0000 (  2712 PWs)   bands (ev):

   -18.1147 -11.9737  -6.6162  -6.2774   0.9776   2.8706   4.3435   5.1257

     occupation numbers 
     1.0000   1.0000   1.0000   1.0000   0.0000   0.0000   0.0000   0.0000

          k =-0.2917 0.4129 0.0000 (  2713 PWs)   bands (ev):

   -17.6737 -12.4351  -7.1785  -5.7935   0.4517   2.6799   5.0850   5.8580

     occupation numbers 
     1.0000   1.0000   1.0000   1.0000   0.0000   0.0000   0.0000   0.0000

          k =-0.2917 0.4764 0.0000 (  2713 PWs)   bands (ev):

   -17.2020 -12.7752  -7.9215  -5.2747  -0.0111   2.4408   5.9474   6.6965

     occupation numbers 
     1.0000   1.0000   1.0000   1.0000   0.0000   0.0000   0.0000   0.0000

          k =-0.2917 0.5399 0.0000 (  2724 PWs)   bands (ev):

   -16.7370 -12.9615  -8.7679  -4.7529  -0.3985   2.1965   6.9254   7.5974

     occupation numbers 
     1.0000   1.0000   1.0000   1.0000   0.0000   0.0000   0.0000   0.0000

          k =-0.2917 0.6035 0.0000 (  2735 PWs)   bands (ev):

   -16.3343 -12.9510  -9.6496  -4.2726  -0.7019   1.9869   8.0095   8.2264

     occupation numbers 
     1.0000   1.0000   1.0000   1.0000   0.0000   0.0000   0.0000   0.0000

          k =-0.2917 0.6670 0.0000 (  2743 PWs)   bands (ev):

   -16.0514 -12.7151 -10.4996  -3.8928  -0.9139   1.8368   8.0318   9.0828

     occupation numbers 
     1.0000   1.0000   1.0000   1.0000   0.0000   0.0000   0.0000   0.0000

          k =-0.2917 0.7305 0.0000 (  2746 PWs)   bands (ev):

   -15.9134 -12.3310 -11.1930  -3.6786  -1.0251   1.7588   7.7963   9.0503

     occupation numbers 
     1.0000   1.0000   1.0000   1.0000   0.0000   0.0000   0.0000   0.0000

          k =-0.2917 0.7940 0.0000 (  2746 PWs)   bands (ev):

   -15.9131 -12.3335 -11.1907  -3.6781  -1.0258   1.7586   7.7966   9.0503

     occupation numbers 
     1.0000   1.0000   1.0000   1.0000   0.0000   0.0000   0.0000   0.0000

          k =-0.2917 0.8576 0.0000 (  2743 PWs)   bands (ev):

   -16.0508 -12.7188 -10.4962  -3.8915  -0.9159   1.8361   8.0325   9.0830

     occupation numbers 
     1.0000   1.0000   1.0000   1.0000   0.0000   0.0000   0.0000   0.0000

          k =-0.2917 0.9211 0.0000 (  2735 PWs)   bands (ev):

   -16.3335 -12.9548  -9.6460  -4.2711  -0.7045   1.9857   8.0095   8.2271

     occupation numbers 
     1.0000   1.0000   1.0000   1.0000   0.0000   0.0000   0.0000   0.0000

          k =-0.2917-0.5399 0.0000 (  2724 PWs)   bands (ev):

   -16.7363 -12.9651  -8.7641  -4.7514  -0.4012   2.1948   6.9254   7.5976

     occupation numbers 
     1.0000   1.0000   1.0000   1.0000   0.0000   0.0000   0.0000   0.0000

          k =-0.2917-0.4764 0.0000 (  2713 PWs)   bands (ev):

   -17.2015 -12.7786  -7.9175  -5.2734  -0.0138   2.4385   5.9474   6.6966

     occupation numbers 
     1.0000   1.0000   1.0000   1.0000   0.0000   0.0000   0.0000   0.0000

          k =-0.2917-0.4129 0.0000 (  2713 PWs)   bands (ev):

   -17.6734 -12.4383  -7.1742  -5.7925   0.4493   2.6768   5.0850   5.8580

     occupation numbers 
     1.0000   1.0000   1.0000   1.0000   0.0000   0.0000   0.0000   0.0000

          k =-0.2917-0.3494 0.0000 (  2712 PWs)   bands (ev):

   -18.1144 -11.9768  -6.6117  -6.2765   0.9754   2.8669   4.3435   5.1256

     occupation numbers 
     1.0000   1.0000   1.0000   1.0000   0.0000   0.0000   0.0000   0.0000

          k =-0.2917-0.2859 0.0000 (  2711 PWs)   bands (ev):

   -18.5021 -11.4167  -6.7039  -6.3066   1.5444   3.0028   3.7345   4.5107

     occupation numbers 
     1.0000   1.0000   1.0000   1.0000   0.0000   0.0000   0.0000   0.0000

          k =-0.2917-0.2223 0.0000 (  2705 PWs)   bands (ev):

   -18.8231 -10.7760  -7.0596  -6.3059   2.1256   3.0507   3.3629   4.0183

     occupation numbers 
     1.0000   1.0000   1.0000   1.0000   0.0000   0.0000   0.0000   0.0000

          k =-0.2917-0.1588 0.0000 (  2703 PWs)   bands (ev):

   -19.0691 -10.0724  -7.3336  -6.5984   2.6694   2.7840   3.4881   3.6540

     occupation numbers 
     1.0000   1.0000   1.0000   1.0000   0.0000   0.0000   0.0000   0.0000

          k =-0.2917-0.0953 0.0000 (  2703 PWs)   bands (ev):

   -19.2355  -9.3278  -7.5196  -7.1175   2.5481   3.0840   3.4441   3.5156

     occupation numbers 
     1.0000   1.0000   1.0000   1.0000   0.0000   0.0000   0.0000   0.0000

          k =-0.2917-0.0318 0.0000 (  2689 PWs)   bands (ev):

   -19.3193  -8.5848  -7.7651  -7.6134   2.4268   3.1846   3.4283   3.4855

     occupation numbers 
     1.0000   1.0000   1.0000   1.0000   0.0000   0.0000   0.0000   0.0000

          k =-0.2917 0.0318 0.0000 (  2689 PWs)   bands (ev):

   -19.3193  -8.5814  -7.7688  -7.6135   2.4269   3.1845   3.4284   3.4858

     occupation numbers 
     1.0000   1.0000   1.0000   1.0000   0.0000   0.0000   0.0000   0.0000

          k =-0.2917 0.0953 0.0000 (  2703 PWs)   bands (ev):

   -19.2355  -9.3244  -7.5198  -7.1217   2.5482   3.0843   3.4446   3.5163

     occupation numbers 
     1.0000   1.0000   1.0000   1.0000   0.0000   0.0000   0.0000   0.0000

          k =-0.2917 0.1588 0.0000 (  2703 PWs)   bands (ev):

   -19.0692 -10.0691  -7.3339  -6.6029   2.6704   2.7844   3.4908   3.6543

     occupation numbers 
     1.0000   1.0000   1.0000   1.0000   0.0000   0.0000   0.0000   0.0000

          k =-0.2500 0.1906 0.0000 (  2704 PWs)   bands (ev):

   -19.1869  -9.8543  -7.4603  -6.1730   2.6012   2.8421   2.9108   3.5446

     occupation numbers 
     1.0000   1.0000   1.0000   1.0000   0.0000   0.0000   0.0000   0.0000

          k =-0.2500 0.2541 0.0000 (  2709 PWs)   bands (ev):

   -18.8953 -10.5316  -7.1310  -6.1580   2.3141   2.6068   3.1225   3.9216

     occupation numbers 
     1.0000   1.0000   1.0000   1.0000   0.0000   0.0000   0.0000   0.0000

          k =-0.2500 0.3176 0.0000 (  2700 PWs)   bands (ev):

   -18.5279 -11.1474  -6.7176  -6.4373   1.7242   2.4102   3.6718   4.4631

     occupation numbers 
     1.0000   1.0000   1.0000   1.0000   0.0000   0.0000   0.0000   0.0000

          k =-0.2500 0.3811 0.0000 (  2692 PWs)   bands (ev):

   -18.0924 -11.6862  -6.9700  -6.2297   1.1389   2.1552   4.3542   5.1329

     occupation numbers 
     1.0000   1.0000   1.0000   1.0000   0.0000   0.0000   0.0000   0.0000

          k =-0.2500 0.4447 0.0000 (  2712 PWs)   bands (ev):

   -17.6012 -12.1335  -7.6857  -5.6808   0.5824   1.8529   5.1585   5.9194

     occupation numbers 
     1.0000   1.0000   1.0000   1.0000   0.0000   0.0000   0.0000   0.0000

          k =-0.2500 0.5082 0.0000 (  2714 PWs)   bands (ev):

   -17.0753 -12.4723  -8.5098  -5.0902   0.0657   1.5475   6.0818   6.8043

     occupation numbers 
     1.0000   1.0000   1.0000   1.0000   0.0000   0.0000   0.0000   0.0000

          k =-0.2500 0.5717 0.0000 (  2723 PWs)   bands (ev):

   -16.5509 -12.6790  -9.3742  -4.4871  -0.4081   1.2792   7.1199   7.7125

     occupation numbers 
     1.0000   1.0000   1.0000   1.0000   0.0000   0.0000   0.0000   0.0000

          k =-0.2500 0.6352 0.0000 (  2739 PWs)   bands (ev):

   -16.0874 -12.7229 -10.2099  -3.9171  -0.8332   1.0742   8.1986   8.2625

     occupation numbers 
     1.0000   1.0000   1.0000   1.0000   0.0000   0.0000   0.0000   0.0000

          k =-0.2500 0.6987 0.0000 (  2742 PWs)   bands (ev):

   -15.7649 -12.5978 -10.9170  -3.4620  -1.1742   0.9467   8.0489   9.4707

     occupation numbers 
     1.0000   1.0000   1.0000   1.0000   0.0000   0.0000   0.0000   0.0000

          k =-0.2500 0.7623 0.0000 (  2732 PWs)   bands (ev):

   -15.6496 -12.4700 -11.2480  -3.2717  -1.3211   0.9034   7.9456   9.9439

     occupation numbers 
     1.0000   1.0000   1.0000   1.0002   0.0000   0.0000   0.0000   0.0000

          k =-0.2500 0.8258 0.0000 (  2742 PWs)   bands (ev):

   -15.7644 -12.6010 -10.9141  -3.4609  -1.1757   0.9463   8.0495   9.4706

     occupation numbers 
     1.0000   1.0000   1.0000   1.0000   0.0000   0.0000   0.0000   0.0000

          k =-0.2500 0.8893 0.0000 (  2739 PWs)   bands (ev):

   -16.0867 -12.7267 -10.2063  -3.9157  -0.8355   1.0734   8.1995   8.2624

     occupation numbers 
     1.0000   1.0000   1.0000   1.0000   0.0000   0.0000   0.0000   0.0000

          k =-0.2500-0.5717 0.0000 (  2723 PWs)   bands (ev):

   -16.5502 -12.6827  -9.3704  -4.4858  -0.4106   1.2780   7.1198   7.7128

     occupation numbers 
     1.0000   1.0000   1.0000   1.0000   0.0000   0.0000   0.0000   0.0000

          k =-0.2500-0.5082 0.0000 (  2714 PWs)   bands (ev):

   -17.0749 -12.4758  -8.5058  -5.0890   0.0633   1.5458   6.0817   6.8044

     occupation numbers 
     1.0000   1.0000   1.0000   1.0000   0.0000   0.0000   0.0000   0.0000

          k =-0.2500-0.4447 0.0000 (  2712 PWs)   bands (ev):

   -17.6009 -12.1369  -7.6814  -5.6798   0.5802   1.8507   5.1585   5.9195

     occupation numbers 
     1.0000   1.0000   1.0000   1.0000   0.0000   0.0000   0.0000   0.0000

          k =-0.2500-0.3811 0.0000 (  2692 PWs)   bands (ev):

   -18.0922 -11.6895  -6.9655  -6.2289   1.1369   2.1522   4.3542   5.1328

     occupation numbers 
     1.0000   1.0000   1.0000   1.0000   0.0000   0.0000   0.0000   0.0000

          k =-0.2500-0.3176 0.0000 (  2700 PWs)   bands (ev):

   -18.5278 -11.1507  -6.7170  -6.4324   1.7225   2.4066   3.6719   4.4630

     occupation numbers 
     1.0000   1.0000   1.0000   1.0000   0.0000   0.0000   0.0000   0.0000

          k =-0.2500-0.2541 0.0000 (  2709 PWs)   bands (ev):

   -18.8952 -10.5349  -7.1305  -6.1530   2.3127   2.6028   3.1225   3.9214

     occupation numbers 
     1.0000   1.0000   1.0000   1.0000   0.0000   0.0000   0.0000   0.0000

          k =-0.2500-0.1906 0.0000 (  2704 PWs)   bands (ev):

   -19.1869  -9.8577  -7.4600  -6.1680   2.6001   2.8413   2.9080   3.5443

     occupation numbers 
     1.0000   1.0000   1.0000   1.0000   0.0000   0.0000   0.0000   0.0000

          k =-0.2500-0.1270 0.0000 (  2695 PWs)   bands (ev):

   -19.3980  -9.1394  -7.6993  -6.4616   2.3203   3.0092   3.1245   3.4669

     occupation numbers 
     1.0000   1.0000   1.0000   1.0000   0.0000   0.0000   0.0000   0.0000

          k =-0.2500-0.0635 0.0000 (  2695 PWs)   bands (ev):

   -19.5258  -8.4134  -7.8444  -6.9627   2.1367   2.8901   3.1214   3.6872

     occupation numbers 
     1.0000   1.0000   1.0000   1.0000   0.0000   0.0000   0.0000   0.0000

          k =-0.2500 0.0000 0.0000 (  2692 PWs)   bands (ev):

   -19.5685  -7.8931  -7.8720  -7.4353   2.0749   2.8380   3.0752   3.9857

     occupation numbers 
     1.0000   1.0000   1.0000   1.0000   0.0000   0.0000   0.0000   0.0000

          k =-0.2500 0.0635 0.0000 (  2695 PWs)   bands (ev):

   -19.5258  -8.4098  -7.8445  -6.9669   2.1368   2.8900   3.1218   3.6898

     occupation numbers 
     1.0000   1.0000   1.0000   1.0000   0.0000   0.0000   0.0000   0.0000

          k =-0.2500 0.1270 0.0000 (  2695 PWs)   bands (ev):

   -19.3981  -9.1358  -7.6995  -6.4663   2.3205   3.0092   3.1272   3.4675

     occupation numbers 
     1.0000   1.0000   1.0000   1.0000   0.0000   0.0000   0.0000   0.0000

          k =-0.2083 0.1588 0.0000 (  2691 PWs)   bands (ev):

   -19.5032  -8.9149  -7.8134  -6.0189   2.1704   2.4987   2.8828   3.2366

     occupation numbers 
     1.0000   1.0000   1.0000   1.0000   0.0000   0.0000   0.0000   0.0000

          k =-0.2083 0.2223 0.0000 (  2701 PWs)   bands (ev):

   -19.2472  -9.6082  -7.5204  -6.0024   2.2023   2.5912   2.9457   3.5403

     occupation numbers 
     1.0000   1.0000   1.0000   1.0000   0.0000   0.0000   0.0000   0.0000

          k =-0.2083 0.2859 0.0000 (  2705 PWs)   bands (ev):

   -18.9104 -10.2617  -7.1359  -6.2657   1.9641   2.4694   3.0828   3.9030

     occupation numbers 
     1.0000   1.0000   1.0000   1.0000   0.0000   0.0000   0.0000   0.0000

          k =-0.2083 0.3494 0.0000 (  2701 PWs)   bands (ev):

   -18.4975 -10.8567  -6.7719  -6.6662   1.6647   1.8697   3.7051   4.4943

     occupation numbers 
     1.0000   1.0000   1.0000   1.0000   0.0000   0.0000   0.0000   0.0000

          k =-0.2083 0.4129 0.0000 (  2707 PWs)   bands (ev):

   -18.0158 -11.3809  -7.4568  -6.1200   1.2606   1.3129   4.4496   5.2195

     occupation numbers 
     1.0000   1.0000   1.0000   1.0000   0.0000   0.0000   0.0000   0.0000

          k =-0.2083 0.4764 0.0000 (  2702 PWs)   bands (ev):

   -17.4773 -11.8246  -8.2511  -5.5097   0.6629   0.9520   5.3148   6.0593

     occupation numbers 
     1.0000   1.0000   1.0000   1.0000   0.0000   0.0000   0.0000   0.0000

          k =-0.2083 0.5399 0.0000 (  2723 PWs)   bands (ev):

   -16.9026 -12.1803  -9.0883  -4.8531   0.0797   0.6254   6.2986   6.9857

     occupation numbers 
     1.0000   1.0000   1.0000   1.0000   0.0000   0.0000   0.0000   0.0000

          k =-0.2083 0.6035 0.0000 (  2737 PWs)   bands (ev):

   -16.3286 -12.4406  -9.8979  -4.1762  -0.4916   0.3629   7.3959   7.8788

     occupation numbers 
     1.0000   1.0000   1.0000   1.0000   0.0000   0.0000   0.0000   0.0000

          k =-0.2083 0.6670 0.0000 (  2736 PWs)   bands (ev):

   -15.8252 -12.5997 -10.5875  -3.5246  -1.0420   0.1813   8.2470   8.5941

     occupation numbers 
     1.0000   1.0000   1.0000   1.0000   0.0000   0.0000   0.0000   0.0000

          k =-0.2083 0.7305 0.0000 (  2736 PWs)   bands (ev):

   -15.5111 -12.6645 -11.0136  -3.0222  -1.4828   0.0886   8.1732   9.8479

     occupation numbers 
     1.0000   1.0000   1.0000   1.0118   0.0000   0.0000   0.0000   0.0000

          k =-0.2083 0.7940 0.0000 (  2736 PWs)   bands (ev):

   -15.5108 -12.6661 -11.0122  -3.0214  -1.4838   0.0885   8.1736   9.8477

     occupation numbers 
     1.0000   1.0000   1.0000   1.0119   0.0000   0.0000   0.0000   0.0000

          k =-0.2083 0.8576 0.0000 (  2736 PWs)   bands (ev):

   -15.8246 -12.6031 -10.5843  -3.5233  -1.0438   0.1808   8.2478   8.5941

     occupation numbers 
     1.0000   1.0000   1.0000   1.0000   0.0000   0.0000   0.0000   0.0000

          k =-0.2083-0.6035 0.0000 (  2737 PWs)   bands (ev):

   -16.3280 -12.4444  -9.8941  -4.1750  -0.4937   0.3621   7.3958   7.8793

     occupation numbers 
     1.0000   1.0000   1.0000   1.0000   0.0000   0.0000   0.0000   0.0000

          k =-0.2083-0.5399 0.0000 (  2723 PWs)   bands (ev):

   -16.9022 -12.1840  -9.0842  -4.8521   0.0776   0.6242   6.2985   6.9858

     occupation numbers 
     1.0000   1.0000   1.0000   1.0000   0.0000   0.0000   0.0000   0.0000

          k =-0.2083-0.4764 0.0000 (  2702 PWs)   bands (ev):

   -17.4770 -11.8281  -8.2468  -5.5089   0.6609   0.9503   5.3148   6.0593

     occupation numbers 
     1.0000   1.0000   1.0000   1.0000   0.0000   0.0000   0.0000   0.0000

          k =-0.2083-0.4129 0.0000 (  2707 PWs)   bands (ev):

   -18.0156 -11.3843  -7.4522  -6.1194   1.2587   1.3108   4.4496   5.2195

     occupation numbers 
     1.0000   1.0000   1.0000   1.0000   0.0000   0.0000   0.0000   0.0000

          k =-0.2083-0.3494 0.0000 (  2701 PWs)   bands (ev):

   -18.4973 -10.8601  -6.7670  -6.6656   1.6619   1.8681   3.7051   4.4943

     occupation numbers 
     1.0000   1.0000   1.0000   1.0000   0.0000   0.0000   0.0000   0.0000

          k =-0.2083-0.2859 0.0000 (  2705 PWs)   bands (ev):

   -18.9103 -10.2651  -7.1355  -6.2605   1.9606   2.4681   3.0828   3.9031

     occupation numbers 
     1.0000   1.0000   1.0000   1.0000   0.0000   0.0000   0.0000   0.0000

          k =-0.2083-0.2223 0.0000 (  2701 PWs)   bands (ev):

   -19.2472  -9.6117  -7.5201  -5.9971   2.1984   2.5912   2.9451   3.5399

     occupation numbers 
     1.0000   1.0000   1.0000   1.0000   0.0000   0.0000   0.0000   0.0000

          k =-0.2083-0.1588 0.0000 (  2691 PWs)   bands (ev):

   -19.5032  -8.9186  -7.8132  -6.0136   2.1698   2.4953   2.8828   3.2367

     occupation numbers 
     1.0000   1.0000   1.0000   1.0000   0.0000   0.0000   0.0000   0.0000

          k =-0.2083-0.0953 0.0000 (  2691 PWs)   bands (ev):

   -19.6754  -8.2157  -8.0108  -6.2910   1.9300   2.6758   2.7658   3.0426

     occupation numbers 
     1.0000   1.0000   1.0000   1.0000   0.0000   0.0000   0.0000   0.0000

          k =-0.2083-0.0318 0.0000 (  2696 PWs)   bands (ev):

   -19.7619  -8.1102  -7.5778  -6.7294   1.8052   2.5615   2.7941   3.3240

     occupation numbers 
     1.0000   1.0000   1.0000   1.0000   0.0000   0.0000   0.0000   0.0000

          k =-0.2083 0.0318 0.0000 (  2696 PWs)   bands (ev):

   -19.7619  -8.1102  -7.5746  -6.7330   1.8052   2.5615   2.7944   3.3269

     occupation numbers 
     1.0000   1.0000   1.0000   1.0000   0.0000   0.0000   0.0000   0.0000

          k =-0.2083 0.0953 0.0000 (  2691 PWs)   bands (ev):

   -19.6754  -8.2118  -8.0109  -6.2959   1.9301   2.6758   2.7687   3.0432

     occupation numbers 
     1.0000   1.0000   1.0000   1.0000   0.0000   0.0000   0.0000   0.0000

          k =-0.1667 0.1270 0.0000 (  2687 PWs)   bands (ev):

   -19.7667  -8.1106  -7.9920  -5.8478   1.8065   2.1065   2.5448   2.8468

     occupation numbers 
     1.0000   1.0000   1.0000   1.0000   0.0000   0.0000   0.0000   0.0000

          k =-0.1667 0.1906 0.0000 (  2694 PWs)   bands (ev):

   -19.5500  -8.6714  -7.8602  -5.8516   1.8224   2.1430   2.8217   3.1619

     occupation numbers 
     1.0000   1.0000   1.0000   1.0000   0.0000   0.0000   0.0000   0.0000

          k =-0.1667 0.2541 0.0000 (  2705 PWs)   bands (ev):

   -19.2494  -9.3423  -7.5136  -6.1139   1.5657   2.5779   3.0144   3.5977

     occupation numbers 
     1.0000   1.0000   1.0000   1.0000   0.0000   0.0000   0.0000   0.0000

          k =-0.1667 0.3176 0.0000 (  2707 PWs)   bands (ev):

   -18.8681  -9.9768  -7.0750  -6.6011   1.2443   2.5787   3.1393   3.9590

     occupation numbers 
     1.0000   1.0000   1.0000   1.0000   0.0000   0.0000   0.0000   0.0000

          k =-0.1667 0.3811 0.0000 (  2702 PWs)   bands (ev):

   -18.4107 -10.5592  -7.2550  -6.5507   0.8581   1.9597   3.8229   4.6043

     occupation numbers 
     1.0000   1.0000   1.0000   1.0000   0.0000   0.0000   0.0000   0.0000

          k =-0.1667 0.4447 0.0000 (  2702 PWs)   bands (ev):

   -17.8848 -11.0821  -8.0134  -5.9491   0.4491   1.3159   4.6282   5.3860

     occupation numbers 
     1.0000   1.0000   1.0000   1.0000   0.0000   0.0000   0.0000   0.0000

          k =-0.1667 0.5082 0.0000 (  2700 PWs)   bands (ev):

   -17.3024 -11.5460  -8.8132  -5.2819   0.0658   0.6650   5.5543   6.2780

     occupation numbers 
     1.0000   1.0000   1.0000   1.0000   0.0000   0.0000   0.0000   0.0000

          k =-0.1667 0.5717 0.0000 (  2712 PWs)   bands (ev):

   -16.6848 -11.9609  -9.5843  -4.5655  -0.2564   0.0056   6.5981   7.2407

     occupation numbers 
     1.0000   1.0000   1.0000   1.0000   0.0000   0.0000   0.0000   0.0000

          k =-0.1667 0.6352 0.0000 (  2731 PWs)   bands (ev):

   -16.0742 -12.3436 -10.2383  -3.8231  -0.6656  -0.4966   7.7533   8.1031

     occupation numbers 
     1.0000   1.0000   1.0000   1.0000   0.0000   0.0000   0.0000   0.0000

          k =-0.1667 0.6987 0.0000 (  2727 PWs)   bands (ev):

   -15.5643 -12.6800 -10.6752  -3.1005  -1.3309  -0.6440   8.4103   9.0029

     occupation numbers 
     1.0000   1.0000   1.0000   1.0042   0.0000   0.0000   0.0000   0.0000

          k =-0.1667 0.7623 0.0000 (  2726 PWs)   bands (ev):

   -15.3456 -12.8368 -10.8261  -2.6510  -1.7590  -0.6937   8.4096  10.1640

     occupation numbers 
     1.0000   1.0000   1.0000   1.0524   0.0001   0.0000   0.0000   0.0000

          k =-0.1667 0.8258 0.0000 (  2727 PWs)   bands (ev):

   -15.5639 -12.6821 -10.6733  -3.0995  -1.3324  -0.6443   8.4109   9.0028

     occupation numbers 
     1.0000   1.0000   1.0000   1.0043   0.0000   0.0000   0.0000   0.0000

          k =-0.1667-0.6352 0.0000 (  2731 PWs)   bands (ev):

   -16.0737 -12.3469 -10.2350  -3.8221  -0.6673  -0.4972   7.7532   8.1036

     occupation numbers 
     1.0000   1.0000   1.0000   1.0000   0.0000   0.0000   0.0000   0.0000

          k =-0.1667-0.5717 0.0000 (  2712 PWs)   bands (ev):

   -16.6845 -11.9646  -9.5804  -4.5646  -0.2572   0.0039   6.5981   7.2409

     occupation numbers 
     1.0000   1.0000   1.0000   1.0000   0.0000   0.0000   0.0000   0.0000

          k =-0.1667-0.5082 0.0000 (  2700 PWs)   bands (ev):

   -17.3022 -11.5497  -8.8089  -5.2812   0.0646   0.6632   5.5543   6.2780

     occupation numbers 
     1.0000   1.0000   1.0000   1.0000   0.0000   0.0000   0.0000   0.0000

          k =-0.1667-0.4447 0.0000 (  2702 PWs)   bands (ev):

   -17.8847 -11.0858  -8.0088  -5.9485   0.4475   1.3143   4.6282   5.3860

     occupation numbers 
     1.0000   1.0000   1.0000   1.0000   0.0000   0.0000   0.0000   0.0000

          k =-0.1667-0.3811 0.0000 (  2702 PWs)   bands (ev):

   -18.4106 -10.5628  -7.2501  -6.5502   0.8560   1.9583   3.8229   4.6043

     occupation numbers 
     1.0000   1.0000   1.0000   1.0000   0.0000   0.0000   0.0000   0.0000

          k =-0.1667-0.3176 0.0000 (  2707 PWs)   bands (ev):

   -18.8680  -9.9804  -7.0746  -6.5959   1.2417   2.5776   3.1393   3.9584

     occupation numbers 
     1.0000   1.0000   1.0000   1.0000   0.0000   0.0000   0.0000   0.0000

          k =-0.1667-0.2541 0.0000 (  2705 PWs)   bands (ev):

   -19.2494  -9.3460  -7.5133  -6.1084   1.5624   2.5779   3.0141   3.6032

     occupation numbers 
     1.0000   1.0000   1.0000   1.0000   0.0000   0.0000   0.0000   0.0000

          k =-0.1667-0.1906 0.0000 (  2694 PWs)   bands (ev):

   -19.5500  -8.6753  -7.8600  -5.8460   1.8187   2.1431   2.8218   3.1619

     occupation numbers 
     1.0000   1.0000   1.0000   1.0000   0.0000   0.0000   0.0000   0.0000

          k =-0.1667-0.1270 0.0000 (  2687 PWs)   bands (ev):

   -19.7667  -8.1104  -7.9961  -5.8423   1.8062   2.1030   2.5449   2.8470

     occupation numbers 
     1.0000   1.0000   1.0000   1.0000   0.0000   0.0000   0.0000   0.0000

          k =-0.1667-0.0635 0.0000 (  2692 PWs)   bands (ev):

   -19.8975  -8.2618  -7.3637  -6.0687   1.6205   2.3681   2.4171   2.6752

     occupation numbers 
     1.0000   1.0000   1.0000   1.0000   0.0000   0.0000   0.0000   0.0000

          k =-0.1667 0.0000 0.0000 (  2686 PWs)   bands (ev):

   -19.9411  -8.3124  -6.9986  -6.3009   1.5572   2.3083   2.5436   2.8135

     occupation numbers 
     1.0000   1.0000   1.0000   1.0000   0.0000   0.0000   0.0000   0.0000

          k =-0.1667 0.0635 0.0000 (  2692 PWs)   bands (ev):

   -19.8975  -8.2619  -7.3598  -6.0734   1.6206   2.3681   2.4205   2.6751

     occupation numbers 
     1.0000   1.0000   1.0000   1.0000   0.0000   0.0000   0.0000   0.0000

          k =-0.1250 0.0953 0.0000 (  2690 PWs)   bands (ev):

   -19.9741  -8.3461  -7.1509  -5.6456   1.5217   1.7383   2.2585   2.5422

     occupation numbers 
     1.0000   1.0000   1.0000   1.0000   0.0000   0.0000   0.0000   0.0000

          k =-0.1250 0.1588 0.0000 (  2685 PWs)   bands (ev):

   -19.7990  -8.1424  -7.7618  -5.7074   1.4886   1.7819   2.4973   2.8014

     occupation numbers 
     1.0000   1.0000   1.0000   1.0000   0.0000   0.0000   0.0000   0.0000

          k =-0.1250 0.2223 0.0000 (  2693 PWs)   bands (ev):

   -19.5379  -8.4189  -7.8392  -5.9930   1.2416   2.1583   2.8372   3.1818

     occupation numbers 
     1.0000   1.0000   1.0000   1.0000   0.0000   0.0000   0.0000   0.0000

          k =-0.1250 0.2859 0.0000 (  2708 PWs)   bands (ev):

   -19.1933  -9.0726  -7.4399  -6.4752   0.9228   2.6577   3.0805   3.6647

     occupation numbers 
     1.0000   1.0000   1.0000   1.0000   0.0000   0.0000   0.0000   0.0000

          k =-0.1250 0.3494 0.0000 (  2694 PWs)   bands (ev):

   -18.7683  -9.6975  -7.1029  -6.9487   0.5212   2.6192   3.2795   4.0869

     occupation numbers 
     1.0000   1.0000   1.0000   1.0000   0.0000   0.0000   0.0000   0.0000

          k =-0.1250 0.4129 0.0000 (  2710 PWs)   bands (ev):

   -18.2681 -10.2833  -7.8226  -6.3721   0.0755   1.9661   4.0240   4.7943

     occupation numbers 
     1.0000   1.0000   1.0000   1.0000   0.0000   0.0000   0.0000   0.0000

          k =-0.1250 0.4764 0.0000 (  2695 PWs)   bands (ev):

   -17.7004 -10.8333  -8.5767  -5.7187  -0.3600   1.2773   4.8905   5.6334

     occupation numbers 
     1.0000   1.0000   1.0000   1.0000   0.0000   0.0000   0.0000   0.0000

          k =-0.1250 0.5399 0.0000 (  2704 PWs)   bands (ev):

   -17.0782 -11.3674  -9.2969  -5.0000  -0.7425   0.5655   5.8771   6.5762

     occupation numbers 
     1.0000   1.0000   1.0000   1.0000   0.0000   0.0000   0.0000   0.0000

          k =-0.1250 0.6035 0.0000 (  2709 PWs)   bands (ev):

   -16.4258 -11.9151  -9.9007  -4.2309  -1.0445  -0.1708   6.9801   7.5702

     occupation numbers 
     1.0000   1.0000   1.0000   1.0000   0.0000   0.0000   0.0000   0.0000

          k =-0.1250 0.6670 0.0000 (  2728 PWs)   bands (ev):

   -15.7980 -12.4709 -10.3175  -3.4326  -1.2516  -0.9323   8.1908   8.3984

     occupation numbers 
     1.0000   1.0000   1.0000   1.0000   0.0000   0.0000   0.0000   0.0000

          k =-0.1250 0.7305 0.0000 (  2726 PWs)   bands (ev):

   -15.3426 -12.8972 -10.5225  -2.6546  -1.6867  -1.3564   8.6820   9.4826

     occupation numbers 
     1.0000   1.0000   1.0000   1.0551   0.0000   0.0000   0.0000   0.0000

          k =-0.1250 0.7940 0.0000 (  2726 PWs)   bands (ev):

   -15.3424 -12.8980 -10.5218  -2.6538  -1.6877  -1.3565   8.6823   9.4825

     occupation numbers 
     1.0000   1.0000   1.0000   1.0545   0.0000   0.0000   0.0000   0.0000

          k =-0.1250-0.6670 0.0000 (  2728 PWs)   bands (ev):

   -15.7977 -12.4730 -10.3154  -3.4318  -1.2519  -0.9335   8.1908   8.3989

     occupation numbers 
     1.0000   1.0000   1.0000   1.0000   0.0000   0.0000   0.0000   0.0000

          k =-0.1250-0.6035 0.0000 (  2709 PWs)   bands (ev):

   -16.4255 -11.9181  -9.8975  -4.2302  -1.0451  -0.1722   6.9800   7.5704

     occupation numbers 
     1.0000   1.0000   1.0000   1.0000   0.0000   0.0000   0.0000   0.0000

          k =-0.1250-0.5399 0.0000 (  2704 PWs)   bands (ev):

   -17.0780 -11.3710  -9.2929  -4.9994  -0.7433   0.5642   5.8771   6.5763

     occupation numbers 
     1.0000   1.0000   1.0000   1.0000   0.0000   0.0000   0.0000   0.0000

          k =-0.1250-0.4764 0.0000 (  2695 PWs)   bands (ev):

   -17.7003 -10.8371  -8.5722  -5.7183  -0.3611   1.2760   4.8905   5.6334

     occupation numbers 
     1.0000   1.0000   1.0000   1.0000   0.0000   0.0000   0.0000   0.0000

          k =-0.1250-0.4129 0.0000 (  2710 PWs)   bands (ev):

   -18.2680 -10.2871  -7.8178  -6.3718   0.0741   1.9649   4.0240   4.7943

     occupation numbers 
     1.0000   1.0000   1.0000   1.0000   0.0000   0.0000   0.0000   0.0000

          k =-0.1250-0.3494 0.0000 (  2694 PWs)   bands (ev):

   -18.7682  -9.7013  -7.0978  -6.9484   0.5194   2.6182   3.2795   4.0869

     occupation numbers 
     1.0000   1.0000   1.0000   1.0000   0.0000   0.0000   0.0000   0.0000

          k =-0.1250-0.2859 0.0000 (  2708 PWs)   bands (ev):

   -19.1933  -9.0765  -7.4396  -6.4698   0.9204   2.6577   3.0802   3.6671

     occupation numbers 
     1.0000   1.0000   1.0000   1.0000   0.0000   0.0000   0.0000   0.0000

          k =-0.1250-0.2223 0.0000 (  2693 PWs)   bands (ev):

   -19.5379  -8.4230  -7.8391  -5.9873   1.2387   2.1583   2.8373   3.1818

     occupation numbers 
     1.0000   1.0000   1.0000   1.0000   0.0000   0.0000   0.0000   0.0000

          k =-0.1250-0.1588 0.0000 (  2685 PWs)   bands (ev):

   -19.7990  -8.1422  -7.7661  -5.7015   1.4852   1.7820   2.4974   2.8014

     occupation numbers 
     1.0000   1.0000   1.0000   1.0000   0.0000   0.0000   0.0000   0.0000

          k =-0.1250-0.0953 0.0000 (  2690 PWs)   bands (ev):

   -19.9741  -8.3460  -7.1551  -5.6402   1.5215   1.7350   2.2585   2.5423

     occupation numbers 
     1.0000   1.0000   1.0000   1.0000   0.0000   0.0000   0.0000   0.0000

          k =-0.1250-0.0318 0.0000 (  2690 PWs)   bands (ev):

   -20.0620  -8.4484  -6.7048  -5.7430   1.3949   2.0162   2.1375   2.3899

     occupation numbers 
     1.0000   1.0000   1.0000   1.0000   0.0000   0.0000   0.0000   0.0000

          k =-0.1250 0.0318 0.0000 (  2690 PWs)   bands (ev):

   -20.0620  -8.4484  -6.7024  -5.7459   1.3950   2.0188   2.1375   2.3895

     occupation numbers 
     1.0000   1.0000   1.0000   1.0000   0.0000   0.0000   0.0000   0.0000

          k =-0.0833 0.0635 0.0000 (  2681 PWs)   bands (ev):

   -20.1234  -8.5164  -6.5107  -5.3730   1.3190   1.3954   2.0504   2.3207

     occupation numbers 
     1.0000   1.0000   1.0000   1.0000   0.0000   0.0000   0.0000   0.0000

          k =-0.0833 0.1270 0.0000 (  2685 PWs)   bands (ev):

   -19.9912  -8.3619  -6.9550  -5.5530   1.2156   1.5103   2.2329   2.5274

     occupation numbers 
     1.0000   1.0000   1.0000   1.0000   0.0000   0.0000   0.0000   0.0000

          k =-0.0833 0.1906 0.0000 (  2686 PWs)   bands (ev):

   -19.7718  -8.1060  -7.5387  -5.9035   1.0102   1.8246   2.5328   2.8458

     occupation numbers 
     1.0000   1.0000   1.0000   1.0000   0.0000   0.0000   0.0000   0.0000

          k =-0.0833 0.2541 0.0000 (  2698 PWs)   bands (ev):

   -19.4669  -8.1773  -7.7508  -6.4054   0.7207   2.2610   2.9284   3.2855

     occupation numbers 
     1.0000   1.0000   1.0000   1.0000   0.0000   0.0000   0.0000   0.0000

          k =-0.0833 0.3176 0.0000 (  2702 PWs)   bands (ev):

   -19.0790  -8.8236  -7.3000  -7.0195   0.3273   2.8204   3.1166   3.7460

     occupation numbers 
     1.0000   1.0000   1.0000   1.0000   0.0000   0.0000   0.0000   0.0000

          k =-0.0833 0.3811 0.0000 (  2712 PWs)   bands (ev):

   -18.6118  -9.4570  -7.7034  -6.7585  -0.1366   2.5610   3.5032   4.2927

     occupation numbers 
     1.0000   1.0000   1.0000   1.0000   0.0000   0.0000   0.0000   0.0000

          k =-0.0833 0.4447 0.0000 (  2701 PWs)   bands (ev):

   -18.0707 -10.0792  -8.4073  -6.1328  -0.6138   1.8637   4.3089   5.0659

     occupation numbers 
     1.0000   1.0000   1.0000   1.0000   0.0000   0.0000   0.0000   0.0000

          k =-0.0833 0.5082 0.0000 (  2700 PWs)   bands (ev):

   -17.4645 -10.7145  -9.0664  -5.4321  -1.0525   1.1255   5.2364   5.9621

     occupation numbers 
     1.0000   1.0000   1.0000   1.0000   0.0000   0.0000   0.0000   0.0000

          k =-0.0833 0.5717 0.0000 (  2705 PWs)   bands (ev):

   -16.8081 -11.3926  -9.6092  -4.6677  -1.4170   0.3546   6.2829   6.9534

     occupation numbers 
     1.0000   1.0000   1.0000   1.0000   0.0000   0.0000   0.0000   0.0000

          k =-0.0833 0.6352 0.0000 (  2729 PWs)   bands (ev):

   -16.1329 -12.1039  -9.9929  -3.8546  -1.6868  -0.4485   7.4435   7.9715

     occupation numbers 
     1.0000   1.0000   1.0000   1.0000   0.0000   0.0000   0.0000   0.0000

          k =-0.0833 0.6987 0.0000 (  2730 PWs)   bands (ev):

   -15.5231 -12.7500 -10.2150  -3.0116  -1.8516  -1.2790   8.7059   8.7581

     occupation numbers 
     1.0000   1.0000   1.0000   1.0133   0.0008   0.0000   0.0000   0.0000

          k =-0.0833 0.7623 0.0000 (  2730 PWs)   bands (ev):

   -15.2309 -13.0574 -10.2871  -2.2608  -2.0245  -1.9069   8.9857   9.9150

     occupation numbers 
     1.0000   1.0000   1.0000   0.2048   0.0138   0.0021   0.0000   0.0000

          k =-0.0833-0.6987 0.0000 (  2730 PWs)   bands (ev):

   -15.5229 -12.7510 -10.2142  -3.0110  -1.8517  -1.2798   8.7059   8.7585

     occupation numbers 
     1.0000   1.0000   1.0000   1.0134   0.0008   0.0000   0.0000   0.0000

          k =-0.0833-0.6352 0.0000 (  2729 PWs)   bands (ev):

   -16.1327 -12.1057  -9.9910  -3.8541  -1.6871  -0.4494   7.4435   7.9717

     occupation numbers 
     1.0000   1.0000   1.0000   1.0000   0.0000   0.0000   0.0000   0.0000

          k =-0.0833-0.5717 0.0000 (  2705 PWs)   bands (ev):

   -16.8079 -11.3953  -9.6063  -4.6673  -1.4175   0.3537   6.2829   6.9535

     occupation numbers 
     1.0000   1.0000   1.0000   1.0000   0.0000   0.0000   0.0000   0.0000

          k =-0.0833-0.5082 0.0000 (  2700 PWs)   bands (ev):

   -17.4644 -10.7179  -9.0625  -5.4317  -1.0531   1.1246   5.2364   5.9622

     occupation numbers 
     1.0000   1.0000   1.0000   1.0000   0.0000   0.0000   0.0000   0.0000

          k =-0.0833-0.4447 0.0000 (  2701 PWs)   bands (ev):

   -18.0706 -10.0830  -8.4029  -6.1325  -0.6147   1.8628   4.3089   5.0655

     occupation numbers 
     1.0000   1.0000   1.0000   1.0000   0.0000   0.0000   0.0000   0.0000

          k =-0.0833-0.3811 0.0000 (  2712 PWs)   bands (ev):

   -18.6118  -9.4610  -7.6986  -6.7582  -0.1378   2.5602   3.5032   4.2930

     occupation numbers 
     1.0000   1.0000   1.0000   1.0000   0.0000   0.0000   0.0000   0.0000

          k =-0.0833-0.3176 0.0000 (  2702 PWs)   bands (ev):

   -19.0790  -8.8277  -7.2999  -7.0143   0.3258   2.8204   3.1162   3.7467

     occupation numbers 
     1.0000   1.0000   1.0000   1.0000   0.0000   0.0000   0.0000   0.0000

          k =-0.0833-0.2541 0.0000 (  2698 PWs)   bands (ev):

   -19.4669  -8.1816  -7.7507  -6.3999   0.7188   2.2610   2.9285   3.2855

     occupation numbers 
     1.0000   1.0000   1.0000   1.0000   0.0000   0.0000   0.0000   0.0000

          k =-0.0833-0.1906 0.0000 (  2686 PWs)   bands (ev):

   -19.7718  -8.1059  -7.5431  -5.8978   1.0078   1.8246   2.5328   2.8458

     occupation numbers 
     1.0000   1.0000   1.0000   1.0000   0.0000   0.0000   0.0000   0.0000

          k =-0.0833-0.1270 0.0000 (  2685 PWs)   bands (ev):

   -19.9912  -8.3619  -6.9593  -5.5475   1.2129   1.5103   2.2329   2.5274

     occupation numbers 
     1.0000   1.0000   1.0000   1.0000   0.0000   0.0000   0.0000   0.0000

          k =-0.0833-0.0635 0.0000 (  2681 PWs)   bands (ev):

   -20.1234  -8.5163  -6.5138  -5.3691   1.3189   1.3929   2.0504   2.3206

     occupation numbers 
     1.0000   1.0000   1.0000   1.0000   0.0000   0.0000   0.0000   0.0000

          k =-0.0833 0.0000 0.0000 (  2689 PWs)   bands (ev):

   -20.1676  -8.5680  -6.3356  -5.3270   1.2545   1.5111   1.9893   2.2034

     occupation numbers 
     1.0000   1.0000   1.0000   1.0000   0.0000   0.0000   0.0000   0.0000

          k =-0.0417 0.0318 0.0000 (  2683 PWs)   bands (ev):

   -20.2134  -8.6193  -6.1732  -5.0529   1.1008   1.1989   1.9248   2.1467

     occupation numbers 
     1.0000   1.0000   1.0000   1.0000   0.0000   0.0000   0.0000   0.0000

          k =-0.0417 0.0953 0.0000 (  2681 PWs)   bands (ev):

   -20.1249  -8.5157  -6.3913  -5.3361   1.0205   1.3263   2.0473   2.3409

     occupation numbers 
     1.0000   1.0000   1.0000   1.0000   0.0000   0.0000   0.0000   0.0000

          k =-0.0417 0.1588 0.0000 (  2683 PWs)   bands (ev):

   -19.9485  -8.3093  -6.8024  -5.8067   0.8826   1.5766   2.2908   2.5958

     occupation numbers 
     1.0000   1.0000   1.0000   1.0000   0.0000   0.0000   0.0000   0.0000

          k =-0.0417 0.2223 0.0000 (  2694 PWs)   bands (ev):

   -19.6854  -8.0018  -7.3528  -6.3770   0.6469   1.9494   2.6494   2.9718

     occupation numbers 
     1.0000   1.0000   1.0000   1.0000   0.0000   0.0000   0.0000   0.0000

          k =-0.0417 0.2859 0.0000 (  2694 PWs)   bands (ev):

   -19.3374  -7.9789  -7.5960  -7.0054   0.2888   2.4459   3.0825   3.4717

     occupation numbers 
     1.0000   1.0000   1.0000   1.0000   0.0000   0.0000   0.0000   0.0000

          k =-0.0417 0.3494 0.0000 (  2726 PWs)   bands (ev):

   -18.9075  -8.6379  -7.6659  -7.0959  -0.1681   3.0336   3.0664   3.9087

     occupation numbers 
     1.0000   1.0000   1.0000   1.0000   0.0000   0.0000   0.0000   0.0000

          k =-0.0417 0.4129 0.0000 (  2714 PWs)   bands (ev):

   -18.3998  -9.3214  -8.3193  -6.5067  -0.6673   2.3788   3.8107   4.5825

     occupation numbers 
     1.0000   1.0000   1.0000   1.0000   0.0000   0.0000   0.0000   0.0000

          k =-0.0417 0.4764 0.0000 (  2702 PWs)   bands (ev):

   -17.8207 -10.0502  -8.9088  -5.8360  -1.1500   1.6387   4.6778   5.4201

     occupation numbers 
     1.0000   1.0000   1.0000   1.0000   0.0000   0.0000   0.0000   0.0000

          k =-0.0417 0.5399 0.0000 (  2700 PWs)   bands (ev):

   -17.1805 -10.8369  -9.3871  -5.0934  -1.5711   0.8571   5.6657   6.3718

     occupation numbers 
     1.0000   1.0000   1.0000   1.0000   0.0000   0.0000   0.0000   0.0000

          k =-0.0417 0.6035 0.0000 (  2718 PWs)   bands (ev):

   -16.4986 -11.6555  -9.7399  -4.2910  -1.9024   0.0393   6.7710   7.4052

     occupation numbers 
     1.0000   1.0000   1.0000   1.0000   0.0019   0.0000   0.0000   0.0000

          k =-0.0417 0.6670 0.0000 (  2727 PWs)   bands (ev):

   -15.8214 -12.4381  -9.9710  -3.4438  -2.1287  -0.8106   7.9867   8.4271

     occupation numbers 
     1.0000   1.0000   1.0000   1.0000   0.0540   0.0000   0.0000   0.0000

          k =-0.0417 0.7305 0.0000 (  2731 PWs)   bands (ev):

   -15.2984 -13.0183 -10.0853  -2.5699  -2.2431  -1.6835   9.1151   9.2914

     occupation numbers 
     1.0000   1.0000   1.0000   0.9482   0.1757   0.0000   0.0000   0.0000

          k =-0.0417-0.7305 0.0000 (  2731 PWs)   bands (ev):

   -15.2983 -13.0186 -10.0851  -2.5696  -2.2432  -1.6838   9.1153   9.2914

     occupation numbers 
     1.0000   1.0000   1.0000   0.9476   0.1758   0.0000   0.0000   0.0000

          k =-0.0417-0.6670 0.0000 (  2727 PWs)   bands (ev):

   -15.8213 -12.4387  -9.9704  -3.4435  -2.1288  -0.8110   7.9866   8.4272

     occupation numbers 
     1.0000   1.0000   1.0000   1.0000   0.0541   0.0000   0.0000   0.0000

          k =-0.0417-0.6035 0.0000 (  2718 PWs)   bands (ev):

   -16.4985 -11.6566  -9.7386  -4.2907  -1.9026   0.0389   6.7710   7.4052

     occupation numbers 
     1.0000   1.0000   1.0000   1.0000   0.0020   0.0000   0.0000   0.0000

          k =-0.0417-0.5399 0.0000 (  2700 PWs)   bands (ev):

   -17.1805 -10.8387  -9.3850  -5.0932  -1.5714   0.8566   5.6656   6.3719

     occupation numbers 
     1.0000   1.0000   1.0000   1.0000   0.0000   0.0000   0.0000   0.0000

          k =-0.0417-0.4764 0.0000 (  2702 PWs)   bands (ev):

   -17.8207 -10.0530  -8.9058  -5.8359  -1.1504   1.6382   4.6778   5.4201

     occupation numbers 
     1.0000   1.0000   1.0000   1.0000   0.0000   0.0000   0.0000   0.0000

          k =-0.0417-0.4129 0.0000 (  2714 PWs)   bands (ev):

   -18.3998  -9.3250  -8.3153  -6.5066  -0.6678   2.3783   3.8107   4.5826

     occupation numbers 
     1.0000   1.0000   1.0000   1.0000   0.0000   0.0000   0.0000   0.0000

          k =-0.0417-0.3494 0.0000 (  2726 PWs)   bands (ev):

   -18.9075  -8.6419  -7.6613  -7.0958  -0.1688   3.0333   3.0664   3.9086

     occupation numbers 
     1.0000   1.0000   1.0000   1.0000   0.0000   0.0000   0.0000   0.0000

          k =-0.0417-0.2859 0.0000 (  2694 PWs)   bands (ev):

   -19.3374  -7.9832  -7.5959  -7.0005   0.2879   2.4459   3.0825   3.4717

     occupation numbers 
     1.0000   1.0000   1.0000   1.0000   0.0000   0.0000   0.0000   0.0000

          k =-0.0417-0.2223 0.0000 (  2694 PWs)   bands (ev):

   -19.6854  -8.0018  -7.3571  -6.3721   0.6457   1.9494   2.6494   2.9718

     occupation numbers 
     1.0000   1.0000   1.0000   1.0000   0.0000   0.0000   0.0000   0.0000

          k =-0.0417-0.1588 0.0000 (  2683 PWs)   bands (ev):

   -19.9485  -8.3093  -6.8062  -5.8021   0.8812   1.5765   2.2908   2.5958

     occupation numbers 
     1.0000   1.0000   1.0000   1.0000   0.0000   0.0000   0.0000   0.0000

          k =-0.0417-0.0953 0.0000 (  2681 PWs)   bands (ev):

   -20.1249  -8.5157  -6.3939  -5.3328   1.0189   1.3263   2.0473   2.3409

     occupation numbers 
     1.0000   1.0000   1.0000   1.0000   0.0000   0.0000   0.0000   0.0000

          k =-0.0417-0.0318 0.0000 (  2683 PWs)   bands (ev):

   -20.2134  -8.6193  -6.1741  -5.0517   1.1000   1.1988   1.9248   2.1469

     occupation numbers 
     1.0000   1.0000   1.0000   1.0000   0.0000   0.0000   0.0000   0.0000

     the Fermi energy is    -2.3520 ev

!    total energy              =     -36.72558545 Ry
     total all-electron energy =      -152.253780 Ry
     estimated scf accuracy    <          2.5E-11 Ry
     smearing contrib. (-TS)   =      -0.00003468 Ry
     internal energy E=F+TS    =     -36.72555076 Ry

     The total energy is F=E-TS. E is the sum of the following terms:
     one-electron contribution =    -131.46669295 Ry
     hartree contribution      =      67.19022826 Ry
     xc contribution           =      -8.94153854 Ry
     ewald contribution        =      48.82120906 Ry
     one-center paw contrib.   =     -12.32875661 Ry
      -> PAW hartree energy AE =       7.76956493 Ry
      -> PAW hartree energy PS =      -7.76154494 Ry
      -> PAW xc energy AE      =     -10.24941827 Ry
      -> PAW xc energy PS      =       4.07701707 Ry
      -> total E_H with PAW    =      67.19824825 Ry
      -> total E_XC with PAW   =     -15.11393974 Ry

     convergence has been achieved in   4 iterations

     negative rho (up, down):  1.970E-03 0.000E+00

     Forces acting on atoms (cartesian axes, Ry/au):

     atom    1 type  1   force =    -0.00000900   -0.00000670   -0.00000001
     atom    2 type  1   force =     0.00000900    0.00000670    0.00000001
     The non-local contrib.  to forces
     atom    1 type  1   force =    -0.00028692    0.28468670   -0.00000100
     atom    2 type  1   force =    -0.00020123   -0.28473361   -0.00000099
     The ionic contribution  to forces
     atom    1 type  1   force =    -0.00077314    2.04363526    0.00000000
     atom    2 type  1   force =     0.00077314   -2.04363526   -0.00000000
     The local contribution  to forces
     atom    1 type  1   force =     0.00096354   -2.31729667    0.00000655
     atom    2 type  1   force =    -0.00044483    2.31739673    0.00000659
     The core correction contribution to forces
     atom    1 type  1   force =    -0.00032590   -0.01129653    0.00000004
     atom    2 type  1   force =    -0.00053147    0.01071358    0.00000004
     The Hubbard contrib.    to forces
     atom    1 type  1   force =     0.00000000    0.00000000    0.00000000
     atom    2 type  1   force =     0.00000000    0.00000000    0.00000000
     The SCF correction term to forces
     atom    1 type  1   force =     0.00000001    0.00000052   -0.00000000
     atom    2 type  1   force =    -0.00000001    0.00000124   -0.00000000

     Total force =     0.000016     Total SCF correction =     0.000001
     Energy error            =      2.2E-08 Ry
     Gradient error          =      9.0E-06 Ry/Bohr

     bfgs converged in   3 scf cycles and   2 bfgs steps
     (criteria: energy <  1.0E-05 Ry, force <  1.0E-04 Ry/Bohr)

     End of BFGS Geometry Optimization

     Final energy             =     -36.7255854465 Ry

     File ./tmp/graphene26.3.bfgs deleted, as requested
Begin final coordinates

ATOMIC_POSITIONS (crystal)
C                0.0001222304       -0.0001703743        0.0000000000    1   1   0
C                0.3332107696        0.3335033743        0.0000000000    1   1   0
End final coordinates



     Writing all to output data dir ./tmp/graphene26.3.save/ :
     XML data file, charge density, pseudopotentials, collected wavefunctions

     init_run     :      1.57s CPU      1.57s WALL (       1 calls)
     electrons    :     19.81s CPU     20.01s WALL (       3 calls)
     update_pot   :      0.04s CPU      0.05s WALL (       2 calls)
     forces       :      0.26s CPU      0.28s WALL (       3 calls)

     Called by init_run:
     wfcinit      :      0.81s CPU      0.81s WALL (       1 calls)
     wfcinit:atom :      0.01s CPU      0.01s WALL (      72 calls)
     wfcinit:wfcr :      0.72s CPU      0.73s WALL (      72 calls)
     potinit      :      0.04s CPU      0.04s WALL (       1 calls)
     hinit0       :      0.70s CPU      0.70s WALL (       1 calls)

     Called by electrons:
     c_bands      :     16.78s CPU     16.87s WALL (      16 calls)
     sum_band     :      2.66s CPU      2.67s WALL (      16 calls)
     v_of_rho     :      0.20s CPU      0.21s WALL (      17 calls)
     v_h          :      0.01s CPU      0.01s WALL (      17 calls)
     v_xc         :      0.23s CPU      0.25s WALL (      20 calls)
     newd         :      0.02s CPU      0.02s WALL (      17 calls)
     PAW_pot      :      0.16s CPU      0.17s WALL (      19 calls)
     mix_rho      :      0.02s CPU      0.02s WALL (      16 calls)

     Called by c_bands:
     init_us_2    :      0.61s CPU      0.62s WALL (    2736 calls)
     cegterg      :     14.25s CPU     14.33s WALL (    1152 calls)

     Called by sum_band:
     sum_band:wei :      0.01s CPU      0.01s WALL (      16 calls)
     sum_band:loo :      2.52s CPU      2.53s WALL (      16 calls)
     sum_band:buf :      0.06s CPU      0.06s WALL (    1152 calls)
     sum_band:ini :      0.25s CPU      0.25s WALL (    1152 calls)
     sum_band:cal :      0.15s CPU      0.16s WALL (    1296 calls)
     sum_band:bec :      0.00s CPU      0.00s WALL (    1296 calls)
     addusdens    :      0.02s CPU      0.02s WALL (      16 calls)
                                        0.00s GPU  (      16 calls)
     addusd:skk   :      0.00s CPU      0.00s WALL (      16 calls)
                                        0.00s GPU  (      16 calls)

     Called by *egterg:
     cdiaghg      :      0.23s CPU      0.23s WALL (    4428 calls)
     cegterg:over :      0.42s CPU      0.42s WALL (    3564 calls)
     cegterg:upda :      0.35s CPU      0.36s WALL (    3564 calls)
     cegterg:last :      0.58s CPU      0.58s WALL (    2416 calls)
     h_psi        :     12.56s CPU     12.63s WALL (    4788 calls)
     s_psi        :      0.36s CPU      0.37s WALL (    4788 calls)
     g_psi        :      0.13s CPU      0.13s WALL (    3564 calls)

     Called by h_psi:
     h_psi:calbec :      0.42s CPU      0.42s WALL (    4788 calls)
     vloc_psi     :     11.65s CPU     11.71s WALL (    4788 calls)
     add_vuspsi   :      0.43s CPU      0.43s WALL (    4788 calls)

     General routines
     calbec       :      0.67s CPU      0.67s WALL (    6948 calls)
     fft          :      0.69s CPU      0.69s WALL (     224 calls)
     ffts         :      0.01s CPU      0.01s WALL (      16 calls)
     fftw         :     11.51s CPU     11.57s WALL (   57402 calls)

     Parallel routines

     PAW routines
     PAW_pot      :      0.16s CPU      0.17s WALL (      19 calls)

     PWSCF        :     21.99s CPU     24.43s WALL


   This run was terminated on:   6:12:55  20Apr2026            

=------------------------------------------------------------------------------=
   JOB DONE.
=------------------------------------------------------------------------------=
